# vtk DataFile Version 3.0
vtk output
ASCII
DATASET UNSTRUCTURED_GRID
POINTS      5151 double 
  0.00000000E+00  1.00000000E+02  0.00000000E+00
  0.00000000E+00  9.80000000E+01  0.00000000E+00
  0.00000000E+00  9.60000000E+01  0.00000000E+00
  0.00000000E+00  9.40000000E+01  0.00000000E+00
  0.00000000E+00  9.20000000E+01  0.00000000E+00
  0.00000000E+00  9.00000000E+01  0.00000000E+00
  0.00000000E+00  8.80000000E+01  0.00000000E+00
  0.00000000E+00  8.60000000E+01  0.00000000E+00
  0.00000000E+00  8.40000000E+01  0.00000000E+00
  0.00000000E+00  8.20000000E+01  0.00000000E+00
  0.00000000E+00  8.00000000E+01  0.00000000E+00
  0.00000000E+00  7.80000000E+01  0.00000000E+00
  0.00000000E+00  7.60000000E+01  0.00000000E+00
  0.00000000E+00  7.40000000E+01  0.00000000E+00
  0.00000000E+00  7.20000000E+01  0.00000000E+00
  0.00000000E+00  7.00000000E+01  0.00000000E+00
  0.00000000E+00  6.80000000E+01  0.00000000E+00
  0.00000000E+00  6.60000000E+01  0.00000000E+00
  0.00000000E+00  6.40000000E+01  0.00000000E+00
  0.00000000E+00  6.20000000E+01  0.00000000E+00
  0.00000000E+00  6.00000000E+01  0.00000000E+00
  0.00000000E+00  5.80000000E+01  0.00000000E+00
  0.00000000E+00  5.60000000E+01  0.00000000E+00
  0.00000000E+00  5.40000000E+01  0.00000000E+00
  0.00000000E+00  5.20000000E+01  0.00000000E+00
  0.00000000E+00  5.00000000E+01  0.00000000E+00
  0.00000000E+00  4.80000000E+01  0.00000000E+00
  0.00000000E+00  4.60000000E+01  0.00000000E+00
  0.00000000E+00  4.40000000E+01  0.00000000E+00
  0.00000000E+00  4.20000000E+01  0.00000000E+00
  0.00000000E+00  4.00000000E+01  0.00000000E+00
  0.00000000E+00  3.80000000E+01  0.00000000E+00
  0.00000000E+00  3.60000000E+01  0.00000000E+00
  0.00000000E+00  3.40000000E+01  0.00000000E+00
  0.00000000E+00  3.20000000E+01  0.00000000E+00
  0.00000000E+00  3.00000000E+01  0.00000000E+00
  0.00000000E+00  2.80000000E+01  0.00000000E+00
  0.00000000E+00  2.60000000E+01  0.00000000E+00
  0.00000000E+00  2.40000000E+01  0.00000000E+00
  0.00000000E+00  2.20000000E+01  0.00000000E+00
  0.00000000E+00  2.00000000E+01  0.00000000E+00
  0.00000000E+00  1.80000000E+01  0.00000000E+00
  0.00000000E+00  1.60000000E+01  0.00000000E+00
  0.00000000E+00  1.40000000E+01  0.00000000E+00
  0.00000000E+00  1.20000000E+01  0.00000000E+00
  0.00000000E+00  1.00000000E+01  0.00000000E+00
  0.00000000E+00  8.00000000E+00  0.00000000E+00
  0.00000000E+00  6.00000000E+00  0.00000000E+00
  0.00000000E+00  4.00000000E+00  0.00000000E+00
  0.00000000E+00  2.00000000E+00  0.00000000E+00
  0.00000000E+00 -3.33066907E-14  0.00000000E+00
  1.00000000E+01  1.00000000E+02  0.00000000E+00
  1.00000000E+01  9.80000000E+01  0.00000000E+00
  1.00000000E+01  9.60000000E+01  0.00000000E+00
  1.00000000E+01  9.40000000E+01  0.00000000E+00
  1.00000000E+01  9.20000000E+01  0.00000000E+00
  1.00000000E+01  9.00000000E+01  0.00000000E+00
  1.00000000E+01  8.80000000E+01  0.00000000E+00
  1.00000000E+01  8.60000000E+01  0.00000000E+00
  1.00000000E+01  8.40000000E+01  0.00000000E+00
  1.00000000E+01  8.20000000E+01  0.00000000E+00
  1.00000000E+01  8.00000000E+01  0.00000000E+00
  1.00000000E+01  7.80000000E+01  0.00000000E+00
  1.00000000E+01  7.60000000E+01  0.00000000E+00
  1.00000000E+01  7.40000000E+01  0.00000000E+00
  1.00000000E+01  7.20000000E+01  0.00000000E+00
  1.00000000E+01  7.00000000E+01  0.00000000E+00
  1.00000000E+01  6.80000000E+01  0.00000000E+00
  1.00000000E+01  6.60000000E+01  0.00000000E+00
  1.00000000E+01  6.40000000E+01  0.00000000E+00
  1.00000000E+01  6.20000000E+01  0.00000000E+00
  1.00000000E+01  6.00000000E+01  0.00000000E+00
  1.00000000E+01  5.80000000E+01  0.00000000E+00
  1.00000000E+01  5.60000000E+01  0.00000000E+00
  1.00000000E+01  5.40000000E+01  0.00000000E+00
  1.00000000E+01  5.20000000E+01  0.00000000E+00
  1.00000000E+01  5.00000000E+01  0.00000000E+00
  1.00000000E+01  4.80000000E+01  0.00000000E+00
  1.00000000E+01  4.60000000E+01  0.00000000E+00
  1.00000000E+01  4.40000000E+01  0.00000000E+00
  1.00000000E+01  4.20000000E+01  0.00000000E+00
  1.00000000E+01  4.00000000E+01  0.00000000E+00
  1.00000000E+01  3.80000000E+01  0.00000000E+00
  1.00000000E+01  3.60000000E+01  0.00000000E+00
  1.00000000E+01  3.40000000E+01  0.00000000E+00
  1.00000000E+01  3.20000000E+01  0.00000000E+00
  1.00000000E+01  3.00000000E+01  0.00000000E+00
  1.00000000E+01  2.80000000E+01  0.00000000E+00
  1.00000000E+01  2.60000000E+01  0.00000000E+00
  1.00000000E+01  2.40000000E+01  0.00000000E+00
  1.00000000E+01  2.20000000E+01  0.00000000E+00
  1.00000000E+01  2.00000000E+01  0.00000000E+00
  1.00000000E+01  1.80000000E+01  0.00000000E+00
  1.00000000E+01  1.60000000E+01  0.00000000E+00
  1.00000000E+01  1.40000000E+01  0.00000000E+00
  1.00000000E+01  1.20000000E+01  0.00000000E+00
  1.00000000E+01  1.00000000E+01  0.00000000E+00
  1.00000000E+01  8.00000000E+00  0.00000000E+00
  1.00000000E+01  6.00000000E+00  0.00000000E+00
  1.00000000E+01  4.00000000E+00  0.00000000E+00
  1.00000000E+01  2.00000000E+00  0.00000000E+00
  1.00000000E+01 -3.33066907E-14  0.00000000E+00
  2.00000000E+01  1.00000000E+02  0.00000000E+00
  2.00000000E+01  9.80000000E+01  0.00000000E+00
  2.00000000E+01  9.60000000E+01  0.00000000E+00
  2.00000000E+01  9.40000000E+01  0.00000000E+00
  2.00000000E+01  9.20000000E+01  0.00000000E+00
  2.00000000E+01  9.00000000E+01  0.00000000E+00
  2.00000000E+01  8.80000000E+01  0.00000000E+00
  2.00000000E+01  8.60000000E+01  0.00000000E+00
  2.00000000E+01  8.40000000E+01  0.00000000E+00
  2.00000000E+01  8.20000000E+01  0.00000000E+00
  2.00000000E+01  8.00000000E+01  0.00000000E+00
  2.00000000E+01  7.80000000E+01  0.00000000E+00
  2.00000000E+01  7.60000000E+01  0.00000000E+00
  2.00000000E+01  7.40000000E+01  0.00000000E+00
  2.00000000E+01  7.20000000E+01  0.00000000E+00
  2.00000000E+01  7.00000000E+01  0.00000000E+00
  2.00000000E+01  6.80000000E+01  0.00000000E+00
  2.00000000E+01  6.60000000E+01  0.00000000E+00
  2.00000000E+01  6.40000000E+01  0.00000000E+00
  2.00000000E+01  6.20000000E+01  0.00000000E+00
  2.00000000E+01  6.00000000E+01  0.00000000E+00
  2.00000000E+01  5.80000000E+01  0.00000000E+00
  2.00000000E+01  5.60000000E+01  0.00000000E+00
  2.00000000E+01  5.40000000E+01  0.00000000E+00
  2.00000000E+01  5.20000000E+01  0.00000000E+00
  2.00000000E+01  5.00000000E+01  0.00000000E+00
  2.00000000E+01  4.80000000E+01  0.00000000E+00
  2.00000000E+01  4.60000000E+01  0.00000000E+00
  2.00000000E+01  4.40000000E+01  0.00000000E+00
  2.00000000E+01  4.20000000E+01  0.00000000E+00
  2.00000000E+01  4.00000000E+01  0.00000000E+00
  2.00000000E+01  3.80000000E+01  0.00000000E+00
  2.00000000E+01  3.60000000E+01  0.00000000E+00
  2.00000000E+01  3.40000000E+01  0.00000000E+00
  2.00000000E+01  3.20000000E+01  0.00000000E+00
  2.00000000E+01  3.00000000E+01  0.00000000E+00
  2.00000000E+01  2.80000000E+01  0.00000000E+00
  2.00000000E+01  2.60000000E+01  0.00000000E+00
  2.00000000E+01  2.40000000E+01  0.00000000E+00
  2.00000000E+01  2.20000000E+01  0.00000000E+00
  2.00000000E+01  2.00000000E+01  0.00000000E+00
  2.00000000E+01  1.80000000E+01  0.00000000E+00
  2.00000000E+01  1.60000000E+01  0.00000000E+00
  2.00000000E+01  1.40000000E+01  0.00000000E+00
  2.00000000E+01  1.20000000E+01  0.00000000E+00
  2.00000000E+01  1.00000000E+01  0.00000000E+00
  2.00000000E+01  8.00000000E+00  0.00000000E+00
  2.00000000E+01  6.00000000E+00  0.00000000E+00
  2.00000000E+01  4.00000000E+00  0.00000000E+00
  2.00000000E+01  2.00000000E+00  0.00000000E+00
  2.00000000E+01 -3.33066907E-14  0.00000000E+00
  3.00000000E+01  1.00000000E+02  0.00000000E+00
  3.00000000E+01  9.80000000E+01  0.00000000E+00
  3.00000000E+01  9.60000000E+01  0.00000000E+00
  3.00000000E+01  9.40000000E+01  0.00000000E+00
  3.00000000E+01  9.20000000E+01  0.00000000E+00
  3.00000000E+01  9.00000000E+01  0.00000000E+00
  3.00000000E+01  8.80000000E+01  0.00000000E+00
  3.00000000E+01  8.60000000E+01  0.00000000E+00
  3.00000000E+01  8.40000000E+01  0.00000000E+00
  3.00000000E+01  8.20000000E+01  0.00000000E+00
  3.00000000E+01  8.00000000E+01  0.00000000E+00
  3.00000000E+01  7.80000000E+01  0.00000000E+00
  3.00000000E+01  7.60000000E+01  0.00000000E+00
  3.00000000E+01  7.40000000E+01  0.00000000E+00
  3.00000000E+01  7.20000000E+01  0.00000000E+00
  3.00000000E+01  7.00000000E+01  0.00000000E+00
  3.00000000E+01  6.80000000E+01  0.00000000E+00
  3.00000000E+01  6.60000000E+01  0.00000000E+00
  3.00000000E+01  6.40000000E+01  0.00000000E+00
  3.00000000E+01  6.20000000E+01  0.00000000E+00
  3.00000000E+01  6.00000000E+01  0.00000000E+00
  3.00000000E+01  5.80000000E+01  0.00000000E+00
  3.00000000E+01  5.60000000E+01  0.00000000E+00
  3.00000000E+01  5.40000000E+01  0.00000000E+00
  3.00000000E+01  5.20000000E+01  0.00000000E+00
  3.00000000E+01  5.00000000E+01  0.00000000E+00
  3.00000000E+01  4.80000000E+01  0.00000000E+00
  3.00000000E+01  4.60000000E+01  0.00000000E+00
  3.00000000E+01  4.40000000E+01  0.00000000E+00
  3.00000000E+01  4.20000000E+01  0.00000000E+00
  3.00000000E+01  4.00000000E+01  0.00000000E+00
  3.00000000E+01  3.80000000E+01  0.00000000E+00
  3.00000000E+01  3.60000000E+01  0.00000000E+00
  3.00000000E+01  3.40000000E+01  0.00000000E+00
  3.00000000E+01  3.20000000E+01  0.00000000E+00
  3.00000000E+01  3.00000000E+01  0.00000000E+00
  3.00000000E+01  2.80000000E+01  0.00000000E+00
  3.00000000E+01  2.60000000E+01  0.00000000E+00
  3.00000000E+01  2.40000000E+01  0.00000000E+00
  3.00000000E+01  2.20000000E+01  0.00000000E+00
  3.00000000E+01  2.00000000E+01  0.00000000E+00
  3.00000000E+01  1.80000000E+01  0.00000000E+00
  3.00000000E+01  1.60000000E+01  0.00000000E+00
  3.00000000E+01  1.40000000E+01  0.00000000E+00
  3.00000000E+01  1.20000000E+01  0.00000000E+00
  3.00000000E+01  1.00000000E+01  0.00000000E+00
  3.00000000E+01  8.00000000E+00  0.00000000E+00
  3.00000000E+01  6.00000000E+00  0.00000000E+00
  3.00000000E+01  4.00000000E+00  0.00000000E+00
  3.00000000E+01  2.00000000E+00  0.00000000E+00
  3.00000000E+01 -3.33066907E-14  0.00000000E+00
  4.00000000E+01  1.00000000E+02  0.00000000E+00
  4.00000000E+01  9.80000000E+01  0.00000000E+00
  4.00000000E+01  9.60000000E+01  0.00000000E+00
  4.00000000E+01  9.40000000E+01  0.00000000E+00
  4.00000000E+01  9.20000000E+01  0.00000000E+00
  4.00000000E+01  9.00000000E+01  0.00000000E+00
  4.00000000E+01  8.80000000E+01  0.00000000E+00
  4.00000000E+01  8.60000000E+01  0.00000000E+00
  4.00000000E+01  8.40000000E+01  0.00000000E+00
  4.00000000E+01  8.20000000E+01  0.00000000E+00
  4.00000000E+01  8.00000000E+01  0.00000000E+00
  4.00000000E+01  7.80000000E+01  0.00000000E+00
  4.00000000E+01  7.60000000E+01  0.00000000E+00
  4.00000000E+01  7.40000000E+01  0.00000000E+00
  4.00000000E+01  7.20000000E+01  0.00000000E+00
  4.00000000E+01  7.00000000E+01  0.00000000E+00
  4.00000000E+01  6.80000000E+01  0.00000000E+00
  4.00000000E+01  6.60000000E+01  0.00000000E+00
  4.00000000E+01  6.40000000E+01  0.00000000E+00
  4.00000000E+01  6.20000000E+01  0.00000000E+00
  4.00000000E+01  6.00000000E+01  0.00000000E+00
  4.00000000E+01  5.80000000E+01  0.00000000E+00
  4.00000000E+01  5.60000000E+01  0.00000000E+00
  4.00000000E+01  5.40000000E+01  0.00000000E+00
  4.00000000E+01  5.20000000E+01  0.00000000E+00
  4.00000000E+01  5.00000000E+01  0.00000000E+00
  4.00000000E+01  4.80000000E+01  0.00000000E+00
  4.00000000E+01  4.60000000E+01  0.00000000E+00
  4.00000000E+01  4.40000000E+01  0.00000000E+00
  4.00000000E+01  4.20000000E+01  0.00000000E+00
  4.00000000E+01  4.00000000E+01  0.00000000E+00
  4.00000000E+01  3.80000000E+01  0.00000000E+00
  4.00000000E+01  3.60000000E+01  0.00000000E+00
  4.00000000E+01  3.40000000E+01  0.00000000E+00
  4.00000000E+01  3.20000000E+01  0.00000000E+00
  4.00000000E+01  3.00000000E+01  0.00000000E+00
  4.00000000E+01  2.80000000E+01  0.00000000E+00
  4.00000000E+01  2.60000000E+01  0.00000000E+00
  4.00000000E+01  2.40000000E+01  0.00000000E+00
  4.00000000E+01  2.20000000E+01  0.00000000E+00
  4.00000000E+01  2.00000000E+01  0.00000000E+00
  4.00000000E+01  1.80000000E+01  0.00000000E+00
  4.00000000E+01  1.60000000E+01  0.00000000E+00
  4.00000000E+01  1.40000000E+01  0.00000000E+00
  4.00000000E+01  1.20000000E+01  0.00000000E+00
  4.00000000E+01  1.00000000E+01  0.00000000E+00
  4.00000000E+01  8.00000000E+00  0.00000000E+00
  4.00000000E+01  6.00000000E+00  0.00000000E+00
  4.00000000E+01  4.00000000E+00  0.00000000E+00
  4.00000000E+01  2.00000000E+00  0.00000000E+00
  4.00000000E+01 -3.33066907E-14  0.00000000E+00
  5.00000000E+01  1.00000000E+02  0.00000000E+00
  5.00000000E+01  9.80000000E+01  0.00000000E+00
  5.00000000E+01  9.60000000E+01  0.00000000E+00
  5.00000000E+01  9.40000000E+01  0.00000000E+00
  5.00000000E+01  9.20000000E+01  0.00000000E+00
  5.00000000E+01  9.00000000E+01  0.00000000E+00
  5.00000000E+01  8.80000000E+01  0.00000000E+00
  5.00000000E+01  8.60000000E+01  0.00000000E+00
  5.00000000E+01  8.40000000E+01  0.00000000E+00
  5.00000000E+01  8.20000000E+01  0.00000000E+00
  5.00000000E+01  8.00000000E+01  0.00000000E+00
  5.00000000E+01  7.80000000E+01  0.00000000E+00
  5.00000000E+01  7.60000000E+01  0.00000000E+00
  5.00000000E+01  7.40000000E+01  0.00000000E+00
  5.00000000E+01  7.20000000E+01  0.00000000E+00
  5.00000000E+01  7.00000000E+01  0.00000000E+00
  5.00000000E+01  6.80000000E+01  0.00000000E+00
  5.00000000E+01  6.60000000E+01  0.00000000E+00
  5.00000000E+01  6.40000000E+01  0.00000000E+00
  5.00000000E+01  6.20000000E+01  0.00000000E+00
  5.00000000E+01  6.00000000E+01  0.00000000E+00
  5.00000000E+01  5.80000000E+01  0.00000000E+00
  5.00000000E+01  5.60000000E+01  0.00000000E+00
  5.00000000E+01  5.40000000E+01  0.00000000E+00
  5.00000000E+01  5.20000000E+01  0.00000000E+00
  5.00000000E+01  5.00000000E+01  0.00000000E+00
  5.00000000E+01  4.80000000E+01  0.00000000E+00
  5.00000000E+01  4.60000000E+01  0.00000000E+00
  5.00000000E+01  4.40000000E+01  0.00000000E+00
  5.00000000E+01  4.20000000E+01  0.00000000E+00
  5.00000000E+01  4.00000000E+01  0.00000000E+00
  5.00000000E+01  3.80000000E+01  0.00000000E+00
  5.00000000E+01  3.60000000E+01  0.00000000E+00
  5.00000000E+01  3.40000000E+01  0.00000000E+00
  5.00000000E+01  3.20000000E+01  0.00000000E+00
  5.00000000E+01  3.00000000E+01  0.00000000E+00
  5.00000000E+01  2.80000000E+01  0.00000000E+00
  5.00000000E+01  2.60000000E+01  0.00000000E+00
  5.00000000E+01  2.40000000E+01  0.00000000E+00
  5.00000000E+01  2.20000000E+01  0.00000000E+00
  5.00000000E+01  2.00000000E+01  0.00000000E+00
  5.00000000E+01  1.80000000E+01  0.00000000E+00
  5.00000000E+01  1.60000000E+01  0.00000000E+00
  5.00000000E+01  1.40000000E+01  0.00000000E+00
  5.00000000E+01  1.20000000E+01  0.00000000E+00
  5.00000000E+01  1.00000000E+01  0.00000000E+00
  5.00000000E+01  8.00000000E+00  0.00000000E+00
  5.00000000E+01  6.00000000E+00  0.00000000E+00
  5.00000000E+01  4.00000000E+00  0.00000000E+00
  5.00000000E+01  2.00000000E+00  0.00000000E+00
  5.00000000E+01 -3.33066907E-14  0.00000000E+00
  6.00000000E+01  1.00000000E+02  0.00000000E+00
  6.00000000E+01  9.80000000E+01  0.00000000E+00
  6.00000000E+01  9.60000000E+01  0.00000000E+00
  6.00000000E+01  9.40000000E+01  0.00000000E+00
  6.00000000E+01  9.20000000E+01  0.00000000E+00
  6.00000000E+01  9.00000000E+01  0.00000000E+00
  6.00000000E+01  8.80000000E+01  0.00000000E+00
  6.00000000E+01  8.60000000E+01  0.00000000E+00
  6.00000000E+01  8.40000000E+01  0.00000000E+00
  6.00000000E+01  8.20000000E+01  0.00000000E+00
  6.00000000E+01  8.00000000E+01  0.00000000E+00
  6.00000000E+01  7.80000000E+01  0.00000000E+00
  6.00000000E+01  7.60000000E+01  0.00000000E+00
  6.00000000E+01  7.40000000E+01  0.00000000E+00
  6.00000000E+01  7.20000000E+01  0.00000000E+00
  6.00000000E+01  7.00000000E+01  0.00000000E+00
  6.00000000E+01  6.80000000E+01  0.00000000E+00
  6.00000000E+01  6.60000000E+01  0.00000000E+00
  6.00000000E+01  6.40000000E+01  0.00000000E+00
  6.00000000E+01  6.20000000E+01  0.00000000E+00
  6.00000000E+01  6.00000000E+01  0.00000000E+00
  6.00000000E+01  5.80000000E+01  0.00000000E+00
  6.00000000E+01  5.60000000E+01  0.00000000E+00
  6.00000000E+01  5.40000000E+01  0.00000000E+00
  6.00000000E+01  5.20000000E+01  0.00000000E+00
  6.00000000E+01  5.00000000E+01  0.00000000E+00
  6.00000000E+01  4.80000000E+01  0.00000000E+00
  6.00000000E+01  4.60000000E+01  0.00000000E+00
  6.00000000E+01  4.40000000E+01  0.00000000E+00
  6.00000000E+01  4.20000000E+01  0.00000000E+00
  6.00000000E+01  4.00000000E+01  0.00000000E+00
  6.00000000E+01  3.80000000E+01  0.00000000E+00
  6.00000000E+01  3.60000000E+01  0.00000000E+00
  6.00000000E+01  3.40000000E+01  0.00000000E+00
  6.00000000E+01  3.20000000E+01  0.00000000E+00
  6.00000000E+01  3.00000000E+01  0.00000000E+00
  6.00000000E+01  2.80000000E+01  0.00000000E+00
  6.00000000E+01  2.60000000E+01  0.00000000E+00
  6.00000000E+01  2.40000000E+01  0.00000000E+00
  6.00000000E+01  2.20000000E+01  0.00000000E+00
  6.00000000E+01  2.00000000E+01  0.00000000E+00
  6.00000000E+01  1.80000000E+01  0.00000000E+00
  6.00000000E+01  1.60000000E+01  0.00000000E+00
  6.00000000E+01  1.40000000E+01  0.00000000E+00
  6.00000000E+01  1.20000000E+01  0.00000000E+00
  6.00000000E+01  1.00000000E+01  0.00000000E+00
  6.00000000E+01  8.00000000E+00  0.00000000E+00
  6.00000000E+01  6.00000000E+00  0.00000000E+00
  6.00000000E+01  4.00000000E+00  0.00000000E+00
  6.00000000E+01  2.00000000E+00  0.00000000E+00
  6.00000000E+01 -3.33066907E-14  0.00000000E+00
  7.00000000E+01  1.00000000E+02  0.00000000E+00
  7.00000000E+01  9.80000000E+01  0.00000000E+00
  7.00000000E+01  9.60000000E+01  0.00000000E+00
  7.00000000E+01  9.40000000E+01  0.00000000E+00
  7.00000000E+01  9.20000000E+01  0.00000000E+00
  7.00000000E+01  9.00000000E+01  0.00000000E+00
  7.00000000E+01  8.80000000E+01  0.00000000E+00
  7.00000000E+01  8.60000000E+01  0.00000000E+00
  7.00000000E+01  8.40000000E+01  0.00000000E+00
  7.00000000E+01  8.20000000E+01  0.00000000E+00
  7.00000000E+01  8.00000000E+01  0.00000000E+00
  7.00000000E+01  7.80000000E+01  0.00000000E+00
  7.00000000E+01  7.60000000E+01  0.00000000E+00
  7.00000000E+01  7.40000000E+01  0.00000000E+00
  7.00000000E+01  7.20000000E+01  0.00000000E+00
  7.00000000E+01  7.00000000E+01  0.00000000E+00
  7.00000000E+01  6.80000000E+01  0.00000000E+00
  7.00000000E+01  6.60000000E+01  0.00000000E+00
  7.00000000E+01  6.40000000E+01  0.00000000E+00
  7.00000000E+01  6.20000000E+01  0.00000000E+00
  7.00000000E+01  6.00000000E+01  0.00000000E+00
  7.00000000E+01  5.80000000E+01  0.00000000E+00
  7.00000000E+01  5.60000000E+01  0.00000000E+00
  7.00000000E+01  5.40000000E+01  0.00000000E+00
  7.00000000E+01  5.20000000E+01  0.00000000E+00
  7.00000000E+01  5.00000000E+01  0.00000000E+00
  7.00000000E+01  4.80000000E+01  0.00000000E+00
  7.00000000E+01  4.60000000E+01  0.00000000E+00
  7.00000000E+01  4.40000000E+01  0.00000000E+00
  7.00000000E+01  4.20000000E+01  0.00000000E+00
  7.00000000E+01  4.00000000E+01  0.00000000E+00
  7.00000000E+01  3.80000000E+01  0.00000000E+00
  7.00000000E+01  3.60000000E+01  0.00000000E+00
  7.00000000E+01  3.40000000E+01  0.00000000E+00
  7.00000000E+01  3.20000000E+01  0.00000000E+00
  7.00000000E+01  3.00000000E+01  0.00000000E+00
  7.00000000E+01  2.80000000E+01  0.00000000E+00
  7.00000000E+01  2.60000000E+01  0.00000000E+00
  7.00000000E+01  2.40000000E+01  0.00000000E+00
  7.00000000E+01  2.20000000E+01  0.00000000E+00
  7.00000000E+01  2.00000000E+01  0.00000000E+00
  7.00000000E+01  1.80000000E+01  0.00000000E+00
  7.00000000E+01  1.60000000E+01  0.00000000E+00
  7.00000000E+01  1.40000000E+01  0.00000000E+00
  7.00000000E+01  1.20000000E+01  0.00000000E+00
  7.00000000E+01  1.00000000E+01  0.00000000E+00
  7.00000000E+01  8.00000000E+00  0.00000000E+00
  7.00000000E+01  6.00000000E+00  0.00000000E+00
  7.00000000E+01  4.00000000E+00  0.00000000E+00
  7.00000000E+01  2.00000000E+00  0.00000000E+00
  7.00000000E+01 -3.33066907E-14  0.00000000E+00
  8.00000000E+01  1.00000000E+02  0.00000000E+00
  8.00000000E+01  9.80000000E+01  0.00000000E+00
  8.00000000E+01  9.60000000E+01  0.00000000E+00
  8.00000000E+01  9.40000000E+01  0.00000000E+00
  8.00000000E+01  9.20000000E+01  0.00000000E+00
  8.00000000E+01  9.00000000E+01  0.00000000E+00
  8.00000000E+01  8.80000000E+01  0.00000000E+00
  8.00000000E+01  8.60000000E+01  0.00000000E+00
  8.00000000E+01  8.40000000E+01  0.00000000E+00
  8.00000000E+01  8.20000000E+01  0.00000000E+00
  8.00000000E+01  8.00000000E+01  0.00000000E+00
  8.00000000E+01  7.80000000E+01  0.00000000E+00
  8.00000000E+01  7.60000000E+01  0.00000000E+00
  8.00000000E+01  7.40000000E+01  0.00000000E+00
  8.00000000E+01  7.20000000E+01  0.00000000E+00
  8.00000000E+01  7.00000000E+01  0.00000000E+00
  8.00000000E+01  6.80000000E+01  0.00000000E+00
  8.00000000E+01  6.60000000E+01  0.00000000E+00
  8.00000000E+01  6.40000000E+01  0.00000000E+00
  8.00000000E+01  6.20000000E+01  0.00000000E+00
  8.00000000E+01  6.00000000E+01  0.00000000E+00
  8.00000000E+01  5.80000000E+01  0.00000000E+00
  8.00000000E+01  5.60000000E+01  0.00000000E+00
  8.00000000E+01  5.40000000E+01  0.00000000E+00
  8.00000000E+01  5.20000000E+01  0.00000000E+00
  8.00000000E+01  5.00000000E+01  0.00000000E+00
  8.00000000E+01  4.80000000E+01  0.00000000E+00
  8.00000000E+01  4.60000000E+01  0.00000000E+00
  8.00000000E+01  4.40000000E+01  0.00000000E+00
  8.00000000E+01  4.20000000E+01  0.00000000E+00
  8.00000000E+01  4.00000000E+01  0.00000000E+00
  8.00000000E+01  3.80000000E+01  0.00000000E+00
  8.00000000E+01  3.60000000E+01  0.00000000E+00
  8.00000000E+01  3.40000000E+01  0.00000000E+00
  8.00000000E+01  3.20000000E+01  0.00000000E+00
  8.00000000E+01  3.00000000E+01  0.00000000E+00
  8.00000000E+01  2.80000000E+01  0.00000000E+00
  8.00000000E+01  2.60000000E+01  0.00000000E+00
  8.00000000E+01  2.40000000E+01  0.00000000E+00
  8.00000000E+01  2.20000000E+01  0.00000000E+00
  8.00000000E+01  2.00000000E+01  0.00000000E+00
  8.00000000E+01  1.80000000E+01  0.00000000E+00
  8.00000000E+01  1.60000000E+01  0.00000000E+00
  8.00000000E+01  1.40000000E+01  0.00000000E+00
  8.00000000E+01  1.20000000E+01  0.00000000E+00
  8.00000000E+01  1.00000000E+01  0.00000000E+00
  8.00000000E+01  8.00000000E+00  0.00000000E+00
  8.00000000E+01  6.00000000E+00  0.00000000E+00
  8.00000000E+01  4.00000000E+00  0.00000000E+00
  8.00000000E+01  2.00000000E+00  0.00000000E+00
  8.00000000E+01 -3.33066907E-14  0.00000000E+00
  9.00000000E+01  1.00000000E+02  0.00000000E+00
  9.00000000E+01  9.80000000E+01  0.00000000E+00
  9.00000000E+01  9.60000000E+01  0.00000000E+00
  9.00000000E+01  9.40000000E+01  0.00000000E+00
  9.00000000E+01  9.20000000E+01  0.00000000E+00
  9.00000000E+01  9.00000000E+01  0.00000000E+00
  9.00000000E+01  8.80000000E+01  0.00000000E+00
  9.00000000E+01  8.60000000E+01  0.00000000E+00
  9.00000000E+01  8.40000000E+01  0.00000000E+00
  9.00000000E+01  8.20000000E+01  0.00000000E+00
  9.00000000E+01  8.00000000E+01  0.00000000E+00
  9.00000000E+01  7.80000000E+01  0.00000000E+00
  9.00000000E+01  7.60000000E+01  0.00000000E+00
  9.00000000E+01  7.40000000E+01  0.00000000E+00
  9.00000000E+01  7.20000000E+01  0.00000000E+00
  9.00000000E+01  7.00000000E+01  0.00000000E+00
  9.00000000E+01  6.80000000E+01  0.00000000E+00
  9.00000000E+01  6.60000000E+01  0.00000000E+00
  9.00000000E+01  6.40000000E+01  0.00000000E+00
  9.00000000E+01  6.20000000E+01  0.00000000E+00
  9.00000000E+01  6.00000000E+01  0.00000000E+00
  9.00000000E+01  5.80000000E+01  0.00000000E+00
  9.00000000E+01  5.60000000E+01  0.00000000E+00
  9.00000000E+01  5.40000000E+01  0.00000000E+00
  9.00000000E+01  5.20000000E+01  0.00000000E+00
  9.00000000E+01  5.00000000E+01  0.00000000E+00
  9.00000000E+01  4.80000000E+01  0.00000000E+00
  9.00000000E+01  4.60000000E+01  0.00000000E+00
  9.00000000E+01  4.40000000E+01  0.00000000E+00
  9.00000000E+01  4.20000000E+01  0.00000000E+00
  9.00000000E+01  4.00000000E+01  0.00000000E+00
  9.00000000E+01  3.80000000E+01  0.00000000E+00
  9.00000000E+01  3.60000000E+01  0.00000000E+00
  9.00000000E+01  3.40000000E+01  0.00000000E+00
  9.00000000E+01  3.20000000E+01  0.00000000E+00
  9.00000000E+01  3.00000000E+01  0.00000000E+00
  9.00000000E+01  2.80000000E+01  0.00000000E+00
  9.00000000E+01  2.60000000E+01  0.00000000E+00
  9.00000000E+01  2.40000000E+01  0.00000000E+00
  9.00000000E+01  2.20000000E+01  0.00000000E+00
  9.00000000E+01  2.00000000E+01  0.00000000E+00
  9.00000000E+01  1.80000000E+01  0.00000000E+00
  9.00000000E+01  1.60000000E+01  0.00000000E+00
  9.00000000E+01  1.40000000E+01  0.00000000E+00
  9.00000000E+01  1.20000000E+01  0.00000000E+00
  9.00000000E+01  1.00000000E+01  0.00000000E+00
  9.00000000E+01  8.00000000E+00  0.00000000E+00
  9.00000000E+01  6.00000000E+00  0.00000000E+00
  9.00000000E+01  4.00000000E+00  0.00000000E+00
  9.00000000E+01  2.00000000E+00  0.00000000E+00
  9.00000000E+01 -3.33066907E-14  0.00000000E+00
  1.00000000E+02  1.00000000E+02  0.00000000E+00
  1.00000000E+02  9.80000000E+01  0.00000000E+00
  1.00000000E+02  9.60000000E+01  0.00000000E+00
  1.00000000E+02  9.40000000E+01  0.00000000E+00
  1.00000000E+02  9.20000000E+01  0.00000000E+00
  1.00000000E+02  9.00000000E+01  0.00000000E+00
  1.00000000E+02  8.80000000E+01  0.00000000E+00
  1.00000000E+02  8.60000000E+01  0.00000000E+00
  1.00000000E+02  8.40000000E+01  0.00000000E+00
  1.00000000E+02  8.20000000E+01  0.00000000E+00
  1.00000000E+02  8.00000000E+01  0.00000000E+00
  1.00000000E+02  7.80000000E+01  0.00000000E+00
  1.00000000E+02  7.60000000E+01  0.00000000E+00
  1.00000000E+02  7.40000000E+01  0.00000000E+00
  1.00000000E+02  7.20000000E+01  0.00000000E+00
  1.00000000E+02  7.00000000E+01  0.00000000E+00
  1.00000000E+02  6.80000000E+01  0.00000000E+00
  1.00000000E+02  6.60000000E+01  0.00000000E+00
  1.00000000E+02  6.40000000E+01  0.00000000E+00
  1.00000000E+02  6.20000000E+01  0.00000000E+00
  1.00000000E+02  6.00000000E+01  0.00000000E+00
  1.00000000E+02  5.80000000E+01  0.00000000E+00
  1.00000000E+02  5.60000000E+01  0.00000000E+00
  1.00000000E+02  5.40000000E+01  0.00000000E+00
  1.00000000E+02  5.20000000E+01  0.00000000E+00
  1.00000000E+02  5.00000000E+01  0.00000000E+00
  1.00000000E+02  4.80000000E+01  0.00000000E+00
  1.00000000E+02  4.60000000E+01  0.00000000E+00
  1.00000000E+02  4.40000000E+01  0.00000000E+00
  1.00000000E+02  4.20000000E+01  0.00000000E+00
  1.00000000E+02  4.00000000E+01  0.00000000E+00
  1.00000000E+02  3.80000000E+01  0.00000000E+00
  1.00000000E+02  3.60000000E+01  0.00000000E+00
  1.00000000E+02  3.40000000E+01  0.00000000E+00
  1.00000000E+02  3.20000000E+01  0.00000000E+00
  1.00000000E+02  3.00000000E+01  0.00000000E+00
  1.00000000E+02  2.80000000E+01  0.00000000E+00
  1.00000000E+02  2.60000000E+01  0.00000000E+00
  1.00000000E+02  2.40000000E+01  0.00000000E+00
  1.00000000E+02  2.20000000E+01  0.00000000E+00
  1.00000000E+02  2.00000000E+01  0.00000000E+00
  1.00000000E+02  1.80000000E+01  0.00000000E+00
  1.00000000E+02  1.60000000E+01  0.00000000E+00
  1.00000000E+02  1.40000000E+01  0.00000000E+00
  1.00000000E+02  1.20000000E+01  0.00000000E+00
  1.00000000E+02  1.00000000E+01  0.00000000E+00
  1.00000000E+02  8.00000000E+00  0.00000000E+00
  1.00000000E+02  6.00000000E+00  0.00000000E+00
  1.00000000E+02  4.00000000E+00  0.00000000E+00
  1.00000000E+02  2.00000000E+00  0.00000000E+00
  1.00000000E+02 -3.33066907E-14  0.00000000E+00
  1.10000000E+02  1.00000000E+02  0.00000000E+00
  1.10000000E+02  9.80000000E+01  0.00000000E+00
  1.10000000E+02  9.60000000E+01  0.00000000E+00
  1.10000000E+02  9.40000000E+01  0.00000000E+00
  1.10000000E+02  9.20000000E+01  0.00000000E+00
  1.10000000E+02  9.00000000E+01  0.00000000E+00
  1.10000000E+02  8.80000000E+01  0.00000000E+00
  1.10000000E+02  8.60000000E+01  0.00000000E+00
  1.10000000E+02  8.40000000E+01  0.00000000E+00
  1.10000000E+02  8.20000000E+01  0.00000000E+00
  1.10000000E+02  8.00000000E+01  0.00000000E+00
  1.10000000E+02  7.80000000E+01  0.00000000E+00
  1.10000000E+02  7.60000000E+01  0.00000000E+00
  1.10000000E+02  7.40000000E+01  0.00000000E+00
  1.10000000E+02  7.20000000E+01  0.00000000E+00
  1.10000000E+02  7.00000000E+01  0.00000000E+00
  1.10000000E+02  6.80000000E+01  0.00000000E+00
  1.10000000E+02  6.60000000E+01  0.00000000E+00
  1.10000000E+02  6.40000000E+01  0.00000000E+00
  1.10000000E+02  6.20000000E+01  0.00000000E+00
  1.10000000E+02  6.00000000E+01  0.00000000E+00
  1.10000000E+02  5.80000000E+01  0.00000000E+00
  1.10000000E+02  5.60000000E+01  0.00000000E+00
  1.10000000E+02  5.40000000E+01  0.00000000E+00
  1.10000000E+02  5.20000000E+01  0.00000000E+00
  1.10000000E+02  5.00000000E+01  0.00000000E+00
  1.10000000E+02  4.80000000E+01  0.00000000E+00
  1.10000000E+02  4.60000000E+01  0.00000000E+00
  1.10000000E+02  4.40000000E+01  0.00000000E+00
  1.10000000E+02  4.20000000E+01  0.00000000E+00
  1.10000000E+02  4.00000000E+01  0.00000000E+00
  1.10000000E+02  3.80000000E+01  0.00000000E+00
  1.10000000E+02  3.60000000E+01  0.00000000E+00
  1.10000000E+02  3.40000000E+01  0.00000000E+00
  1.10000000E+02  3.20000000E+01  0.00000000E+00
  1.10000000E+02  3.00000000E+01  0.00000000E+00
  1.10000000E+02  2.80000000E+01  0.00000000E+00
  1.10000000E+02  2.60000000E+01  0.00000000E+00
  1.10000000E+02  2.40000000E+01  0.00000000E+00
  1.10000000E+02  2.20000000E+01  0.00000000E+00
  1.10000000E+02  2.00000000E+01  0.00000000E+00
  1.10000000E+02  1.80000000E+01  0.00000000E+00
  1.10000000E+02  1.60000000E+01  0.00000000E+00
  1.10000000E+02  1.40000000E+01  0.00000000E+00
  1.10000000E+02  1.20000000E+01  0.00000000E+00
  1.10000000E+02  1.00000000E+01  0.00000000E+00
  1.10000000E+02  8.00000000E+00  0.00000000E+00
  1.10000000E+02  6.00000000E+00  0.00000000E+00
  1.10000000E+02  4.00000000E+00  0.00000000E+00
  1.10000000E+02  2.00000000E+00  0.00000000E+00
  1.10000000E+02 -3.33066907E-14  0.00000000E+00
  1.20000000E+02  1.00000000E+02  0.00000000E+00
  1.20000000E+02  9.80000000E+01  0.00000000E+00
  1.20000000E+02  9.60000000E+01  0.00000000E+00
  1.20000000E+02  9.40000000E+01  0.00000000E+00
  1.20000000E+02  9.20000000E+01  0.00000000E+00
  1.20000000E+02  9.00000000E+01  0.00000000E+00
  1.20000000E+02  8.80000000E+01  0.00000000E+00
  1.20000000E+02  8.60000000E+01  0.00000000E+00
  1.20000000E+02  8.40000000E+01  0.00000000E+00
  1.20000000E+02  8.20000000E+01  0.00000000E+00
  1.20000000E+02  8.00000000E+01  0.00000000E+00
  1.20000000E+02  7.80000000E+01  0.00000000E+00
  1.20000000E+02  7.60000000E+01  0.00000000E+00
  1.20000000E+02  7.40000000E+01  0.00000000E+00
  1.20000000E+02  7.20000000E+01  0.00000000E+00
  1.20000000E+02  7.00000000E+01  0.00000000E+00
  1.20000000E+02  6.80000000E+01  0.00000000E+00
  1.20000000E+02  6.60000000E+01  0.00000000E+00
  1.20000000E+02  6.40000000E+01  0.00000000E+00
  1.20000000E+02  6.20000000E+01  0.00000000E+00
  1.20000000E+02  6.00000000E+01  0.00000000E+00
  1.20000000E+02  5.80000000E+01  0.00000000E+00
  1.20000000E+02  5.60000000E+01  0.00000000E+00
  1.20000000E+02  5.40000000E+01  0.00000000E+00
  1.20000000E+02  5.20000000E+01  0.00000000E+00
  1.20000000E+02  5.00000000E+01  0.00000000E+00
  1.20000000E+02  4.80000000E+01  0.00000000E+00
  1.20000000E+02  4.60000000E+01  0.00000000E+00
  1.20000000E+02  4.40000000E+01  0.00000000E+00
  1.20000000E+02  4.20000000E+01  0.00000000E+00
  1.20000000E+02  4.00000000E+01  0.00000000E+00
  1.20000000E+02  3.80000000E+01  0.00000000E+00
  1.20000000E+02  3.60000000E+01  0.00000000E+00
  1.20000000E+02  3.40000000E+01  0.00000000E+00
  1.20000000E+02  3.20000000E+01  0.00000000E+00
  1.20000000E+02  3.00000000E+01  0.00000000E+00
  1.20000000E+02  2.80000000E+01  0.00000000E+00
  1.20000000E+02  2.60000000E+01  0.00000000E+00
  1.20000000E+02  2.40000000E+01  0.00000000E+00
  1.20000000E+02  2.20000000E+01  0.00000000E+00
  1.20000000E+02  2.00000000E+01  0.00000000E+00
  1.20000000E+02  1.80000000E+01  0.00000000E+00
  1.20000000E+02  1.60000000E+01  0.00000000E+00
  1.20000000E+02  1.40000000E+01  0.00000000E+00
  1.20000000E+02  1.20000000E+01  0.00000000E+00
  1.20000000E+02  1.00000000E+01  0.00000000E+00
  1.20000000E+02  8.00000000E+00  0.00000000E+00
  1.20000000E+02  6.00000000E+00  0.00000000E+00
  1.20000000E+02  4.00000000E+00  0.00000000E+00
  1.20000000E+02  2.00000000E+00  0.00000000E+00
  1.20000000E+02 -3.33066907E-14  0.00000000E+00
  1.30000000E+02  1.00000000E+02  0.00000000E+00
  1.30000000E+02  9.80000000E+01  0.00000000E+00
  1.30000000E+02  9.60000000E+01  0.00000000E+00
  1.30000000E+02  9.40000000E+01  0.00000000E+00
  1.30000000E+02  9.20000000E+01  0.00000000E+00
  1.30000000E+02  9.00000000E+01  0.00000000E+00
  1.30000000E+02  8.80000000E+01  0.00000000E+00
  1.30000000E+02  8.60000000E+01  0.00000000E+00
  1.30000000E+02  8.40000000E+01  0.00000000E+00
  1.30000000E+02  8.20000000E+01  0.00000000E+00
  1.30000000E+02  8.00000000E+01  0.00000000E+00
  1.30000000E+02  7.80000000E+01  0.00000000E+00
  1.30000000E+02  7.60000000E+01  0.00000000E+00
  1.30000000E+02  7.40000000E+01  0.00000000E+00
  1.30000000E+02  7.20000000E+01  0.00000000E+00
  1.30000000E+02  7.00000000E+01  0.00000000E+00
  1.30000000E+02  6.80000000E+01  0.00000000E+00
  1.30000000E+02  6.60000000E+01  0.00000000E+00
  1.30000000E+02  6.40000000E+01  0.00000000E+00
  1.30000000E+02  6.20000000E+01  0.00000000E+00
  1.30000000E+02  6.00000000E+01  0.00000000E+00
  1.30000000E+02  5.80000000E+01  0.00000000E+00
  1.30000000E+02  5.60000000E+01  0.00000000E+00
  1.30000000E+02  5.40000000E+01  0.00000000E+00
  1.30000000E+02  5.20000000E+01  0.00000000E+00
  1.30000000E+02  5.00000000E+01  0.00000000E+00
  1.30000000E+02  4.80000000E+01  0.00000000E+00
  1.30000000E+02  4.60000000E+01  0.00000000E+00
  1.30000000E+02  4.40000000E+01  0.00000000E+00
  1.30000000E+02  4.20000000E+01  0.00000000E+00
  1.30000000E+02  4.00000000E+01  0.00000000E+00
  1.30000000E+02  3.80000000E+01  0.00000000E+00
  1.30000000E+02  3.60000000E+01  0.00000000E+00
  1.30000000E+02  3.40000000E+01  0.00000000E+00
  1.30000000E+02  3.20000000E+01  0.00000000E+00
  1.30000000E+02  3.00000000E+01  0.00000000E+00
  1.30000000E+02  2.80000000E+01  0.00000000E+00
  1.30000000E+02  2.60000000E+01  0.00000000E+00
  1.30000000E+02  2.40000000E+01  0.00000000E+00
  1.30000000E+02  2.20000000E+01  0.00000000E+00
  1.30000000E+02  2.00000000E+01  0.00000000E+00
  1.30000000E+02  1.80000000E+01  0.00000000E+00
  1.30000000E+02  1.60000000E+01  0.00000000E+00
  1.30000000E+02  1.40000000E+01  0.00000000E+00
  1.30000000E+02  1.20000000E+01  0.00000000E+00
  1.30000000E+02  1.00000000E+01  0.00000000E+00
  1.30000000E+02  8.00000000E+00  0.00000000E+00
  1.30000000E+02  6.00000000E+00  0.00000000E+00
  1.30000000E+02  4.00000000E+00  0.00000000E+00
  1.30000000E+02  2.00000000E+00  0.00000000E+00
  1.30000000E+02 -3.33066907E-14  0.00000000E+00
  1.40000000E+02  1.00000000E+02  0.00000000E+00
  1.40000000E+02  9.80000000E+01  0.00000000E+00
  1.40000000E+02  9.60000000E+01  0.00000000E+00
  1.40000000E+02  9.40000000E+01  0.00000000E+00
  1.40000000E+02  9.20000000E+01  0.00000000E+00
  1.40000000E+02  9.00000000E+01  0.00000000E+00
  1.40000000E+02  8.80000000E+01  0.00000000E+00
  1.40000000E+02  8.60000000E+01  0.00000000E+00
  1.40000000E+02  8.40000000E+01  0.00000000E+00
  1.40000000E+02  8.20000000E+01  0.00000000E+00
  1.40000000E+02  8.00000000E+01  0.00000000E+00
  1.40000000E+02  7.80000000E+01  0.00000000E+00
  1.40000000E+02  7.60000000E+01  0.00000000E+00
  1.40000000E+02  7.40000000E+01  0.00000000E+00
  1.40000000E+02  7.20000000E+01  0.00000000E+00
  1.40000000E+02  7.00000000E+01  0.00000000E+00
  1.40000000E+02  6.80000000E+01  0.00000000E+00
  1.40000000E+02  6.60000000E+01  0.00000000E+00
  1.40000000E+02  6.40000000E+01  0.00000000E+00
  1.40000000E+02  6.20000000E+01  0.00000000E+00
  1.40000000E+02  6.00000000E+01  0.00000000E+00
  1.40000000E+02  5.80000000E+01  0.00000000E+00
  1.40000000E+02  5.60000000E+01  0.00000000E+00
  1.40000000E+02  5.40000000E+01  0.00000000E+00
  1.40000000E+02  5.20000000E+01  0.00000000E+00
  1.40000000E+02  5.00000000E+01  0.00000000E+00
  1.40000000E+02  4.80000000E+01  0.00000000E+00
  1.40000000E+02  4.60000000E+01  0.00000000E+00
  1.40000000E+02  4.40000000E+01  0.00000000E+00
  1.40000000E+02  4.20000000E+01  0.00000000E+00
  1.40000000E+02  4.00000000E+01  0.00000000E+00
  1.40000000E+02  3.80000000E+01  0.00000000E+00
  1.40000000E+02  3.60000000E+01  0.00000000E+00
  1.40000000E+02  3.40000000E+01  0.00000000E+00
  1.40000000E+02  3.20000000E+01  0.00000000E+00
  1.40000000E+02  3.00000000E+01  0.00000000E+00
  1.40000000E+02  2.80000000E+01  0.00000000E+00
  1.40000000E+02  2.60000000E+01  0.00000000E+00
  1.40000000E+02  2.40000000E+01  0.00000000E+00
  1.40000000E+02  2.20000000E+01  0.00000000E+00
  1.40000000E+02  2.00000000E+01  0.00000000E+00
  1.40000000E+02  1.80000000E+01  0.00000000E+00
  1.40000000E+02  1.60000000E+01  0.00000000E+00
  1.40000000E+02  1.40000000E+01  0.00000000E+00
  1.40000000E+02  1.20000000E+01  0.00000000E+00
  1.40000000E+02  1.00000000E+01  0.00000000E+00
  1.40000000E+02  8.00000000E+00  0.00000000E+00
  1.40000000E+02  6.00000000E+00  0.00000000E+00
  1.40000000E+02  4.00000000E+00  0.00000000E+00
  1.40000000E+02  2.00000000E+00  0.00000000E+00
  1.40000000E+02 -3.33066907E-14  0.00000000E+00
  1.50000000E+02  1.00000000E+02  0.00000000E+00
  1.50000000E+02  9.80000000E+01  0.00000000E+00
  1.50000000E+02  9.60000000E+01  0.00000000E+00
  1.50000000E+02  9.40000000E+01  0.00000000E+00
  1.50000000E+02  9.20000000E+01  0.00000000E+00
  1.50000000E+02  9.00000000E+01  0.00000000E+00
  1.50000000E+02  8.80000000E+01  0.00000000E+00
  1.50000000E+02  8.60000000E+01  0.00000000E+00
  1.50000000E+02  8.40000000E+01  0.00000000E+00
  1.50000000E+02  8.20000000E+01  0.00000000E+00
  1.50000000E+02  8.00000000E+01  0.00000000E+00
  1.50000000E+02  7.80000000E+01  0.00000000E+00
  1.50000000E+02  7.60000000E+01  0.00000000E+00
  1.50000000E+02  7.40000000E+01  0.00000000E+00
  1.50000000E+02  7.20000000E+01  0.00000000E+00
  1.50000000E+02  7.00000000E+01  0.00000000E+00
  1.50000000E+02  6.80000000E+01  0.00000000E+00
  1.50000000E+02  6.60000000E+01  0.00000000E+00
  1.50000000E+02  6.40000000E+01  0.00000000E+00
  1.50000000E+02  6.20000000E+01  0.00000000E+00
  1.50000000E+02  6.00000000E+01  0.00000000E+00
  1.50000000E+02  5.80000000E+01  0.00000000E+00
  1.50000000E+02  5.60000000E+01  0.00000000E+00
  1.50000000E+02  5.40000000E+01  0.00000000E+00
  1.50000000E+02  5.20000000E+01  0.00000000E+00
  1.50000000E+02  5.00000000E+01  0.00000000E+00
  1.50000000E+02  4.80000000E+01  0.00000000E+00
  1.50000000E+02  4.60000000E+01  0.00000000E+00
  1.50000000E+02  4.40000000E+01  0.00000000E+00
  1.50000000E+02  4.20000000E+01  0.00000000E+00
  1.50000000E+02  4.00000000E+01  0.00000000E+00
  1.50000000E+02  3.80000000E+01  0.00000000E+00
  1.50000000E+02  3.60000000E+01  0.00000000E+00
  1.50000000E+02  3.40000000E+01  0.00000000E+00
  1.50000000E+02  3.20000000E+01  0.00000000E+00
  1.50000000E+02  3.00000000E+01  0.00000000E+00
  1.50000000E+02  2.80000000E+01  0.00000000E+00
  1.50000000E+02  2.60000000E+01  0.00000000E+00
  1.50000000E+02  2.40000000E+01  0.00000000E+00
  1.50000000E+02  2.20000000E+01  0.00000000E+00
  1.50000000E+02  2.00000000E+01  0.00000000E+00
  1.50000000E+02  1.80000000E+01  0.00000000E+00
  1.50000000E+02  1.60000000E+01  0.00000000E+00
  1.50000000E+02  1.40000000E+01  0.00000000E+00
  1.50000000E+02  1.20000000E+01  0.00000000E+00
  1.50000000E+02  1.00000000E+01  0.00000000E+00
  1.50000000E+02  8.00000000E+00  0.00000000E+00
  1.50000000E+02  6.00000000E+00  0.00000000E+00
  1.50000000E+02  4.00000000E+00  0.00000000E+00
  1.50000000E+02  2.00000000E+00  0.00000000E+00
  1.50000000E+02 -3.33066907E-14  0.00000000E+00
  1.60000000E+02  1.00000000E+02  0.00000000E+00
  1.60000000E+02  9.80000000E+01  0.00000000E+00
  1.60000000E+02  9.60000000E+01  0.00000000E+00
  1.60000000E+02  9.40000000E+01  0.00000000E+00
  1.60000000E+02  9.20000000E+01  0.00000000E+00
  1.60000000E+02  9.00000000E+01  0.00000000E+00
  1.60000000E+02  8.80000000E+01  0.00000000E+00
  1.60000000E+02  8.60000000E+01  0.00000000E+00
  1.60000000E+02  8.40000000E+01  0.00000000E+00
  1.60000000E+02  8.20000000E+01  0.00000000E+00
  1.60000000E+02  8.00000000E+01  0.00000000E+00
  1.60000000E+02  7.80000000E+01  0.00000000E+00
  1.60000000E+02  7.60000000E+01  0.00000000E+00
  1.60000000E+02  7.40000000E+01  0.00000000E+00
  1.60000000E+02  7.20000000E+01  0.00000000E+00
  1.60000000E+02  7.00000000E+01  0.00000000E+00
  1.60000000E+02  6.80000000E+01  0.00000000E+00
  1.60000000E+02  6.60000000E+01  0.00000000E+00
  1.60000000E+02  6.40000000E+01  0.00000000E+00
  1.60000000E+02  6.20000000E+01  0.00000000E+00
  1.60000000E+02  6.00000000E+01  0.00000000E+00
  1.60000000E+02  5.80000000E+01  0.00000000E+00
  1.60000000E+02  5.60000000E+01  0.00000000E+00
  1.60000000E+02  5.40000000E+01  0.00000000E+00
  1.60000000E+02  5.20000000E+01  0.00000000E+00
  1.60000000E+02  5.00000000E+01  0.00000000E+00
  1.60000000E+02  4.80000000E+01  0.00000000E+00
  1.60000000E+02  4.60000000E+01  0.00000000E+00
  1.60000000E+02  4.40000000E+01  0.00000000E+00
  1.60000000E+02  4.20000000E+01  0.00000000E+00
  1.60000000E+02  4.00000000E+01  0.00000000E+00
  1.60000000E+02  3.80000000E+01  0.00000000E+00
  1.60000000E+02  3.60000000E+01  0.00000000E+00
  1.60000000E+02  3.40000000E+01  0.00000000E+00
  1.60000000E+02  3.20000000E+01  0.00000000E+00
  1.60000000E+02  3.00000000E+01  0.00000000E+00
  1.60000000E+02  2.80000000E+01  0.00000000E+00
  1.60000000E+02  2.60000000E+01  0.00000000E+00
  1.60000000E+02  2.40000000E+01  0.00000000E+00
  1.60000000E+02  2.20000000E+01  0.00000000E+00
  1.60000000E+02  2.00000000E+01  0.00000000E+00
  1.60000000E+02  1.80000000E+01  0.00000000E+00
  1.60000000E+02  1.60000000E+01  0.00000000E+00
  1.60000000E+02  1.40000000E+01  0.00000000E+00
  1.60000000E+02  1.20000000E+01  0.00000000E+00
  1.60000000E+02  1.00000000E+01  0.00000000E+00
  1.60000000E+02  8.00000000E+00  0.00000000E+00
  1.60000000E+02  6.00000000E+00  0.00000000E+00
  1.60000000E+02  4.00000000E+00  0.00000000E+00
  1.60000000E+02  2.00000000E+00  0.00000000E+00
  1.60000000E+02 -3.33066907E-14  0.00000000E+00
  1.70000000E+02  1.00000000E+02  0.00000000E+00
  1.70000000E+02  9.80000000E+01  0.00000000E+00
  1.70000000E+02  9.60000000E+01  0.00000000E+00
  1.70000000E+02  9.40000000E+01  0.00000000E+00
  1.70000000E+02  9.20000000E+01  0.00000000E+00
  1.70000000E+02  9.00000000E+01  0.00000000E+00
  1.70000000E+02  8.80000000E+01  0.00000000E+00
  1.70000000E+02  8.60000000E+01  0.00000000E+00
  1.70000000E+02  8.40000000E+01  0.00000000E+00
  1.70000000E+02  8.20000000E+01  0.00000000E+00
  1.70000000E+02  8.00000000E+01  0.00000000E+00
  1.70000000E+02  7.80000000E+01  0.00000000E+00
  1.70000000E+02  7.60000000E+01  0.00000000E+00
  1.70000000E+02  7.40000000E+01  0.00000000E+00
  1.70000000E+02  7.20000000E+01  0.00000000E+00
  1.70000000E+02  7.00000000E+01  0.00000000E+00
  1.70000000E+02  6.80000000E+01  0.00000000E+00
  1.70000000E+02  6.60000000E+01  0.00000000E+00
  1.70000000E+02  6.40000000E+01  0.00000000E+00
  1.70000000E+02  6.20000000E+01  0.00000000E+00
  1.70000000E+02  6.00000000E+01  0.00000000E+00
  1.70000000E+02  5.80000000E+01  0.00000000E+00
  1.70000000E+02  5.60000000E+01  0.00000000E+00
  1.70000000E+02  5.40000000E+01  0.00000000E+00
  1.70000000E+02  5.20000000E+01  0.00000000E+00
  1.70000000E+02  5.00000000E+01  0.00000000E+00
  1.70000000E+02  4.80000000E+01  0.00000000E+00
  1.70000000E+02  4.60000000E+01  0.00000000E+00
  1.70000000E+02  4.40000000E+01  0.00000000E+00
  1.70000000E+02  4.20000000E+01  0.00000000E+00
  1.70000000E+02  4.00000000E+01  0.00000000E+00
  1.70000000E+02  3.80000000E+01  0.00000000E+00
  1.70000000E+02  3.60000000E+01  0.00000000E+00
  1.70000000E+02  3.40000000E+01  0.00000000E+00
  1.70000000E+02  3.20000000E+01  0.00000000E+00
  1.70000000E+02  3.00000000E+01  0.00000000E+00
  1.70000000E+02  2.80000000E+01  0.00000000E+00
  1.70000000E+02  2.60000000E+01  0.00000000E+00
  1.70000000E+02  2.40000000E+01  0.00000000E+00
  1.70000000E+02  2.20000000E+01  0.00000000E+00
  1.70000000E+02  2.00000000E+01  0.00000000E+00
  1.70000000E+02  1.80000000E+01  0.00000000E+00
  1.70000000E+02  1.60000000E+01  0.00000000E+00
  1.70000000E+02  1.40000000E+01  0.00000000E+00
  1.70000000E+02  1.20000000E+01  0.00000000E+00
  1.70000000E+02  1.00000000E+01  0.00000000E+00
  1.70000000E+02  8.00000000E+00  0.00000000E+00
  1.70000000E+02  6.00000000E+00  0.00000000E+00
  1.70000000E+02  4.00000000E+00  0.00000000E+00
  1.70000000E+02  2.00000000E+00  0.00000000E+00
  1.70000000E+02 -3.33066907E-14  0.00000000E+00
  1.80000000E+02  1.00000000E+02  0.00000000E+00
  1.80000000E+02  9.80000000E+01  0.00000000E+00
  1.80000000E+02  9.60000000E+01  0.00000000E+00
  1.80000000E+02  9.40000000E+01  0.00000000E+00
  1.80000000E+02  9.20000000E+01  0.00000000E+00
  1.80000000E+02  9.00000000E+01  0.00000000E+00
  1.80000000E+02  8.80000000E+01  0.00000000E+00
  1.80000000E+02  8.60000000E+01  0.00000000E+00
  1.80000000E+02  8.40000000E+01  0.00000000E+00
  1.80000000E+02  8.20000000E+01  0.00000000E+00
  1.80000000E+02  8.00000000E+01  0.00000000E+00
  1.80000000E+02  7.80000000E+01  0.00000000E+00
  1.80000000E+02  7.60000000E+01  0.00000000E+00
  1.80000000E+02  7.40000000E+01  0.00000000E+00
  1.80000000E+02  7.20000000E+01  0.00000000E+00
  1.80000000E+02  7.00000000E+01  0.00000000E+00
  1.80000000E+02  6.80000000E+01  0.00000000E+00
  1.80000000E+02  6.60000000E+01  0.00000000E+00
  1.80000000E+02  6.40000000E+01  0.00000000E+00
  1.80000000E+02  6.20000000E+01  0.00000000E+00
  1.80000000E+02  6.00000000E+01  0.00000000E+00
  1.80000000E+02  5.80000000E+01  0.00000000E+00
  1.80000000E+02  5.60000000E+01  0.00000000E+00
  1.80000000E+02  5.40000000E+01  0.00000000E+00
  1.80000000E+02  5.20000000E+01  0.00000000E+00
  1.80000000E+02  5.00000000E+01  0.00000000E+00
  1.80000000E+02  4.80000000E+01  0.00000000E+00
  1.80000000E+02  4.60000000E+01  0.00000000E+00
  1.80000000E+02  4.40000000E+01  0.00000000E+00
  1.80000000E+02  4.20000000E+01  0.00000000E+00
  1.80000000E+02  4.00000000E+01  0.00000000E+00
  1.80000000E+02  3.80000000E+01  0.00000000E+00
  1.80000000E+02  3.60000000E+01  0.00000000E+00
  1.80000000E+02  3.40000000E+01  0.00000000E+00
  1.80000000E+02  3.20000000E+01  0.00000000E+00
  1.80000000E+02  3.00000000E+01  0.00000000E+00
  1.80000000E+02  2.80000000E+01  0.00000000E+00
  1.80000000E+02  2.60000000E+01  0.00000000E+00
  1.80000000E+02  2.40000000E+01  0.00000000E+00
  1.80000000E+02  2.20000000E+01  0.00000000E+00
  1.80000000E+02  2.00000000E+01  0.00000000E+00
  1.80000000E+02  1.80000000E+01  0.00000000E+00
  1.80000000E+02  1.60000000E+01  0.00000000E+00
  1.80000000E+02  1.40000000E+01  0.00000000E+00
  1.80000000E+02  1.20000000E+01  0.00000000E+00
  1.80000000E+02  1.00000000E+01  0.00000000E+00
  1.80000000E+02  8.00000000E+00  0.00000000E+00
  1.80000000E+02  6.00000000E+00  0.00000000E+00
  1.80000000E+02  4.00000000E+00  0.00000000E+00
  1.80000000E+02  2.00000000E+00  0.00000000E+00
  1.80000000E+02 -3.33066907E-14  0.00000000E+00
  1.90000000E+02  1.00000000E+02  0.00000000E+00
  1.90000000E+02  9.80000000E+01  0.00000000E+00
  1.90000000E+02  9.60000000E+01  0.00000000E+00
  1.90000000E+02  9.40000000E+01  0.00000000E+00
  1.90000000E+02  9.20000000E+01  0.00000000E+00
  1.90000000E+02  9.00000000E+01  0.00000000E+00
  1.90000000E+02  8.80000000E+01  0.00000000E+00
  1.90000000E+02  8.60000000E+01  0.00000000E+00
  1.90000000E+02  8.40000000E+01  0.00000000E+00
  1.90000000E+02  8.20000000E+01  0.00000000E+00
  1.90000000E+02  8.00000000E+01  0.00000000E+00
  1.90000000E+02  7.80000000E+01  0.00000000E+00
  1.90000000E+02  7.60000000E+01  0.00000000E+00
  1.90000000E+02  7.40000000E+01  0.00000000E+00
  1.90000000E+02  7.20000000E+01  0.00000000E+00
  1.90000000E+02  7.00000000E+01  0.00000000E+00
  1.90000000E+02  6.80000000E+01  0.00000000E+00
  1.90000000E+02  6.60000000E+01  0.00000000E+00
  1.90000000E+02  6.40000000E+01  0.00000000E+00
  1.90000000E+02  6.20000000E+01  0.00000000E+00
  1.90000000E+02  6.00000000E+01  0.00000000E+00
  1.90000000E+02  5.80000000E+01  0.00000000E+00
  1.90000000E+02  5.60000000E+01  0.00000000E+00
  1.90000000E+02  5.40000000E+01  0.00000000E+00
  1.90000000E+02  5.20000000E+01  0.00000000E+00
  1.90000000E+02  5.00000000E+01  0.00000000E+00
  1.90000000E+02  4.80000000E+01  0.00000000E+00
  1.90000000E+02  4.60000000E+01  0.00000000E+00
  1.90000000E+02  4.40000000E+01  0.00000000E+00
  1.90000000E+02  4.20000000E+01  0.00000000E+00
  1.90000000E+02  4.00000000E+01  0.00000000E+00
  1.90000000E+02  3.80000000E+01  0.00000000E+00
  1.90000000E+02  3.60000000E+01  0.00000000E+00
  1.90000000E+02  3.40000000E+01  0.00000000E+00
  1.90000000E+02  3.20000000E+01  0.00000000E+00
  1.90000000E+02  3.00000000E+01  0.00000000E+00
  1.90000000E+02  2.80000000E+01  0.00000000E+00
  1.90000000E+02  2.60000000E+01  0.00000000E+00
  1.90000000E+02  2.40000000E+01  0.00000000E+00
  1.90000000E+02  2.20000000E+01  0.00000000E+00
  1.90000000E+02  2.00000000E+01  0.00000000E+00
  1.90000000E+02  1.80000000E+01  0.00000000E+00
  1.90000000E+02  1.60000000E+01  0.00000000E+00
  1.90000000E+02  1.40000000E+01  0.00000000E+00
  1.90000000E+02  1.20000000E+01  0.00000000E+00
  1.90000000E+02  1.00000000E+01  0.00000000E+00
  1.90000000E+02  8.00000000E+00  0.00000000E+00
  1.90000000E+02  6.00000000E+00  0.00000000E+00
  1.90000000E+02  4.00000000E+00  0.00000000E+00
  1.90000000E+02  2.00000000E+00  0.00000000E+00
  1.90000000E+02 -3.33066907E-14  0.00000000E+00
  2.00000000E+02  1.00000000E+02  0.00000000E+00
  2.00000000E+02  9.80000000E+01  0.00000000E+00
  2.00000000E+02  9.60000000E+01  0.00000000E+00
  2.00000000E+02  9.40000000E+01  0.00000000E+00
  2.00000000E+02  9.20000000E+01  0.00000000E+00
  2.00000000E+02  9.00000000E+01  0.00000000E+00
  2.00000000E+02  8.80000000E+01  0.00000000E+00
  2.00000000E+02  8.60000000E+01  0.00000000E+00
  2.00000000E+02  8.40000000E+01  0.00000000E+00
  2.00000000E+02  8.20000000E+01  0.00000000E+00
  2.00000000E+02  8.00000000E+01  0.00000000E+00
  2.00000000E+02  7.80000000E+01  0.00000000E+00
  2.00000000E+02  7.60000000E+01  0.00000000E+00
  2.00000000E+02  7.40000000E+01  0.00000000E+00
  2.00000000E+02  7.20000000E+01  0.00000000E+00
  2.00000000E+02  7.00000000E+01  0.00000000E+00
  2.00000000E+02  6.80000000E+01  0.00000000E+00
  2.00000000E+02  6.60000000E+01  0.00000000E+00
  2.00000000E+02  6.40000000E+01  0.00000000E+00
  2.00000000E+02  6.20000000E+01  0.00000000E+00
  2.00000000E+02  6.00000000E+01  0.00000000E+00
  2.00000000E+02  5.80000000E+01  0.00000000E+00
  2.00000000E+02  5.60000000E+01  0.00000000E+00
  2.00000000E+02  5.40000000E+01  0.00000000E+00
  2.00000000E+02  5.20000000E+01  0.00000000E+00
  2.00000000E+02  5.00000000E+01  0.00000000E+00
  2.00000000E+02  4.80000000E+01  0.00000000E+00
  2.00000000E+02  4.60000000E+01  0.00000000E+00
  2.00000000E+02  4.40000000E+01  0.00000000E+00
  2.00000000E+02  4.20000000E+01  0.00000000E+00
  2.00000000E+02  4.00000000E+01  0.00000000E+00
  2.00000000E+02  3.80000000E+01  0.00000000E+00
  2.00000000E+02  3.60000000E+01  0.00000000E+00
  2.00000000E+02  3.40000000E+01  0.00000000E+00
  2.00000000E+02  3.20000000E+01  0.00000000E+00
  2.00000000E+02  3.00000000E+01  0.00000000E+00
  2.00000000E+02  2.80000000E+01  0.00000000E+00
  2.00000000E+02  2.60000000E+01  0.00000000E+00
  2.00000000E+02  2.40000000E+01  0.00000000E+00
  2.00000000E+02  2.20000000E+01  0.00000000E+00
  2.00000000E+02  2.00000000E+01  0.00000000E+00
  2.00000000E+02  1.80000000E+01  0.00000000E+00
  2.00000000E+02  1.60000000E+01  0.00000000E+00
  2.00000000E+02  1.40000000E+01  0.00000000E+00
  2.00000000E+02  1.20000000E+01  0.00000000E+00
  2.00000000E+02  1.00000000E+01  0.00000000E+00
  2.00000000E+02  8.00000000E+00  0.00000000E+00
  2.00000000E+02  6.00000000E+00  0.00000000E+00
  2.00000000E+02  4.00000000E+00  0.00000000E+00
  2.00000000E+02  2.00000000E+00  0.00000000E+00
  2.00000000E+02 -3.33066907E-14  0.00000000E+00
  2.10000000E+02  1.00000000E+02  0.00000000E+00
  2.10000000E+02  9.80000000E+01  0.00000000E+00
  2.10000000E+02  9.60000000E+01  0.00000000E+00
  2.10000000E+02  9.40000000E+01  0.00000000E+00
  2.10000000E+02  9.20000000E+01  0.00000000E+00
  2.10000000E+02  9.00000000E+01  0.00000000E+00
  2.10000000E+02  8.80000000E+01  0.00000000E+00
  2.10000000E+02  8.60000000E+01  0.00000000E+00
  2.10000000E+02  8.40000000E+01  0.00000000E+00
  2.10000000E+02  8.20000000E+01  0.00000000E+00
  2.10000000E+02  8.00000000E+01  0.00000000E+00
  2.10000000E+02  7.80000000E+01  0.00000000E+00
  2.10000000E+02  7.60000000E+01  0.00000000E+00
  2.10000000E+02  7.40000000E+01  0.00000000E+00
  2.10000000E+02  7.20000000E+01  0.00000000E+00
  2.10000000E+02  7.00000000E+01  0.00000000E+00
  2.10000000E+02  6.80000000E+01  0.00000000E+00
  2.10000000E+02  6.60000000E+01  0.00000000E+00
  2.10000000E+02  6.40000000E+01  0.00000000E+00
  2.10000000E+02  6.20000000E+01  0.00000000E+00
  2.10000000E+02  6.00000000E+01  0.00000000E+00
  2.10000000E+02  5.80000000E+01  0.00000000E+00
  2.10000000E+02  5.60000000E+01  0.00000000E+00
  2.10000000E+02  5.40000000E+01  0.00000000E+00
  2.10000000E+02  5.20000000E+01  0.00000000E+00
  2.10000000E+02  5.00000000E+01  0.00000000E+00
  2.10000000E+02  4.80000000E+01  0.00000000E+00
  2.10000000E+02  4.60000000E+01  0.00000000E+00
  2.10000000E+02  4.40000000E+01  0.00000000E+00
  2.10000000E+02  4.20000000E+01  0.00000000E+00
  2.10000000E+02  4.00000000E+01  0.00000000E+00
  2.10000000E+02  3.80000000E+01  0.00000000E+00
  2.10000000E+02  3.60000000E+01  0.00000000E+00
  2.10000000E+02  3.40000000E+01  0.00000000E+00
  2.10000000E+02  3.20000000E+01  0.00000000E+00
  2.10000000E+02  3.00000000E+01  0.00000000E+00
  2.10000000E+02  2.80000000E+01  0.00000000E+00
  2.10000000E+02  2.60000000E+01  0.00000000E+00
  2.10000000E+02  2.40000000E+01  0.00000000E+00
  2.10000000E+02  2.20000000E+01  0.00000000E+00
  2.10000000E+02  2.00000000E+01  0.00000000E+00
  2.10000000E+02  1.80000000E+01  0.00000000E+00
  2.10000000E+02  1.60000000E+01  0.00000000E+00
  2.10000000E+02  1.40000000E+01  0.00000000E+00
  2.10000000E+02  1.20000000E+01  0.00000000E+00
  2.10000000E+02  1.00000000E+01  0.00000000E+00
  2.10000000E+02  8.00000000E+00  0.00000000E+00
  2.10000000E+02  6.00000000E+00  0.00000000E+00
  2.10000000E+02  4.00000000E+00  0.00000000E+00
  2.10000000E+02  2.00000000E+00  0.00000000E+00
  2.10000000E+02 -3.33066907E-14  0.00000000E+00
  2.20000000E+02  1.00000000E+02  0.00000000E+00
  2.20000000E+02  9.80000000E+01  0.00000000E+00
  2.20000000E+02  9.60000000E+01  0.00000000E+00
  2.20000000E+02  9.40000000E+01  0.00000000E+00
  2.20000000E+02  9.20000000E+01  0.00000000E+00
  2.20000000E+02  9.00000000E+01  0.00000000E+00
  2.20000000E+02  8.80000000E+01  0.00000000E+00
  2.20000000E+02  8.60000000E+01  0.00000000E+00
  2.20000000E+02  8.40000000E+01  0.00000000E+00
  2.20000000E+02  8.20000000E+01  0.00000000E+00
  2.20000000E+02  8.00000000E+01  0.00000000E+00
  2.20000000E+02  7.80000000E+01  0.00000000E+00
  2.20000000E+02  7.60000000E+01  0.00000000E+00
  2.20000000E+02  7.40000000E+01  0.00000000E+00
  2.20000000E+02  7.20000000E+01  0.00000000E+00
  2.20000000E+02  7.00000000E+01  0.00000000E+00
  2.20000000E+02  6.80000000E+01  0.00000000E+00
  2.20000000E+02  6.60000000E+01  0.00000000E+00
  2.20000000E+02  6.40000000E+01  0.00000000E+00
  2.20000000E+02  6.20000000E+01  0.00000000E+00
  2.20000000E+02  6.00000000E+01  0.00000000E+00
  2.20000000E+02  5.80000000E+01  0.00000000E+00
  2.20000000E+02  5.60000000E+01  0.00000000E+00
  2.20000000E+02  5.40000000E+01  0.00000000E+00
  2.20000000E+02  5.20000000E+01  0.00000000E+00
  2.20000000E+02  5.00000000E+01  0.00000000E+00
  2.20000000E+02  4.80000000E+01  0.00000000E+00
  2.20000000E+02  4.60000000E+01  0.00000000E+00
  2.20000000E+02  4.40000000E+01  0.00000000E+00
  2.20000000E+02  4.20000000E+01  0.00000000E+00
  2.20000000E+02  4.00000000E+01  0.00000000E+00
  2.20000000E+02  3.80000000E+01  0.00000000E+00
  2.20000000E+02  3.60000000E+01  0.00000000E+00
  2.20000000E+02  3.40000000E+01  0.00000000E+00
  2.20000000E+02  3.20000000E+01  0.00000000E+00
  2.20000000E+02  3.00000000E+01  0.00000000E+00
  2.20000000E+02  2.80000000E+01  0.00000000E+00
  2.20000000E+02  2.60000000E+01  0.00000000E+00
  2.20000000E+02  2.40000000E+01  0.00000000E+00
  2.20000000E+02  2.20000000E+01  0.00000000E+00
  2.20000000E+02  2.00000000E+01  0.00000000E+00
  2.20000000E+02  1.80000000E+01  0.00000000E+00
  2.20000000E+02  1.60000000E+01  0.00000000E+00
  2.20000000E+02  1.40000000E+01  0.00000000E+00
  2.20000000E+02  1.20000000E+01  0.00000000E+00
  2.20000000E+02  1.00000000E+01  0.00000000E+00
  2.20000000E+02  8.00000000E+00  0.00000000E+00
  2.20000000E+02  6.00000000E+00  0.00000000E+00
  2.20000000E+02  4.00000000E+00  0.00000000E+00
  2.20000000E+02  2.00000000E+00  0.00000000E+00
  2.20000000E+02 -3.33066907E-14  0.00000000E+00
  2.30000000E+02  1.00000000E+02  0.00000000E+00
  2.30000000E+02  9.80000000E+01  0.00000000E+00
  2.30000000E+02  9.60000000E+01  0.00000000E+00
  2.30000000E+02  9.40000000E+01  0.00000000E+00
  2.30000000E+02  9.20000000E+01  0.00000000E+00
  2.30000000E+02  9.00000000E+01  0.00000000E+00
  2.30000000E+02  8.80000000E+01  0.00000000E+00
  2.30000000E+02  8.60000000E+01  0.00000000E+00
  2.30000000E+02  8.40000000E+01  0.00000000E+00
  2.30000000E+02  8.20000000E+01  0.00000000E+00
  2.30000000E+02  8.00000000E+01  0.00000000E+00
  2.30000000E+02  7.80000000E+01  0.00000000E+00
  2.30000000E+02  7.60000000E+01  0.00000000E+00
  2.30000000E+02  7.40000000E+01  0.00000000E+00
  2.30000000E+02  7.20000000E+01  0.00000000E+00
  2.30000000E+02  7.00000000E+01  0.00000000E+00
  2.30000000E+02  6.80000000E+01  0.00000000E+00
  2.30000000E+02  6.60000000E+01  0.00000000E+00
  2.30000000E+02  6.40000000E+01  0.00000000E+00
  2.30000000E+02  6.20000000E+01  0.00000000E+00
  2.30000000E+02  6.00000000E+01  0.00000000E+00
  2.30000000E+02  5.80000000E+01  0.00000000E+00
  2.30000000E+02  5.60000000E+01  0.00000000E+00
  2.30000000E+02  5.40000000E+01  0.00000000E+00
  2.30000000E+02  5.20000000E+01  0.00000000E+00
  2.30000000E+02  5.00000000E+01  0.00000000E+00
  2.30000000E+02  4.80000000E+01  0.00000000E+00
  2.30000000E+02  4.60000000E+01  0.00000000E+00
  2.30000000E+02  4.40000000E+01  0.00000000E+00
  2.30000000E+02  4.20000000E+01  0.00000000E+00
  2.30000000E+02  4.00000000E+01  0.00000000E+00
  2.30000000E+02  3.80000000E+01  0.00000000E+00
  2.30000000E+02  3.60000000E+01  0.00000000E+00
  2.30000000E+02  3.40000000E+01  0.00000000E+00
  2.30000000E+02  3.20000000E+01  0.00000000E+00
  2.30000000E+02  3.00000000E+01  0.00000000E+00
  2.30000000E+02  2.80000000E+01  0.00000000E+00
  2.30000000E+02  2.60000000E+01  0.00000000E+00
  2.30000000E+02  2.40000000E+01  0.00000000E+00
  2.30000000E+02  2.20000000E+01  0.00000000E+00
  2.30000000E+02  2.00000000E+01  0.00000000E+00
  2.30000000E+02  1.80000000E+01  0.00000000E+00
  2.30000000E+02  1.60000000E+01  0.00000000E+00
  2.30000000E+02  1.40000000E+01  0.00000000E+00
  2.30000000E+02  1.20000000E+01  0.00000000E+00
  2.30000000E+02  1.00000000E+01  0.00000000E+00
  2.30000000E+02  8.00000000E+00  0.00000000E+00
  2.30000000E+02  6.00000000E+00  0.00000000E+00
  2.30000000E+02  4.00000000E+00  0.00000000E+00
  2.30000000E+02  2.00000000E+00  0.00000000E+00
  2.30000000E+02 -3.33066907E-14  0.00000000E+00
  2.40000000E+02  1.00000000E+02  0.00000000E+00
  2.40000000E+02  9.80000000E+01  0.00000000E+00
  2.40000000E+02  9.60000000E+01  0.00000000E+00
  2.40000000E+02  9.40000000E+01  0.00000000E+00
  2.40000000E+02  9.20000000E+01  0.00000000E+00
  2.40000000E+02  9.00000000E+01  0.00000000E+00
  2.40000000E+02  8.80000000E+01  0.00000000E+00
  2.40000000E+02  8.60000000E+01  0.00000000E+00
  2.40000000E+02  8.40000000E+01  0.00000000E+00
  2.40000000E+02  8.20000000E+01  0.00000000E+00
  2.40000000E+02  8.00000000E+01  0.00000000E+00
  2.40000000E+02  7.80000000E+01  0.00000000E+00
  2.40000000E+02  7.60000000E+01  0.00000000E+00
  2.40000000E+02  7.40000000E+01  0.00000000E+00
  2.40000000E+02  7.20000000E+01  0.00000000E+00
  2.40000000E+02  7.00000000E+01  0.00000000E+00
  2.40000000E+02  6.80000000E+01  0.00000000E+00
  2.40000000E+02  6.60000000E+01  0.00000000E+00
  2.40000000E+02  6.40000000E+01  0.00000000E+00
  2.40000000E+02  6.20000000E+01  0.00000000E+00
  2.40000000E+02  6.00000000E+01  0.00000000E+00
  2.40000000E+02  5.80000000E+01  0.00000000E+00
  2.40000000E+02  5.60000000E+01  0.00000000E+00
  2.40000000E+02  5.40000000E+01  0.00000000E+00
  2.40000000E+02  5.20000000E+01  0.00000000E+00
  2.40000000E+02  5.00000000E+01  0.00000000E+00
  2.40000000E+02  4.80000000E+01  0.00000000E+00
  2.40000000E+02  4.60000000E+01  0.00000000E+00
  2.40000000E+02  4.40000000E+01  0.00000000E+00
  2.40000000E+02  4.20000000E+01  0.00000000E+00
  2.40000000E+02  4.00000000E+01  0.00000000E+00
  2.40000000E+02  3.80000000E+01  0.00000000E+00
  2.40000000E+02  3.60000000E+01  0.00000000E+00
  2.40000000E+02  3.40000000E+01  0.00000000E+00
  2.40000000E+02  3.20000000E+01  0.00000000E+00
  2.40000000E+02  3.00000000E+01  0.00000000E+00
  2.40000000E+02  2.80000000E+01  0.00000000E+00
  2.40000000E+02  2.60000000E+01  0.00000000E+00
  2.40000000E+02  2.40000000E+01  0.00000000E+00
  2.40000000E+02  2.20000000E+01  0.00000000E+00
  2.40000000E+02  2.00000000E+01  0.00000000E+00
  2.40000000E+02  1.80000000E+01  0.00000000E+00
  2.40000000E+02  1.60000000E+01  0.00000000E+00
  2.40000000E+02  1.40000000E+01  0.00000000E+00
  2.40000000E+02  1.20000000E+01  0.00000000E+00
  2.40000000E+02  1.00000000E+01  0.00000000E+00
  2.40000000E+02  8.00000000E+00  0.00000000E+00
  2.40000000E+02  6.00000000E+00  0.00000000E+00
  2.40000000E+02  4.00000000E+00  0.00000000E+00
  2.40000000E+02  2.00000000E+00  0.00000000E+00
  2.40000000E+02 -3.33066907E-14  0.00000000E+00
  2.50000000E+02  1.00000000E+02  0.00000000E+00
  2.50000000E+02  9.80000000E+01  0.00000000E+00
  2.50000000E+02  9.60000000E+01  0.00000000E+00
  2.50000000E+02  9.40000000E+01  0.00000000E+00
  2.50000000E+02  9.20000000E+01  0.00000000E+00
  2.50000000E+02  9.00000000E+01  0.00000000E+00
  2.50000000E+02  8.80000000E+01  0.00000000E+00
  2.50000000E+02  8.60000000E+01  0.00000000E+00
  2.50000000E+02  8.40000000E+01  0.00000000E+00
  2.50000000E+02  8.20000000E+01  0.00000000E+00
  2.50000000E+02  8.00000000E+01  0.00000000E+00
  2.50000000E+02  7.80000000E+01  0.00000000E+00
  2.50000000E+02  7.60000000E+01  0.00000000E+00
  2.50000000E+02  7.40000000E+01  0.00000000E+00
  2.50000000E+02  7.20000000E+01  0.00000000E+00
  2.50000000E+02  7.00000000E+01  0.00000000E+00
  2.50000000E+02  6.80000000E+01  0.00000000E+00
  2.50000000E+02  6.60000000E+01  0.00000000E+00
  2.50000000E+02  6.40000000E+01  0.00000000E+00
  2.50000000E+02  6.20000000E+01  0.00000000E+00
  2.50000000E+02  6.00000000E+01  0.00000000E+00
  2.50000000E+02  5.80000000E+01  0.00000000E+00
  2.50000000E+02  5.60000000E+01  0.00000000E+00
  2.50000000E+02  5.40000000E+01  0.00000000E+00
  2.50000000E+02  5.20000000E+01  0.00000000E+00
  2.50000000E+02  5.00000000E+01  0.00000000E+00
  2.50000000E+02  4.80000000E+01  0.00000000E+00
  2.50000000E+02  4.60000000E+01  0.00000000E+00
  2.50000000E+02  4.40000000E+01  0.00000000E+00
  2.50000000E+02  4.20000000E+01  0.00000000E+00
  2.50000000E+02  4.00000000E+01  0.00000000E+00
  2.50000000E+02  3.80000000E+01  0.00000000E+00
  2.50000000E+02  3.60000000E+01  0.00000000E+00
  2.50000000E+02  3.40000000E+01  0.00000000E+00
  2.50000000E+02  3.20000000E+01  0.00000000E+00
  2.50000000E+02  3.00000000E+01  0.00000000E+00
  2.50000000E+02  2.80000000E+01  0.00000000E+00
  2.50000000E+02  2.60000000E+01  0.00000000E+00
  2.50000000E+02  2.40000000E+01  0.00000000E+00
  2.50000000E+02  2.20000000E+01  0.00000000E+00
  2.50000000E+02  2.00000000E+01  0.00000000E+00
  2.50000000E+02  1.80000000E+01  0.00000000E+00
  2.50000000E+02  1.60000000E+01  0.00000000E+00
  2.50000000E+02  1.40000000E+01  0.00000000E+00
  2.50000000E+02  1.20000000E+01  0.00000000E+00
  2.50000000E+02  1.00000000E+01  0.00000000E+00
  2.50000000E+02  8.00000000E+00  0.00000000E+00
  2.50000000E+02  6.00000000E+00  0.00000000E+00
  2.50000000E+02  4.00000000E+00  0.00000000E+00
  2.50000000E+02  2.00000000E+00  0.00000000E+00
  2.50000000E+02 -3.33066907E-14  0.00000000E+00
  2.60000000E+02  1.00000000E+02  0.00000000E+00
  2.60000000E+02  9.80000000E+01  0.00000000E+00
  2.60000000E+02  9.60000000E+01  0.00000000E+00
  2.60000000E+02  9.40000000E+01  0.00000000E+00
  2.60000000E+02  9.20000000E+01  0.00000000E+00
  2.60000000E+02  9.00000000E+01  0.00000000E+00
  2.60000000E+02  8.80000000E+01  0.00000000E+00
  2.60000000E+02  8.60000000E+01  0.00000000E+00
  2.60000000E+02  8.40000000E+01  0.00000000E+00
  2.60000000E+02  8.20000000E+01  0.00000000E+00
  2.60000000E+02  8.00000000E+01  0.00000000E+00
  2.60000000E+02  7.80000000E+01  0.00000000E+00
  2.60000000E+02  7.60000000E+01  0.00000000E+00
  2.60000000E+02  7.40000000E+01  0.00000000E+00
  2.60000000E+02  7.20000000E+01  0.00000000E+00
  2.60000000E+02  7.00000000E+01  0.00000000E+00
  2.60000000E+02  6.80000000E+01  0.00000000E+00
  2.60000000E+02  6.60000000E+01  0.00000000E+00
  2.60000000E+02  6.40000000E+01  0.00000000E+00
  2.60000000E+02  6.20000000E+01  0.00000000E+00
  2.60000000E+02  6.00000000E+01  0.00000000E+00
  2.60000000E+02  5.80000000E+01  0.00000000E+00
  2.60000000E+02  5.60000000E+01  0.00000000E+00
  2.60000000E+02  5.40000000E+01  0.00000000E+00
  2.60000000E+02  5.20000000E+01  0.00000000E+00
  2.60000000E+02  5.00000000E+01  0.00000000E+00
  2.60000000E+02  4.80000000E+01  0.00000000E+00
  2.60000000E+02  4.60000000E+01  0.00000000E+00
  2.60000000E+02  4.40000000E+01  0.00000000E+00
  2.60000000E+02  4.20000000E+01  0.00000000E+00
  2.60000000E+02  4.00000000E+01  0.00000000E+00
  2.60000000E+02  3.80000000E+01  0.00000000E+00
  2.60000000E+02  3.60000000E+01  0.00000000E+00
  2.60000000E+02  3.40000000E+01  0.00000000E+00
  2.60000000E+02  3.20000000E+01  0.00000000E+00
  2.60000000E+02  3.00000000E+01  0.00000000E+00
  2.60000000E+02  2.80000000E+01  0.00000000E+00
  2.60000000E+02  2.60000000E+01  0.00000000E+00
  2.60000000E+02  2.40000000E+01  0.00000000E+00
  2.60000000E+02  2.20000000E+01  0.00000000E+00
  2.60000000E+02  2.00000000E+01  0.00000000E+00
  2.60000000E+02  1.80000000E+01  0.00000000E+00
  2.60000000E+02  1.60000000E+01  0.00000000E+00
  2.60000000E+02  1.40000000E+01  0.00000000E+00
  2.60000000E+02  1.20000000E+01  0.00000000E+00
  2.60000000E+02  1.00000000E+01  0.00000000E+00
  2.60000000E+02  8.00000000E+00  0.00000000E+00
  2.60000000E+02  6.00000000E+00  0.00000000E+00
  2.60000000E+02  4.00000000E+00  0.00000000E+00
  2.60000000E+02  2.00000000E+00  0.00000000E+00
  2.60000000E+02 -3.33066907E-14  0.00000000E+00
  2.70000000E+02  1.00000000E+02  0.00000000E+00
  2.70000000E+02  9.80000000E+01  0.00000000E+00
  2.70000000E+02  9.60000000E+01  0.00000000E+00
  2.70000000E+02  9.40000000E+01  0.00000000E+00
  2.70000000E+02  9.20000000E+01  0.00000000E+00
  2.70000000E+02  9.00000000E+01  0.00000000E+00
  2.70000000E+02  8.80000000E+01  0.00000000E+00
  2.70000000E+02  8.60000000E+01  0.00000000E+00
  2.70000000E+02  8.40000000E+01  0.00000000E+00
  2.70000000E+02  8.20000000E+01  0.00000000E+00
  2.70000000E+02  8.00000000E+01  0.00000000E+00
  2.70000000E+02  7.80000000E+01  0.00000000E+00
  2.70000000E+02  7.60000000E+01  0.00000000E+00
  2.70000000E+02  7.40000000E+01  0.00000000E+00
  2.70000000E+02  7.20000000E+01  0.00000000E+00
  2.70000000E+02  7.00000000E+01  0.00000000E+00
  2.70000000E+02  6.80000000E+01  0.00000000E+00
  2.70000000E+02  6.60000000E+01  0.00000000E+00
  2.70000000E+02  6.40000000E+01  0.00000000E+00
  2.70000000E+02  6.20000000E+01  0.00000000E+00
  2.70000000E+02  6.00000000E+01  0.00000000E+00
  2.70000000E+02  5.80000000E+01  0.00000000E+00
  2.70000000E+02  5.60000000E+01  0.00000000E+00
  2.70000000E+02  5.40000000E+01  0.00000000E+00
  2.70000000E+02  5.20000000E+01  0.00000000E+00
  2.70000000E+02  5.00000000E+01  0.00000000E+00
  2.70000000E+02  4.80000000E+01  0.00000000E+00
  2.70000000E+02  4.60000000E+01  0.00000000E+00
  2.70000000E+02  4.40000000E+01  0.00000000E+00
  2.70000000E+02  4.20000000E+01  0.00000000E+00
  2.70000000E+02  4.00000000E+01  0.00000000E+00
  2.70000000E+02  3.80000000E+01  0.00000000E+00
  2.70000000E+02  3.60000000E+01  0.00000000E+00
  2.70000000E+02  3.40000000E+01  0.00000000E+00
  2.70000000E+02  3.20000000E+01  0.00000000E+00
  2.70000000E+02  3.00000000E+01  0.00000000E+00
  2.70000000E+02  2.80000000E+01  0.00000000E+00
  2.70000000E+02  2.60000000E+01  0.00000000E+00
  2.70000000E+02  2.40000000E+01  0.00000000E+00
  2.70000000E+02  2.20000000E+01  0.00000000E+00
  2.70000000E+02  2.00000000E+01  0.00000000E+00
  2.70000000E+02  1.80000000E+01  0.00000000E+00
  2.70000000E+02  1.60000000E+01  0.00000000E+00
  2.70000000E+02  1.40000000E+01  0.00000000E+00
  2.70000000E+02  1.20000000E+01  0.00000000E+00
  2.70000000E+02  1.00000000E+01  0.00000000E+00
  2.70000000E+02  8.00000000E+00  0.00000000E+00
  2.70000000E+02  6.00000000E+00  0.00000000E+00
  2.70000000E+02  4.00000000E+00  0.00000000E+00
  2.70000000E+02  2.00000000E+00  0.00000000E+00
  2.70000000E+02 -3.33066907E-14  0.00000000E+00
  2.80000000E+02  1.00000000E+02  0.00000000E+00
  2.80000000E+02  9.80000000E+01  0.00000000E+00
  2.80000000E+02  9.60000000E+01  0.00000000E+00
  2.80000000E+02  9.40000000E+01  0.00000000E+00
  2.80000000E+02  9.20000000E+01  0.00000000E+00
  2.80000000E+02  9.00000000E+01  0.00000000E+00
  2.80000000E+02  8.80000000E+01  0.00000000E+00
  2.80000000E+02  8.60000000E+01  0.00000000E+00
  2.80000000E+02  8.40000000E+01  0.00000000E+00
  2.80000000E+02  8.20000000E+01  0.00000000E+00
  2.80000000E+02  8.00000000E+01  0.00000000E+00
  2.80000000E+02  7.80000000E+01  0.00000000E+00
  2.80000000E+02  7.60000000E+01  0.00000000E+00
  2.80000000E+02  7.40000000E+01  0.00000000E+00
  2.80000000E+02  7.20000000E+01  0.00000000E+00
  2.80000000E+02  7.00000000E+01  0.00000000E+00
  2.80000000E+02  6.80000000E+01  0.00000000E+00
  2.80000000E+02  6.60000000E+01  0.00000000E+00
  2.80000000E+02  6.40000000E+01  0.00000000E+00
  2.80000000E+02  6.20000000E+01  0.00000000E+00
  2.80000000E+02  6.00000000E+01  0.00000000E+00
  2.80000000E+02  5.80000000E+01  0.00000000E+00
  2.80000000E+02  5.60000000E+01  0.00000000E+00
  2.80000000E+02  5.40000000E+01  0.00000000E+00
  2.80000000E+02  5.20000000E+01  0.00000000E+00
  2.80000000E+02  5.00000000E+01  0.00000000E+00
  2.80000000E+02  4.80000000E+01  0.00000000E+00
  2.80000000E+02  4.60000000E+01  0.00000000E+00
  2.80000000E+02  4.40000000E+01  0.00000000E+00
  2.80000000E+02  4.20000000E+01  0.00000000E+00
  2.80000000E+02  4.00000000E+01  0.00000000E+00
  2.80000000E+02  3.80000000E+01  0.00000000E+00
  2.80000000E+02  3.60000000E+01  0.00000000E+00
  2.80000000E+02  3.40000000E+01  0.00000000E+00
  2.80000000E+02  3.20000000E+01  0.00000000E+00
  2.80000000E+02  3.00000000E+01  0.00000000E+00
  2.80000000E+02  2.80000000E+01  0.00000000E+00
  2.80000000E+02  2.60000000E+01  0.00000000E+00
  2.80000000E+02  2.40000000E+01  0.00000000E+00
  2.80000000E+02  2.20000000E+01  0.00000000E+00
  2.80000000E+02  2.00000000E+01  0.00000000E+00
  2.80000000E+02  1.80000000E+01  0.00000000E+00
  2.80000000E+02  1.60000000E+01  0.00000000E+00
  2.80000000E+02  1.40000000E+01  0.00000000E+00
  2.80000000E+02  1.20000000E+01  0.00000000E+00
  2.80000000E+02  1.00000000E+01  0.00000000E+00
  2.80000000E+02  8.00000000E+00  0.00000000E+00
  2.80000000E+02  6.00000000E+00  0.00000000E+00
  2.80000000E+02  4.00000000E+00  0.00000000E+00
  2.80000000E+02  2.00000000E+00  0.00000000E+00
  2.80000000E+02 -3.33066907E-14  0.00000000E+00
  2.90000000E+02  1.00000000E+02  0.00000000E+00
  2.90000000E+02  9.80000000E+01  0.00000000E+00
  2.90000000E+02  9.60000000E+01  0.00000000E+00
  2.90000000E+02  9.40000000E+01  0.00000000E+00
  2.90000000E+02  9.20000000E+01  0.00000000E+00
  2.90000000E+02  9.00000000E+01  0.00000000E+00
  2.90000000E+02  8.80000000E+01  0.00000000E+00
  2.90000000E+02  8.60000000E+01  0.00000000E+00
  2.90000000E+02  8.40000000E+01  0.00000000E+00
  2.90000000E+02  8.20000000E+01  0.00000000E+00
  2.90000000E+02  8.00000000E+01  0.00000000E+00
  2.90000000E+02  7.80000000E+01  0.00000000E+00
  2.90000000E+02  7.60000000E+01  0.00000000E+00
  2.90000000E+02  7.40000000E+01  0.00000000E+00
  2.90000000E+02  7.20000000E+01  0.00000000E+00
  2.90000000E+02  7.00000000E+01  0.00000000E+00
  2.90000000E+02  6.80000000E+01  0.00000000E+00
  2.90000000E+02  6.60000000E+01  0.00000000E+00
  2.90000000E+02  6.40000000E+01  0.00000000E+00
  2.90000000E+02  6.20000000E+01  0.00000000E+00
  2.90000000E+02  6.00000000E+01  0.00000000E+00
  2.90000000E+02  5.80000000E+01  0.00000000E+00
  2.90000000E+02  5.60000000E+01  0.00000000E+00
  2.90000000E+02  5.40000000E+01  0.00000000E+00
  2.90000000E+02  5.20000000E+01  0.00000000E+00
  2.90000000E+02  5.00000000E+01  0.00000000E+00
  2.90000000E+02  4.80000000E+01  0.00000000E+00
  2.90000000E+02  4.60000000E+01  0.00000000E+00
  2.90000000E+02  4.40000000E+01  0.00000000E+00
  2.90000000E+02  4.20000000E+01  0.00000000E+00
  2.90000000E+02  4.00000000E+01  0.00000000E+00
  2.90000000E+02  3.80000000E+01  0.00000000E+00
  2.90000000E+02  3.60000000E+01  0.00000000E+00
  2.90000000E+02  3.40000000E+01  0.00000000E+00
  2.90000000E+02  3.20000000E+01  0.00000000E+00
  2.90000000E+02  3.00000000E+01  0.00000000E+00
  2.90000000E+02  2.80000000E+01  0.00000000E+00
  2.90000000E+02  2.60000000E+01  0.00000000E+00
  2.90000000E+02  2.40000000E+01  0.00000000E+00
  2.90000000E+02  2.20000000E+01  0.00000000E+00
  2.90000000E+02  2.00000000E+01  0.00000000E+00
  2.90000000E+02  1.80000000E+01  0.00000000E+00
  2.90000000E+02  1.60000000E+01  0.00000000E+00
  2.90000000E+02  1.40000000E+01  0.00000000E+00
  2.90000000E+02  1.20000000E+01  0.00000000E+00
  2.90000000E+02  1.00000000E+01  0.00000000E+00
  2.90000000E+02  8.00000000E+00  0.00000000E+00
  2.90000000E+02  6.00000000E+00  0.00000000E+00
  2.90000000E+02  4.00000000E+00  0.00000000E+00
  2.90000000E+02  2.00000000E+00  0.00000000E+00
  2.90000000E+02 -3.33066907E-14  0.00000000E+00
  3.00000000E+02  1.00000000E+02  0.00000000E+00
  3.00000000E+02  9.80000000E+01  0.00000000E+00
  3.00000000E+02  9.60000000E+01  0.00000000E+00
  3.00000000E+02  9.40000000E+01  0.00000000E+00
  3.00000000E+02  9.20000000E+01  0.00000000E+00
  3.00000000E+02  9.00000000E+01  0.00000000E+00
  3.00000000E+02  8.80000000E+01  0.00000000E+00
  3.00000000E+02  8.60000000E+01  0.00000000E+00
  3.00000000E+02  8.40000000E+01  0.00000000E+00
  3.00000000E+02  8.20000000E+01  0.00000000E+00
  3.00000000E+02  8.00000000E+01  0.00000000E+00
  3.00000000E+02  7.80000000E+01  0.00000000E+00
  3.00000000E+02  7.60000000E+01  0.00000000E+00
  3.00000000E+02  7.40000000E+01  0.00000000E+00
  3.00000000E+02  7.20000000E+01  0.00000000E+00
  3.00000000E+02  7.00000000E+01  0.00000000E+00
  3.00000000E+02  6.80000000E+01  0.00000000E+00
  3.00000000E+02  6.60000000E+01  0.00000000E+00
  3.00000000E+02  6.40000000E+01  0.00000000E+00
  3.00000000E+02  6.20000000E+01  0.00000000E+00
  3.00000000E+02  6.00000000E+01  0.00000000E+00
  3.00000000E+02  5.80000000E+01  0.00000000E+00
  3.00000000E+02  5.60000000E+01  0.00000000E+00
  3.00000000E+02  5.40000000E+01  0.00000000E+00
  3.00000000E+02  5.20000000E+01  0.00000000E+00
  3.00000000E+02  5.00000000E+01  0.00000000E+00
  3.00000000E+02  4.80000000E+01  0.00000000E+00
  3.00000000E+02  4.60000000E+01  0.00000000E+00
  3.00000000E+02  4.40000000E+01  0.00000000E+00
  3.00000000E+02  4.20000000E+01  0.00000000E+00
  3.00000000E+02  4.00000000E+01  0.00000000E+00
  3.00000000E+02  3.80000000E+01  0.00000000E+00
  3.00000000E+02  3.60000000E+01  0.00000000E+00
  3.00000000E+02  3.40000000E+01  0.00000000E+00
  3.00000000E+02  3.20000000E+01  0.00000000E+00
  3.00000000E+02  3.00000000E+01  0.00000000E+00
  3.00000000E+02  2.80000000E+01  0.00000000E+00
  3.00000000E+02  2.60000000E+01  0.00000000E+00
  3.00000000E+02  2.40000000E+01  0.00000000E+00
  3.00000000E+02  2.20000000E+01  0.00000000E+00
  3.00000000E+02  2.00000000E+01  0.00000000E+00
  3.00000000E+02  1.80000000E+01  0.00000000E+00
  3.00000000E+02  1.60000000E+01  0.00000000E+00
  3.00000000E+02  1.40000000E+01  0.00000000E+00
  3.00000000E+02  1.20000000E+01  0.00000000E+00
  3.00000000E+02  1.00000000E+01  0.00000000E+00
  3.00000000E+02  8.00000000E+00  0.00000000E+00
  3.00000000E+02  6.00000000E+00  0.00000000E+00
  3.00000000E+02  4.00000000E+00  0.00000000E+00
  3.00000000E+02  2.00000000E+00  0.00000000E+00
  3.00000000E+02 -3.33066907E-14  0.00000000E+00
  3.10000000E+02  1.00000000E+02  0.00000000E+00
  3.10000000E+02  9.80000000E+01  0.00000000E+00
  3.10000000E+02  9.60000000E+01  0.00000000E+00
  3.10000000E+02  9.40000000E+01  0.00000000E+00
  3.10000000E+02  9.20000000E+01  0.00000000E+00
  3.10000000E+02  9.00000000E+01  0.00000000E+00
  3.10000000E+02  8.80000000E+01  0.00000000E+00
  3.10000000E+02  8.60000000E+01  0.00000000E+00
  3.10000000E+02  8.40000000E+01  0.00000000E+00
  3.10000000E+02  8.20000000E+01  0.00000000E+00
  3.10000000E+02  8.00000000E+01  0.00000000E+00
  3.10000000E+02  7.80000000E+01  0.00000000E+00
  3.10000000E+02  7.60000000E+01  0.00000000E+00
  3.10000000E+02  7.40000000E+01  0.00000000E+00
  3.10000000E+02  7.20000000E+01  0.00000000E+00
  3.10000000E+02  7.00000000E+01  0.00000000E+00
  3.10000000E+02  6.80000000E+01  0.00000000E+00
  3.10000000E+02  6.60000000E+01  0.00000000E+00
  3.10000000E+02  6.40000000E+01  0.00000000E+00
  3.10000000E+02  6.20000000E+01  0.00000000E+00
  3.10000000E+02  6.00000000E+01  0.00000000E+00
  3.10000000E+02  5.80000000E+01  0.00000000E+00
  3.10000000E+02  5.60000000E+01  0.00000000E+00
  3.10000000E+02  5.40000000E+01  0.00000000E+00
  3.10000000E+02  5.20000000E+01  0.00000000E+00
  3.10000000E+02  5.00000000E+01  0.00000000E+00
  3.10000000E+02  4.80000000E+01  0.00000000E+00
  3.10000000E+02  4.60000000E+01  0.00000000E+00
  3.10000000E+02  4.40000000E+01  0.00000000E+00
  3.10000000E+02  4.20000000E+01  0.00000000E+00
  3.10000000E+02  4.00000000E+01  0.00000000E+00
  3.10000000E+02  3.80000000E+01  0.00000000E+00
  3.10000000E+02  3.60000000E+01  0.00000000E+00
  3.10000000E+02  3.40000000E+01  0.00000000E+00
  3.10000000E+02  3.20000000E+01  0.00000000E+00
  3.10000000E+02  3.00000000E+01  0.00000000E+00
  3.10000000E+02  2.80000000E+01  0.00000000E+00
  3.10000000E+02  2.60000000E+01  0.00000000E+00
  3.10000000E+02  2.40000000E+01  0.00000000E+00
  3.10000000E+02  2.20000000E+01  0.00000000E+00
  3.10000000E+02  2.00000000E+01  0.00000000E+00
  3.10000000E+02  1.80000000E+01  0.00000000E+00
  3.10000000E+02  1.60000000E+01  0.00000000E+00
  3.10000000E+02  1.40000000E+01  0.00000000E+00
  3.10000000E+02  1.20000000E+01  0.00000000E+00
  3.10000000E+02  1.00000000E+01  0.00000000E+00
  3.10000000E+02  8.00000000E+00  0.00000000E+00
  3.10000000E+02  6.00000000E+00  0.00000000E+00
  3.10000000E+02  4.00000000E+00  0.00000000E+00
  3.10000000E+02  2.00000000E+00  0.00000000E+00
  3.10000000E+02 -3.33066907E-14  0.00000000E+00
  3.20000000E+02  1.00000000E+02  0.00000000E+00
  3.20000000E+02  9.80000000E+01  0.00000000E+00
  3.20000000E+02  9.60000000E+01  0.00000000E+00
  3.20000000E+02  9.40000000E+01  0.00000000E+00
  3.20000000E+02  9.20000000E+01  0.00000000E+00
  3.20000000E+02  9.00000000E+01  0.00000000E+00
  3.20000000E+02  8.80000000E+01  0.00000000E+00
  3.20000000E+02  8.60000000E+01  0.00000000E+00
  3.20000000E+02  8.40000000E+01  0.00000000E+00
  3.20000000E+02  8.20000000E+01  0.00000000E+00
  3.20000000E+02  8.00000000E+01  0.00000000E+00
  3.20000000E+02  7.80000000E+01  0.00000000E+00
  3.20000000E+02  7.60000000E+01  0.00000000E+00
  3.20000000E+02  7.40000000E+01  0.00000000E+00
  3.20000000E+02  7.20000000E+01  0.00000000E+00
  3.20000000E+02  7.00000000E+01  0.00000000E+00
  3.20000000E+02  6.80000000E+01  0.00000000E+00
  3.20000000E+02  6.60000000E+01  0.00000000E+00
  3.20000000E+02  6.40000000E+01  0.00000000E+00
  3.20000000E+02  6.20000000E+01  0.00000000E+00
  3.20000000E+02  6.00000000E+01  0.00000000E+00
  3.20000000E+02  5.80000000E+01  0.00000000E+00
  3.20000000E+02  5.60000000E+01  0.00000000E+00
  3.20000000E+02  5.40000000E+01  0.00000000E+00
  3.20000000E+02  5.20000000E+01  0.00000000E+00
  3.20000000E+02  5.00000000E+01  0.00000000E+00
  3.20000000E+02  4.80000000E+01  0.00000000E+00
  3.20000000E+02  4.60000000E+01  0.00000000E+00
  3.20000000E+02  4.40000000E+01  0.00000000E+00
  3.20000000E+02  4.20000000E+01  0.00000000E+00
  3.20000000E+02  4.00000000E+01  0.00000000E+00
  3.20000000E+02  3.80000000E+01  0.00000000E+00
  3.20000000E+02  3.60000000E+01  0.00000000E+00
  3.20000000E+02  3.40000000E+01  0.00000000E+00
  3.20000000E+02  3.20000000E+01  0.00000000E+00
  3.20000000E+02  3.00000000E+01  0.00000000E+00
  3.20000000E+02  2.80000000E+01  0.00000000E+00
  3.20000000E+02  2.60000000E+01  0.00000000E+00
  3.20000000E+02  2.40000000E+01  0.00000000E+00
  3.20000000E+02  2.20000000E+01  0.00000000E+00
  3.20000000E+02  2.00000000E+01  0.00000000E+00
  3.20000000E+02  1.80000000E+01  0.00000000E+00
  3.20000000E+02  1.60000000E+01  0.00000000E+00
  3.20000000E+02  1.40000000E+01  0.00000000E+00
  3.20000000E+02  1.20000000E+01  0.00000000E+00
  3.20000000E+02  1.00000000E+01  0.00000000E+00
  3.20000000E+02  8.00000000E+00  0.00000000E+00
  3.20000000E+02  6.00000000E+00  0.00000000E+00
  3.20000000E+02  4.00000000E+00  0.00000000E+00
  3.20000000E+02  2.00000000E+00  0.00000000E+00
  3.20000000E+02 -3.33066907E-14  0.00000000E+00
  3.30000000E+02  1.00000000E+02  0.00000000E+00
  3.30000000E+02  9.80000000E+01  0.00000000E+00
  3.30000000E+02  9.60000000E+01  0.00000000E+00
  3.30000000E+02  9.40000000E+01  0.00000000E+00
  3.30000000E+02  9.20000000E+01  0.00000000E+00
  3.30000000E+02  9.00000000E+01  0.00000000E+00
  3.30000000E+02  8.80000000E+01  0.00000000E+00
  3.30000000E+02  8.60000000E+01  0.00000000E+00
  3.30000000E+02  8.40000000E+01  0.00000000E+00
  3.30000000E+02  8.20000000E+01  0.00000000E+00
  3.30000000E+02  8.00000000E+01  0.00000000E+00
  3.30000000E+02  7.80000000E+01  0.00000000E+00
  3.30000000E+02  7.60000000E+01  0.00000000E+00
  3.30000000E+02  7.40000000E+01  0.00000000E+00
  3.30000000E+02  7.20000000E+01  0.00000000E+00
  3.30000000E+02  7.00000000E+01  0.00000000E+00
  3.30000000E+02  6.80000000E+01  0.00000000E+00
  3.30000000E+02  6.60000000E+01  0.00000000E+00
  3.30000000E+02  6.40000000E+01  0.00000000E+00
  3.30000000E+02  6.20000000E+01  0.00000000E+00
  3.30000000E+02  6.00000000E+01  0.00000000E+00
  3.30000000E+02  5.80000000E+01  0.00000000E+00
  3.30000000E+02  5.60000000E+01  0.00000000E+00
  3.30000000E+02  5.40000000E+01  0.00000000E+00
  3.30000000E+02  5.20000000E+01  0.00000000E+00
  3.30000000E+02  5.00000000E+01  0.00000000E+00
  3.30000000E+02  4.80000000E+01  0.00000000E+00
  3.30000000E+02  4.60000000E+01  0.00000000E+00
  3.30000000E+02  4.40000000E+01  0.00000000E+00
  3.30000000E+02  4.20000000E+01  0.00000000E+00
  3.30000000E+02  4.00000000E+01  0.00000000E+00
  3.30000000E+02  3.80000000E+01  0.00000000E+00
  3.30000000E+02  3.60000000E+01  0.00000000E+00
  3.30000000E+02  3.40000000E+01  0.00000000E+00
  3.30000000E+02  3.20000000E+01  0.00000000E+00
  3.30000000E+02  3.00000000E+01  0.00000000E+00
  3.30000000E+02  2.80000000E+01  0.00000000E+00
  3.30000000E+02  2.60000000E+01  0.00000000E+00
  3.30000000E+02  2.40000000E+01  0.00000000E+00
  3.30000000E+02  2.20000000E+01  0.00000000E+00
  3.30000000E+02  2.00000000E+01  0.00000000E+00
  3.30000000E+02  1.80000000E+01  0.00000000E+00
  3.30000000E+02  1.60000000E+01  0.00000000E+00
  3.30000000E+02  1.40000000E+01  0.00000000E+00
  3.30000000E+02  1.20000000E+01  0.00000000E+00
  3.30000000E+02  1.00000000E+01  0.00000000E+00
  3.30000000E+02  8.00000000E+00  0.00000000E+00
  3.30000000E+02  6.00000000E+00  0.00000000E+00
  3.30000000E+02  4.00000000E+00  0.00000000E+00
  3.30000000E+02  2.00000000E+00  0.00000000E+00
  3.30000000E+02 -3.33066907E-14  0.00000000E+00
  3.40000000E+02  1.00000000E+02  0.00000000E+00
  3.40000000E+02  9.80000000E+01  0.00000000E+00
  3.40000000E+02  9.60000000E+01  0.00000000E+00
  3.40000000E+02  9.40000000E+01  0.00000000E+00
  3.40000000E+02  9.20000000E+01  0.00000000E+00
  3.40000000E+02  9.00000000E+01  0.00000000E+00
  3.40000000E+02  8.80000000E+01  0.00000000E+00
  3.40000000E+02  8.60000000E+01  0.00000000E+00
  3.40000000E+02  8.40000000E+01  0.00000000E+00
  3.40000000E+02  8.20000000E+01  0.00000000E+00
  3.40000000E+02  8.00000000E+01  0.00000000E+00
  3.40000000E+02  7.80000000E+01  0.00000000E+00
  3.40000000E+02  7.60000000E+01  0.00000000E+00
  3.40000000E+02  7.40000000E+01  0.00000000E+00
  3.40000000E+02  7.20000000E+01  0.00000000E+00
  3.40000000E+02  7.00000000E+01  0.00000000E+00
  3.40000000E+02  6.80000000E+01  0.00000000E+00
  3.40000000E+02  6.60000000E+01  0.00000000E+00
  3.40000000E+02  6.40000000E+01  0.00000000E+00
  3.40000000E+02  6.20000000E+01  0.00000000E+00
  3.40000000E+02  6.00000000E+01  0.00000000E+00
  3.40000000E+02  5.80000000E+01  0.00000000E+00
  3.40000000E+02  5.60000000E+01  0.00000000E+00
  3.40000000E+02  5.40000000E+01  0.00000000E+00
  3.40000000E+02  5.20000000E+01  0.00000000E+00
  3.40000000E+02  5.00000000E+01  0.00000000E+00
  3.40000000E+02  4.80000000E+01  0.00000000E+00
  3.40000000E+02  4.60000000E+01  0.00000000E+00
  3.40000000E+02  4.40000000E+01  0.00000000E+00
  3.40000000E+02  4.20000000E+01  0.00000000E+00
  3.40000000E+02  4.00000000E+01  0.00000000E+00
  3.40000000E+02  3.80000000E+01  0.00000000E+00
  3.40000000E+02  3.60000000E+01  0.00000000E+00
  3.40000000E+02  3.40000000E+01  0.00000000E+00
  3.40000000E+02  3.20000000E+01  0.00000000E+00
  3.40000000E+02  3.00000000E+01  0.00000000E+00
  3.40000000E+02  2.80000000E+01  0.00000000E+00
  3.40000000E+02  2.60000000E+01  0.00000000E+00
  3.40000000E+02  2.40000000E+01  0.00000000E+00
  3.40000000E+02  2.20000000E+01  0.00000000E+00
  3.40000000E+02  2.00000000E+01  0.00000000E+00
  3.40000000E+02  1.80000000E+01  0.00000000E+00
  3.40000000E+02  1.60000000E+01  0.00000000E+00
  3.40000000E+02  1.40000000E+01  0.00000000E+00
  3.40000000E+02  1.20000000E+01  0.00000000E+00
  3.40000000E+02  1.00000000E+01  0.00000000E+00
  3.40000000E+02  8.00000000E+00  0.00000000E+00
  3.40000000E+02  6.00000000E+00  0.00000000E+00
  3.40000000E+02  4.00000000E+00  0.00000000E+00
  3.40000000E+02  2.00000000E+00  0.00000000E+00
  3.40000000E+02 -3.33066907E-14  0.00000000E+00
  3.50000000E+02  1.00000000E+02  0.00000000E+00
  3.50000000E+02  9.80000000E+01  0.00000000E+00
  3.50000000E+02  9.60000000E+01  0.00000000E+00
  3.50000000E+02  9.40000000E+01  0.00000000E+00
  3.50000000E+02  9.20000000E+01  0.00000000E+00
  3.50000000E+02  9.00000000E+01  0.00000000E+00
  3.50000000E+02  8.80000000E+01  0.00000000E+00
  3.50000000E+02  8.60000000E+01  0.00000000E+00
  3.50000000E+02  8.40000000E+01  0.00000000E+00
  3.50000000E+02  8.20000000E+01  0.00000000E+00
  3.50000000E+02  8.00000000E+01  0.00000000E+00
  3.50000000E+02  7.80000000E+01  0.00000000E+00
  3.50000000E+02  7.60000000E+01  0.00000000E+00
  3.50000000E+02  7.40000000E+01  0.00000000E+00
  3.50000000E+02  7.20000000E+01  0.00000000E+00
  3.50000000E+02  7.00000000E+01  0.00000000E+00
  3.50000000E+02  6.80000000E+01  0.00000000E+00
  3.50000000E+02  6.60000000E+01  0.00000000E+00
  3.50000000E+02  6.40000000E+01  0.00000000E+00
  3.50000000E+02  6.20000000E+01  0.00000000E+00
  3.50000000E+02  6.00000000E+01  0.00000000E+00
  3.50000000E+02  5.80000000E+01  0.00000000E+00
  3.50000000E+02  5.60000000E+01  0.00000000E+00
  3.50000000E+02  5.40000000E+01  0.00000000E+00
  3.50000000E+02  5.20000000E+01  0.00000000E+00
  3.50000000E+02  5.00000000E+01  0.00000000E+00
  3.50000000E+02  4.80000000E+01  0.00000000E+00
  3.50000000E+02  4.60000000E+01  0.00000000E+00
  3.50000000E+02  4.40000000E+01  0.00000000E+00
  3.50000000E+02  4.20000000E+01  0.00000000E+00
  3.50000000E+02  4.00000000E+01  0.00000000E+00
  3.50000000E+02  3.80000000E+01  0.00000000E+00
  3.50000000E+02  3.60000000E+01  0.00000000E+00
  3.50000000E+02  3.40000000E+01  0.00000000E+00
  3.50000000E+02  3.20000000E+01  0.00000000E+00
  3.50000000E+02  3.00000000E+01  0.00000000E+00
  3.50000000E+02  2.80000000E+01  0.00000000E+00
  3.50000000E+02  2.60000000E+01  0.00000000E+00
  3.50000000E+02  2.40000000E+01  0.00000000E+00
  3.50000000E+02  2.20000000E+01  0.00000000E+00
  3.50000000E+02  2.00000000E+01  0.00000000E+00
  3.50000000E+02  1.80000000E+01  0.00000000E+00
  3.50000000E+02  1.60000000E+01  0.00000000E+00
  3.50000000E+02  1.40000000E+01  0.00000000E+00
  3.50000000E+02  1.20000000E+01  0.00000000E+00
  3.50000000E+02  1.00000000E+01  0.00000000E+00
  3.50000000E+02  8.00000000E+00  0.00000000E+00
  3.50000000E+02  6.00000000E+00  0.00000000E+00
  3.50000000E+02  4.00000000E+00  0.00000000E+00
  3.50000000E+02  2.00000000E+00  0.00000000E+00
  3.50000000E+02 -3.33066907E-14  0.00000000E+00
  3.60000000E+02  1.00000000E+02  0.00000000E+00
  3.60000000E+02  9.80000000E+01  0.00000000E+00
  3.60000000E+02  9.60000000E+01  0.00000000E+00
  3.60000000E+02  9.40000000E+01  0.00000000E+00
  3.60000000E+02  9.20000000E+01  0.00000000E+00
  3.60000000E+02  9.00000000E+01  0.00000000E+00
  3.60000000E+02  8.80000000E+01  0.00000000E+00
  3.60000000E+02  8.60000000E+01  0.00000000E+00
  3.60000000E+02  8.40000000E+01  0.00000000E+00
  3.60000000E+02  8.20000000E+01  0.00000000E+00
  3.60000000E+02  8.00000000E+01  0.00000000E+00
  3.60000000E+02  7.80000000E+01  0.00000000E+00
  3.60000000E+02  7.60000000E+01  0.00000000E+00
  3.60000000E+02  7.40000000E+01  0.00000000E+00
  3.60000000E+02  7.20000000E+01  0.00000000E+00
  3.60000000E+02  7.00000000E+01  0.00000000E+00
  3.60000000E+02  6.80000000E+01  0.00000000E+00
  3.60000000E+02  6.60000000E+01  0.00000000E+00
  3.60000000E+02  6.40000000E+01  0.00000000E+00
  3.60000000E+02  6.20000000E+01  0.00000000E+00
  3.60000000E+02  6.00000000E+01  0.00000000E+00
  3.60000000E+02  5.80000000E+01  0.00000000E+00
  3.60000000E+02  5.60000000E+01  0.00000000E+00
  3.60000000E+02  5.40000000E+01  0.00000000E+00
  3.60000000E+02  5.20000000E+01  0.00000000E+00
  3.60000000E+02  5.00000000E+01  0.00000000E+00
  3.60000000E+02  4.80000000E+01  0.00000000E+00
  3.60000000E+02  4.60000000E+01  0.00000000E+00
  3.60000000E+02  4.40000000E+01  0.00000000E+00
  3.60000000E+02  4.20000000E+01  0.00000000E+00
  3.60000000E+02  4.00000000E+01  0.00000000E+00
  3.60000000E+02  3.80000000E+01  0.00000000E+00
  3.60000000E+02  3.60000000E+01  0.00000000E+00
  3.60000000E+02  3.40000000E+01  0.00000000E+00
  3.60000000E+02  3.20000000E+01  0.00000000E+00
  3.60000000E+02  3.00000000E+01  0.00000000E+00
  3.60000000E+02  2.80000000E+01  0.00000000E+00
  3.60000000E+02  2.60000000E+01  0.00000000E+00
  3.60000000E+02  2.40000000E+01  0.00000000E+00
  3.60000000E+02  2.20000000E+01  0.00000000E+00
  3.60000000E+02  2.00000000E+01  0.00000000E+00
  3.60000000E+02  1.80000000E+01  0.00000000E+00
  3.60000000E+02  1.60000000E+01  0.00000000E+00
  3.60000000E+02  1.40000000E+01  0.00000000E+00
  3.60000000E+02  1.20000000E+01  0.00000000E+00
  3.60000000E+02  1.00000000E+01  0.00000000E+00
  3.60000000E+02  8.00000000E+00  0.00000000E+00
  3.60000000E+02  6.00000000E+00  0.00000000E+00
  3.60000000E+02  4.00000000E+00  0.00000000E+00
  3.60000000E+02  2.00000000E+00  0.00000000E+00
  3.60000000E+02 -3.33066907E-14  0.00000000E+00
  3.70000000E+02  1.00000000E+02  0.00000000E+00
  3.70000000E+02  9.80000000E+01  0.00000000E+00
  3.70000000E+02  9.60000000E+01  0.00000000E+00
  3.70000000E+02  9.40000000E+01  0.00000000E+00
  3.70000000E+02  9.20000000E+01  0.00000000E+00
  3.70000000E+02  9.00000000E+01  0.00000000E+00
  3.70000000E+02  8.80000000E+01  0.00000000E+00
  3.70000000E+02  8.60000000E+01  0.00000000E+00
  3.70000000E+02  8.40000000E+01  0.00000000E+00
  3.70000000E+02  8.20000000E+01  0.00000000E+00
  3.70000000E+02  8.00000000E+01  0.00000000E+00
  3.70000000E+02  7.80000000E+01  0.00000000E+00
  3.70000000E+02  7.60000000E+01  0.00000000E+00
  3.70000000E+02  7.40000000E+01  0.00000000E+00
  3.70000000E+02  7.20000000E+01  0.00000000E+00
  3.70000000E+02  7.00000000E+01  0.00000000E+00
  3.70000000E+02  6.80000000E+01  0.00000000E+00
  3.70000000E+02  6.60000000E+01  0.00000000E+00
  3.70000000E+02  6.40000000E+01  0.00000000E+00
  3.70000000E+02  6.20000000E+01  0.00000000E+00
  3.70000000E+02  6.00000000E+01  0.00000000E+00
  3.70000000E+02  5.80000000E+01  0.00000000E+00
  3.70000000E+02  5.60000000E+01  0.00000000E+00
  3.70000000E+02  5.40000000E+01  0.00000000E+00
  3.70000000E+02  5.20000000E+01  0.00000000E+00
  3.70000000E+02  5.00000000E+01  0.00000000E+00
  3.70000000E+02  4.80000000E+01  0.00000000E+00
  3.70000000E+02  4.60000000E+01  0.00000000E+00
  3.70000000E+02  4.40000000E+01  0.00000000E+00
  3.70000000E+02  4.20000000E+01  0.00000000E+00
  3.70000000E+02  4.00000000E+01  0.00000000E+00
  3.70000000E+02  3.80000000E+01  0.00000000E+00
  3.70000000E+02  3.60000000E+01  0.00000000E+00
  3.70000000E+02  3.40000000E+01  0.00000000E+00
  3.70000000E+02  3.20000000E+01  0.00000000E+00
  3.70000000E+02  3.00000000E+01  0.00000000E+00
  3.70000000E+02  2.80000000E+01  0.00000000E+00
  3.70000000E+02  2.60000000E+01  0.00000000E+00
  3.70000000E+02  2.40000000E+01  0.00000000E+00
  3.70000000E+02  2.20000000E+01  0.00000000E+00
  3.70000000E+02  2.00000000E+01  0.00000000E+00
  3.70000000E+02  1.80000000E+01  0.00000000E+00
  3.70000000E+02  1.60000000E+01  0.00000000E+00
  3.70000000E+02  1.40000000E+01  0.00000000E+00
  3.70000000E+02  1.20000000E+01  0.00000000E+00
  3.70000000E+02  1.00000000E+01  0.00000000E+00
  3.70000000E+02  8.00000000E+00  0.00000000E+00
  3.70000000E+02  6.00000000E+00  0.00000000E+00
  3.70000000E+02  4.00000000E+00  0.00000000E+00
  3.70000000E+02  2.00000000E+00  0.00000000E+00
  3.70000000E+02 -3.33066907E-14  0.00000000E+00
  3.80000000E+02  1.00000000E+02  0.00000000E+00
  3.80000000E+02  9.80000000E+01  0.00000000E+00
  3.80000000E+02  9.60000000E+01  0.00000000E+00
  3.80000000E+02  9.40000000E+01  0.00000000E+00
  3.80000000E+02  9.20000000E+01  0.00000000E+00
  3.80000000E+02  9.00000000E+01  0.00000000E+00
  3.80000000E+02  8.80000000E+01  0.00000000E+00
  3.80000000E+02  8.60000000E+01  0.00000000E+00
  3.80000000E+02  8.40000000E+01  0.00000000E+00
  3.80000000E+02  8.20000000E+01  0.00000000E+00
  3.80000000E+02  8.00000000E+01  0.00000000E+00
  3.80000000E+02  7.80000000E+01  0.00000000E+00
  3.80000000E+02  7.60000000E+01  0.00000000E+00
  3.80000000E+02  7.40000000E+01  0.00000000E+00
  3.80000000E+02  7.20000000E+01  0.00000000E+00
  3.80000000E+02  7.00000000E+01  0.00000000E+00
  3.80000000E+02  6.80000000E+01  0.00000000E+00
  3.80000000E+02  6.60000000E+01  0.00000000E+00
  3.80000000E+02  6.40000000E+01  0.00000000E+00
  3.80000000E+02  6.20000000E+01  0.00000000E+00
  3.80000000E+02  6.00000000E+01  0.00000000E+00
  3.80000000E+02  5.80000000E+01  0.00000000E+00
  3.80000000E+02  5.60000000E+01  0.00000000E+00
  3.80000000E+02  5.40000000E+01  0.00000000E+00
  3.80000000E+02  5.20000000E+01  0.00000000E+00
  3.80000000E+02  5.00000000E+01  0.00000000E+00
  3.80000000E+02  4.80000000E+01  0.00000000E+00
  3.80000000E+02  4.60000000E+01  0.00000000E+00
  3.80000000E+02  4.40000000E+01  0.00000000E+00
  3.80000000E+02  4.20000000E+01  0.00000000E+00
  3.80000000E+02  4.00000000E+01  0.00000000E+00
  3.80000000E+02  3.80000000E+01  0.00000000E+00
  3.80000000E+02  3.60000000E+01  0.00000000E+00
  3.80000000E+02  3.40000000E+01  0.00000000E+00
  3.80000000E+02  3.20000000E+01  0.00000000E+00
  3.80000000E+02  3.00000000E+01  0.00000000E+00
  3.80000000E+02  2.80000000E+01  0.00000000E+00
  3.80000000E+02  2.60000000E+01  0.00000000E+00
  3.80000000E+02  2.40000000E+01  0.00000000E+00
  3.80000000E+02  2.20000000E+01  0.00000000E+00
  3.80000000E+02  2.00000000E+01  0.00000000E+00
  3.80000000E+02  1.80000000E+01  0.00000000E+00
  3.80000000E+02  1.60000000E+01  0.00000000E+00
  3.80000000E+02  1.40000000E+01  0.00000000E+00
  3.80000000E+02  1.20000000E+01  0.00000000E+00
  3.80000000E+02  1.00000000E+01  0.00000000E+00
  3.80000000E+02  8.00000000E+00  0.00000000E+00
  3.80000000E+02  6.00000000E+00  0.00000000E+00
  3.80000000E+02  4.00000000E+00  0.00000000E+00
  3.80000000E+02  2.00000000E+00  0.00000000E+00
  3.80000000E+02 -3.33066907E-14  0.00000000E+00
  3.90000000E+02  1.00000000E+02  0.00000000E+00
  3.90000000E+02  9.80000000E+01  0.00000000E+00
  3.90000000E+02  9.60000000E+01  0.00000000E+00
  3.90000000E+02  9.40000000E+01  0.00000000E+00
  3.90000000E+02  9.20000000E+01  0.00000000E+00
  3.90000000E+02  9.00000000E+01  0.00000000E+00
  3.90000000E+02  8.80000000E+01  0.00000000E+00
  3.90000000E+02  8.60000000E+01  0.00000000E+00
  3.90000000E+02  8.40000000E+01  0.00000000E+00
  3.90000000E+02  8.20000000E+01  0.00000000E+00
  3.90000000E+02  8.00000000E+01  0.00000000E+00
  3.90000000E+02  7.80000000E+01  0.00000000E+00
  3.90000000E+02  7.60000000E+01  0.00000000E+00
  3.90000000E+02  7.40000000E+01  0.00000000E+00
  3.90000000E+02  7.20000000E+01  0.00000000E+00
  3.90000000E+02  7.00000000E+01  0.00000000E+00
  3.90000000E+02  6.80000000E+01  0.00000000E+00
  3.90000000E+02  6.60000000E+01  0.00000000E+00
  3.90000000E+02  6.40000000E+01  0.00000000E+00
  3.90000000E+02  6.20000000E+01  0.00000000E+00
  3.90000000E+02  6.00000000E+01  0.00000000E+00
  3.90000000E+02  5.80000000E+01  0.00000000E+00
  3.90000000E+02  5.60000000E+01  0.00000000E+00
  3.90000000E+02  5.40000000E+01  0.00000000E+00
  3.90000000E+02  5.20000000E+01  0.00000000E+00
  3.90000000E+02  5.00000000E+01  0.00000000E+00
  3.90000000E+02  4.80000000E+01  0.00000000E+00
  3.90000000E+02  4.60000000E+01  0.00000000E+00
  3.90000000E+02  4.40000000E+01  0.00000000E+00
  3.90000000E+02  4.20000000E+01  0.00000000E+00
  3.90000000E+02  4.00000000E+01  0.00000000E+00
  3.90000000E+02  3.80000000E+01  0.00000000E+00
  3.90000000E+02  3.60000000E+01  0.00000000E+00
  3.90000000E+02  3.40000000E+01  0.00000000E+00
  3.90000000E+02  3.20000000E+01  0.00000000E+00
  3.90000000E+02  3.00000000E+01  0.00000000E+00
  3.90000000E+02  2.80000000E+01  0.00000000E+00
  3.90000000E+02  2.60000000E+01  0.00000000E+00
  3.90000000E+02  2.40000000E+01  0.00000000E+00
  3.90000000E+02  2.20000000E+01  0.00000000E+00
  3.90000000E+02  2.00000000E+01  0.00000000E+00
  3.90000000E+02  1.80000000E+01  0.00000000E+00
  3.90000000E+02  1.60000000E+01  0.00000000E+00
  3.90000000E+02  1.40000000E+01  0.00000000E+00
  3.90000000E+02  1.20000000E+01  0.00000000E+00
  3.90000000E+02  1.00000000E+01  0.00000000E+00
  3.90000000E+02  8.00000000E+00  0.00000000E+00
  3.90000000E+02  6.00000000E+00  0.00000000E+00
  3.90000000E+02  4.00000000E+00  0.00000000E+00
  3.90000000E+02  2.00000000E+00  0.00000000E+00
  3.90000000E+02 -3.33066907E-14  0.00000000E+00
  4.00000000E+02  1.00000000E+02  0.00000000E+00
  4.00000000E+02  9.80000000E+01  0.00000000E+00
  4.00000000E+02  9.60000000E+01  0.00000000E+00
  4.00000000E+02  9.40000000E+01  0.00000000E+00
  4.00000000E+02  9.20000000E+01  0.00000000E+00
  4.00000000E+02  9.00000000E+01  0.00000000E+00
  4.00000000E+02  8.80000000E+01  0.00000000E+00
  4.00000000E+02  8.60000000E+01  0.00000000E+00
  4.00000000E+02  8.40000000E+01  0.00000000E+00
  4.00000000E+02  8.20000000E+01  0.00000000E+00
  4.00000000E+02  8.00000000E+01  0.00000000E+00
  4.00000000E+02  7.80000000E+01  0.00000000E+00
  4.00000000E+02  7.60000000E+01  0.00000000E+00
  4.00000000E+02  7.40000000E+01  0.00000000E+00
  4.00000000E+02  7.20000000E+01  0.00000000E+00
  4.00000000E+02  7.00000000E+01  0.00000000E+00
  4.00000000E+02  6.80000000E+01  0.00000000E+00
  4.00000000E+02  6.60000000E+01  0.00000000E+00
  4.00000000E+02  6.40000000E+01  0.00000000E+00
  4.00000000E+02  6.20000000E+01  0.00000000E+00
  4.00000000E+02  6.00000000E+01  0.00000000E+00
  4.00000000E+02  5.80000000E+01  0.00000000E+00
  4.00000000E+02  5.60000000E+01  0.00000000E+00
  4.00000000E+02  5.40000000E+01  0.00000000E+00
  4.00000000E+02  5.20000000E+01  0.00000000E+00
  4.00000000E+02  5.00000000E+01  0.00000000E+00
  4.00000000E+02  4.80000000E+01  0.00000000E+00
  4.00000000E+02  4.60000000E+01  0.00000000E+00
  4.00000000E+02  4.40000000E+01  0.00000000E+00
  4.00000000E+02  4.20000000E+01  0.00000000E+00
  4.00000000E+02  4.00000000E+01  0.00000000E+00
  4.00000000E+02  3.80000000E+01  0.00000000E+00
  4.00000000E+02  3.60000000E+01  0.00000000E+00
  4.00000000E+02  3.40000000E+01  0.00000000E+00
  4.00000000E+02  3.20000000E+01  0.00000000E+00
  4.00000000E+02  3.00000000E+01  0.00000000E+00
  4.00000000E+02  2.80000000E+01  0.00000000E+00
  4.00000000E+02  2.60000000E+01  0.00000000E+00
  4.00000000E+02  2.40000000E+01  0.00000000E+00
  4.00000000E+02  2.20000000E+01  0.00000000E+00
  4.00000000E+02  2.00000000E+01  0.00000000E+00
  4.00000000E+02  1.80000000E+01  0.00000000E+00
  4.00000000E+02  1.60000000E+01  0.00000000E+00
  4.00000000E+02  1.40000000E+01  0.00000000E+00
  4.00000000E+02  1.20000000E+01  0.00000000E+00
  4.00000000E+02  1.00000000E+01  0.00000000E+00
  4.00000000E+02  8.00000000E+00  0.00000000E+00
  4.00000000E+02  6.00000000E+00  0.00000000E+00
  4.00000000E+02  4.00000000E+00  0.00000000E+00
  4.00000000E+02  2.00000000E+00  0.00000000E+00
  4.00000000E+02 -3.33066907E-14  0.00000000E+00
  4.10000000E+02  1.00000000E+02  0.00000000E+00
  4.10000000E+02  9.80000000E+01  0.00000000E+00
  4.10000000E+02  9.60000000E+01  0.00000000E+00
  4.10000000E+02  9.40000000E+01  0.00000000E+00
  4.10000000E+02  9.20000000E+01  0.00000000E+00
  4.10000000E+02  9.00000000E+01  0.00000000E+00
  4.10000000E+02  8.80000000E+01  0.00000000E+00
  4.10000000E+02  8.60000000E+01  0.00000000E+00
  4.10000000E+02  8.40000000E+01  0.00000000E+00
  4.10000000E+02  8.20000000E+01  0.00000000E+00
  4.10000000E+02  8.00000000E+01  0.00000000E+00
  4.10000000E+02  7.80000000E+01  0.00000000E+00
  4.10000000E+02  7.60000000E+01  0.00000000E+00
  4.10000000E+02  7.40000000E+01  0.00000000E+00
  4.10000000E+02  7.20000000E+01  0.00000000E+00
  4.10000000E+02  7.00000000E+01  0.00000000E+00
  4.10000000E+02  6.80000000E+01  0.00000000E+00
  4.10000000E+02  6.60000000E+01  0.00000000E+00
  4.10000000E+02  6.40000000E+01  0.00000000E+00
  4.10000000E+02  6.20000000E+01  0.00000000E+00
  4.10000000E+02  6.00000000E+01  0.00000000E+00
  4.10000000E+02  5.80000000E+01  0.00000000E+00
  4.10000000E+02  5.60000000E+01  0.00000000E+00
  4.10000000E+02  5.40000000E+01  0.00000000E+00
  4.10000000E+02  5.20000000E+01  0.00000000E+00
  4.10000000E+02  5.00000000E+01  0.00000000E+00
  4.10000000E+02  4.80000000E+01  0.00000000E+00
  4.10000000E+02  4.60000000E+01  0.00000000E+00
  4.10000000E+02  4.40000000E+01  0.00000000E+00
  4.10000000E+02  4.20000000E+01  0.00000000E+00
  4.10000000E+02  4.00000000E+01  0.00000000E+00
  4.10000000E+02  3.80000000E+01  0.00000000E+00
  4.10000000E+02  3.60000000E+01  0.00000000E+00
  4.10000000E+02  3.40000000E+01  0.00000000E+00
  4.10000000E+02  3.20000000E+01  0.00000000E+00
  4.10000000E+02  3.00000000E+01  0.00000000E+00
  4.10000000E+02  2.80000000E+01  0.00000000E+00
  4.10000000E+02  2.60000000E+01  0.00000000E+00
  4.10000000E+02  2.40000000E+01  0.00000000E+00
  4.10000000E+02  2.20000000E+01  0.00000000E+00
  4.10000000E+02  2.00000000E+01  0.00000000E+00
  4.10000000E+02  1.80000000E+01  0.00000000E+00
  4.10000000E+02  1.60000000E+01  0.00000000E+00
  4.10000000E+02  1.40000000E+01  0.00000000E+00
  4.10000000E+02  1.20000000E+01  0.00000000E+00
  4.10000000E+02  1.00000000E+01  0.00000000E+00
  4.10000000E+02  8.00000000E+00  0.00000000E+00
  4.10000000E+02  6.00000000E+00  0.00000000E+00
  4.10000000E+02  4.00000000E+00  0.00000000E+00
  4.10000000E+02  2.00000000E+00  0.00000000E+00
  4.10000000E+02 -3.33066907E-14  0.00000000E+00
  4.20000000E+02  1.00000000E+02  0.00000000E+00
  4.20000000E+02  9.80000000E+01  0.00000000E+00
  4.20000000E+02  9.60000000E+01  0.00000000E+00
  4.20000000E+02  9.40000000E+01  0.00000000E+00
  4.20000000E+02  9.20000000E+01  0.00000000E+00
  4.20000000E+02  9.00000000E+01  0.00000000E+00
  4.20000000E+02  8.80000000E+01  0.00000000E+00
  4.20000000E+02  8.60000000E+01  0.00000000E+00
  4.20000000E+02  8.40000000E+01  0.00000000E+00
  4.20000000E+02  8.20000000E+01  0.00000000E+00
  4.20000000E+02  8.00000000E+01  0.00000000E+00
  4.20000000E+02  7.80000000E+01  0.00000000E+00
  4.20000000E+02  7.60000000E+01  0.00000000E+00
  4.20000000E+02  7.40000000E+01  0.00000000E+00
  4.20000000E+02  7.20000000E+01  0.00000000E+00
  4.20000000E+02  7.00000000E+01  0.00000000E+00
  4.20000000E+02  6.80000000E+01  0.00000000E+00
  4.20000000E+02  6.60000000E+01  0.00000000E+00
  4.20000000E+02  6.40000000E+01  0.00000000E+00
  4.20000000E+02  6.20000000E+01  0.00000000E+00
  4.20000000E+02  6.00000000E+01  0.00000000E+00
  4.20000000E+02  5.80000000E+01  0.00000000E+00
  4.20000000E+02  5.60000000E+01  0.00000000E+00
  4.20000000E+02  5.40000000E+01  0.00000000E+00
  4.20000000E+02  5.20000000E+01  0.00000000E+00
  4.20000000E+02  5.00000000E+01  0.00000000E+00
  4.20000000E+02  4.80000000E+01  0.00000000E+00
  4.20000000E+02  4.60000000E+01  0.00000000E+00
  4.20000000E+02  4.40000000E+01  0.00000000E+00
  4.20000000E+02  4.20000000E+01  0.00000000E+00
  4.20000000E+02  4.00000000E+01  0.00000000E+00
  4.20000000E+02  3.80000000E+01  0.00000000E+00
  4.20000000E+02  3.60000000E+01  0.00000000E+00
  4.20000000E+02  3.40000000E+01  0.00000000E+00
  4.20000000E+02  3.20000000E+01  0.00000000E+00
  4.20000000E+02  3.00000000E+01  0.00000000E+00
  4.20000000E+02  2.80000000E+01  0.00000000E+00
  4.20000000E+02  2.60000000E+01  0.00000000E+00
  4.20000000E+02  2.40000000E+01  0.00000000E+00
  4.20000000E+02  2.20000000E+01  0.00000000E+00
  4.20000000E+02  2.00000000E+01  0.00000000E+00
  4.20000000E+02  1.80000000E+01  0.00000000E+00
  4.20000000E+02  1.60000000E+01  0.00000000E+00
  4.20000000E+02  1.40000000E+01  0.00000000E+00
  4.20000000E+02  1.20000000E+01  0.00000000E+00
  4.20000000E+02  1.00000000E+01  0.00000000E+00
  4.20000000E+02  8.00000000E+00  0.00000000E+00
  4.20000000E+02  6.00000000E+00  0.00000000E+00
  4.20000000E+02  4.00000000E+00  0.00000000E+00
  4.20000000E+02  2.00000000E+00  0.00000000E+00
  4.20000000E+02 -3.33066907E-14  0.00000000E+00
  4.30000000E+02  1.00000000E+02  0.00000000E+00
  4.30000000E+02  9.80000000E+01  0.00000000E+00
  4.30000000E+02  9.60000000E+01  0.00000000E+00
  4.30000000E+02  9.40000000E+01  0.00000000E+00
  4.30000000E+02  9.20000000E+01  0.00000000E+00
  4.30000000E+02  9.00000000E+01  0.00000000E+00
  4.30000000E+02  8.80000000E+01  0.00000000E+00
  4.30000000E+02  8.60000000E+01  0.00000000E+00
  4.30000000E+02  8.40000000E+01  0.00000000E+00
  4.30000000E+02  8.20000000E+01  0.00000000E+00
  4.30000000E+02  8.00000000E+01  0.00000000E+00
  4.30000000E+02  7.80000000E+01  0.00000000E+00
  4.30000000E+02  7.60000000E+01  0.00000000E+00
  4.30000000E+02  7.40000000E+01  0.00000000E+00
  4.30000000E+02  7.20000000E+01  0.00000000E+00
  4.30000000E+02  7.00000000E+01  0.00000000E+00
  4.30000000E+02  6.80000000E+01  0.00000000E+00
  4.30000000E+02  6.60000000E+01  0.00000000E+00
  4.30000000E+02  6.40000000E+01  0.00000000E+00
  4.30000000E+02  6.20000000E+01  0.00000000E+00
  4.30000000E+02  6.00000000E+01  0.00000000E+00
  4.30000000E+02  5.80000000E+01  0.00000000E+00
  4.30000000E+02  5.60000000E+01  0.00000000E+00
  4.30000000E+02  5.40000000E+01  0.00000000E+00
  4.30000000E+02  5.20000000E+01  0.00000000E+00
  4.30000000E+02  5.00000000E+01  0.00000000E+00
  4.30000000E+02  4.80000000E+01  0.00000000E+00
  4.30000000E+02  4.60000000E+01  0.00000000E+00
  4.30000000E+02  4.40000000E+01  0.00000000E+00
  4.30000000E+02  4.20000000E+01  0.00000000E+00
  4.30000000E+02  4.00000000E+01  0.00000000E+00
  4.30000000E+02  3.80000000E+01  0.00000000E+00
  4.30000000E+02  3.60000000E+01  0.00000000E+00
  4.30000000E+02  3.40000000E+01  0.00000000E+00
  4.30000000E+02  3.20000000E+01  0.00000000E+00
  4.30000000E+02  3.00000000E+01  0.00000000E+00
  4.30000000E+02  2.80000000E+01  0.00000000E+00
  4.30000000E+02  2.60000000E+01  0.00000000E+00
  4.30000000E+02  2.40000000E+01  0.00000000E+00
  4.30000000E+02  2.20000000E+01  0.00000000E+00
  4.30000000E+02  2.00000000E+01  0.00000000E+00
  4.30000000E+02  1.80000000E+01  0.00000000E+00
  4.30000000E+02  1.60000000E+01  0.00000000E+00
  4.30000000E+02  1.40000000E+01  0.00000000E+00
  4.30000000E+02  1.20000000E+01  0.00000000E+00
  4.30000000E+02  1.00000000E+01  0.00000000E+00
  4.30000000E+02  8.00000000E+00  0.00000000E+00
  4.30000000E+02  6.00000000E+00  0.00000000E+00
  4.30000000E+02  4.00000000E+00  0.00000000E+00
  4.30000000E+02  2.00000000E+00  0.00000000E+00
  4.30000000E+02 -3.33066907E-14  0.00000000E+00
  4.40000000E+02  1.00000000E+02  0.00000000E+00
  4.40000000E+02  9.80000000E+01  0.00000000E+00
  4.40000000E+02  9.60000000E+01  0.00000000E+00
  4.40000000E+02  9.40000000E+01  0.00000000E+00
  4.40000000E+02  9.20000000E+01  0.00000000E+00
  4.40000000E+02  9.00000000E+01  0.00000000E+00
  4.40000000E+02  8.80000000E+01  0.00000000E+00
  4.40000000E+02  8.60000000E+01  0.00000000E+00
  4.40000000E+02  8.40000000E+01  0.00000000E+00
  4.40000000E+02  8.20000000E+01  0.00000000E+00
  4.40000000E+02  8.00000000E+01  0.00000000E+00
  4.40000000E+02  7.80000000E+01  0.00000000E+00
  4.40000000E+02  7.60000000E+01  0.00000000E+00
  4.40000000E+02  7.40000000E+01  0.00000000E+00
  4.40000000E+02  7.20000000E+01  0.00000000E+00
  4.40000000E+02  7.00000000E+01  0.00000000E+00
  4.40000000E+02  6.80000000E+01  0.00000000E+00
  4.40000000E+02  6.60000000E+01  0.00000000E+00
  4.40000000E+02  6.40000000E+01  0.00000000E+00
  4.40000000E+02  6.20000000E+01  0.00000000E+00
  4.40000000E+02  6.00000000E+01  0.00000000E+00
  4.40000000E+02  5.80000000E+01  0.00000000E+00
  4.40000000E+02  5.60000000E+01  0.00000000E+00
  4.40000000E+02  5.40000000E+01  0.00000000E+00
  4.40000000E+02  5.20000000E+01  0.00000000E+00
  4.40000000E+02  5.00000000E+01  0.00000000E+00
  4.40000000E+02  4.80000000E+01  0.00000000E+00
  4.40000000E+02  4.60000000E+01  0.00000000E+00
  4.40000000E+02  4.40000000E+01  0.00000000E+00
  4.40000000E+02  4.20000000E+01  0.00000000E+00
  4.40000000E+02  4.00000000E+01  0.00000000E+00
  4.40000000E+02  3.80000000E+01  0.00000000E+00
  4.40000000E+02  3.60000000E+01  0.00000000E+00
  4.40000000E+02  3.40000000E+01  0.00000000E+00
  4.40000000E+02  3.20000000E+01  0.00000000E+00
  4.40000000E+02  3.00000000E+01  0.00000000E+00
  4.40000000E+02  2.80000000E+01  0.00000000E+00
  4.40000000E+02  2.60000000E+01  0.00000000E+00
  4.40000000E+02  2.40000000E+01  0.00000000E+00
  4.40000000E+02  2.20000000E+01  0.00000000E+00
  4.40000000E+02  2.00000000E+01  0.00000000E+00
  4.40000000E+02  1.80000000E+01  0.00000000E+00
  4.40000000E+02  1.60000000E+01  0.00000000E+00
  4.40000000E+02  1.40000000E+01  0.00000000E+00
  4.40000000E+02  1.20000000E+01  0.00000000E+00
  4.40000000E+02  1.00000000E+01  0.00000000E+00
  4.40000000E+02  8.00000000E+00  0.00000000E+00
  4.40000000E+02  6.00000000E+00  0.00000000E+00
  4.40000000E+02  4.00000000E+00  0.00000000E+00
  4.40000000E+02  2.00000000E+00  0.00000000E+00
  4.40000000E+02 -3.33066907E-14  0.00000000E+00
  4.50000000E+02  1.00000000E+02  0.00000000E+00
  4.50000000E+02  9.80000000E+01  0.00000000E+00
  4.50000000E+02  9.60000000E+01  0.00000000E+00
  4.50000000E+02  9.40000000E+01  0.00000000E+00
  4.50000000E+02  9.20000000E+01  0.00000000E+00
  4.50000000E+02  9.00000000E+01  0.00000000E+00
  4.50000000E+02  8.80000000E+01  0.00000000E+00
  4.50000000E+02  8.60000000E+01  0.00000000E+00
  4.50000000E+02  8.40000000E+01  0.00000000E+00
  4.50000000E+02  8.20000000E+01  0.00000000E+00
  4.50000000E+02  8.00000000E+01  0.00000000E+00
  4.50000000E+02  7.80000000E+01  0.00000000E+00
  4.50000000E+02  7.60000000E+01  0.00000000E+00
  4.50000000E+02  7.40000000E+01  0.00000000E+00
  4.50000000E+02  7.20000000E+01  0.00000000E+00
  4.50000000E+02  7.00000000E+01  0.00000000E+00
  4.50000000E+02  6.80000000E+01  0.00000000E+00
  4.50000000E+02  6.60000000E+01  0.00000000E+00
  4.50000000E+02  6.40000000E+01  0.00000000E+00
  4.50000000E+02  6.20000000E+01  0.00000000E+00
  4.50000000E+02  6.00000000E+01  0.00000000E+00
  4.50000000E+02  5.80000000E+01  0.00000000E+00
  4.50000000E+02  5.60000000E+01  0.00000000E+00
  4.50000000E+02  5.40000000E+01  0.00000000E+00
  4.50000000E+02  5.20000000E+01  0.00000000E+00
  4.50000000E+02  5.00000000E+01  0.00000000E+00
  4.50000000E+02  4.80000000E+01  0.00000000E+00
  4.50000000E+02  4.60000000E+01  0.00000000E+00
  4.50000000E+02  4.40000000E+01  0.00000000E+00
  4.50000000E+02  4.20000000E+01  0.00000000E+00
  4.50000000E+02  4.00000000E+01  0.00000000E+00
  4.50000000E+02  3.80000000E+01  0.00000000E+00
  4.50000000E+02  3.60000000E+01  0.00000000E+00
  4.50000000E+02  3.40000000E+01  0.00000000E+00
  4.50000000E+02  3.20000000E+01  0.00000000E+00
  4.50000000E+02  3.00000000E+01  0.00000000E+00
  4.50000000E+02  2.80000000E+01  0.00000000E+00
  4.50000000E+02  2.60000000E+01  0.00000000E+00
  4.50000000E+02  2.40000000E+01  0.00000000E+00
  4.50000000E+02  2.20000000E+01  0.00000000E+00
  4.50000000E+02  2.00000000E+01  0.00000000E+00
  4.50000000E+02  1.80000000E+01  0.00000000E+00
  4.50000000E+02  1.60000000E+01  0.00000000E+00
  4.50000000E+02  1.40000000E+01  0.00000000E+00
  4.50000000E+02  1.20000000E+01  0.00000000E+00
  4.50000000E+02  1.00000000E+01  0.00000000E+00
  4.50000000E+02  8.00000000E+00  0.00000000E+00
  4.50000000E+02  6.00000000E+00  0.00000000E+00
  4.50000000E+02  4.00000000E+00  0.00000000E+00
  4.50000000E+02  2.00000000E+00  0.00000000E+00
  4.50000000E+02 -3.33066907E-14  0.00000000E+00
  4.60000000E+02  1.00000000E+02  0.00000000E+00
  4.60000000E+02  9.80000000E+01  0.00000000E+00
  4.60000000E+02  9.60000000E+01  0.00000000E+00
  4.60000000E+02  9.40000000E+01  0.00000000E+00
  4.60000000E+02  9.20000000E+01  0.00000000E+00
  4.60000000E+02  9.00000000E+01  0.00000000E+00
  4.60000000E+02  8.80000000E+01  0.00000000E+00
  4.60000000E+02  8.60000000E+01  0.00000000E+00
  4.60000000E+02  8.40000000E+01  0.00000000E+00
  4.60000000E+02  8.20000000E+01  0.00000000E+00
  4.60000000E+02  8.00000000E+01  0.00000000E+00
  4.60000000E+02  7.80000000E+01  0.00000000E+00
  4.60000000E+02  7.60000000E+01  0.00000000E+00
  4.60000000E+02  7.40000000E+01  0.00000000E+00
  4.60000000E+02  7.20000000E+01  0.00000000E+00
  4.60000000E+02  7.00000000E+01  0.00000000E+00
  4.60000000E+02  6.80000000E+01  0.00000000E+00
  4.60000000E+02  6.60000000E+01  0.00000000E+00
  4.60000000E+02  6.40000000E+01  0.00000000E+00
  4.60000000E+02  6.20000000E+01  0.00000000E+00
  4.60000000E+02  6.00000000E+01  0.00000000E+00
  4.60000000E+02  5.80000000E+01  0.00000000E+00
  4.60000000E+02  5.60000000E+01  0.00000000E+00
  4.60000000E+02  5.40000000E+01  0.00000000E+00
  4.60000000E+02  5.20000000E+01  0.00000000E+00
  4.60000000E+02  5.00000000E+01  0.00000000E+00
  4.60000000E+02  4.80000000E+01  0.00000000E+00
  4.60000000E+02  4.60000000E+01  0.00000000E+00
  4.60000000E+02  4.40000000E+01  0.00000000E+00
  4.60000000E+02  4.20000000E+01  0.00000000E+00
  4.60000000E+02  4.00000000E+01  0.00000000E+00
  4.60000000E+02  3.80000000E+01  0.00000000E+00
  4.60000000E+02  3.60000000E+01  0.00000000E+00
  4.60000000E+02  3.40000000E+01  0.00000000E+00
  4.60000000E+02  3.20000000E+01  0.00000000E+00
  4.60000000E+02  3.00000000E+01  0.00000000E+00
  4.60000000E+02  2.80000000E+01  0.00000000E+00
  4.60000000E+02  2.60000000E+01  0.00000000E+00
  4.60000000E+02  2.40000000E+01  0.00000000E+00
  4.60000000E+02  2.20000000E+01  0.00000000E+00
  4.60000000E+02  2.00000000E+01  0.00000000E+00
  4.60000000E+02  1.80000000E+01  0.00000000E+00
  4.60000000E+02  1.60000000E+01  0.00000000E+00
  4.60000000E+02  1.40000000E+01  0.00000000E+00
  4.60000000E+02  1.20000000E+01  0.00000000E+00
  4.60000000E+02  1.00000000E+01  0.00000000E+00
  4.60000000E+02  8.00000000E+00  0.00000000E+00
  4.60000000E+02  6.00000000E+00  0.00000000E+00
  4.60000000E+02  4.00000000E+00  0.00000000E+00
  4.60000000E+02  2.00000000E+00  0.00000000E+00
  4.60000000E+02 -3.33066907E-14  0.00000000E+00
  4.70000000E+02  1.00000000E+02  0.00000000E+00
  4.70000000E+02  9.80000000E+01  0.00000000E+00
  4.70000000E+02  9.60000000E+01  0.00000000E+00
  4.70000000E+02  9.40000000E+01  0.00000000E+00
  4.70000000E+02  9.20000000E+01  0.00000000E+00
  4.70000000E+02  9.00000000E+01  0.00000000E+00
  4.70000000E+02  8.80000000E+01  0.00000000E+00
  4.70000000E+02  8.60000000E+01  0.00000000E+00
  4.70000000E+02  8.40000000E+01  0.00000000E+00
  4.70000000E+02  8.20000000E+01  0.00000000E+00
  4.70000000E+02  8.00000000E+01  0.00000000E+00
  4.70000000E+02  7.80000000E+01  0.00000000E+00
  4.70000000E+02  7.60000000E+01  0.00000000E+00
  4.70000000E+02  7.40000000E+01  0.00000000E+00
  4.70000000E+02  7.20000000E+01  0.00000000E+00
  4.70000000E+02  7.00000000E+01  0.00000000E+00
  4.70000000E+02  6.80000000E+01  0.00000000E+00
  4.70000000E+02  6.60000000E+01  0.00000000E+00
  4.70000000E+02  6.40000000E+01  0.00000000E+00
  4.70000000E+02  6.20000000E+01  0.00000000E+00
  4.70000000E+02  6.00000000E+01  0.00000000E+00
  4.70000000E+02  5.80000000E+01  0.00000000E+00
  4.70000000E+02  5.60000000E+01  0.00000000E+00
  4.70000000E+02  5.40000000E+01  0.00000000E+00
  4.70000000E+02  5.20000000E+01  0.00000000E+00
  4.70000000E+02  5.00000000E+01  0.00000000E+00
  4.70000000E+02  4.80000000E+01  0.00000000E+00
  4.70000000E+02  4.60000000E+01  0.00000000E+00
  4.70000000E+02  4.40000000E+01  0.00000000E+00
  4.70000000E+02  4.20000000E+01  0.00000000E+00
  4.70000000E+02  4.00000000E+01  0.00000000E+00
  4.70000000E+02  3.80000000E+01  0.00000000E+00
  4.70000000E+02  3.60000000E+01  0.00000000E+00
  4.70000000E+02  3.40000000E+01  0.00000000E+00
  4.70000000E+02  3.20000000E+01  0.00000000E+00
  4.70000000E+02  3.00000000E+01  0.00000000E+00
  4.70000000E+02  2.80000000E+01  0.00000000E+00
  4.70000000E+02  2.60000000E+01  0.00000000E+00
  4.70000000E+02  2.40000000E+01  0.00000000E+00
  4.70000000E+02  2.20000000E+01  0.00000000E+00
  4.70000000E+02  2.00000000E+01  0.00000000E+00
  4.70000000E+02  1.80000000E+01  0.00000000E+00
  4.70000000E+02  1.60000000E+01  0.00000000E+00
  4.70000000E+02  1.40000000E+01  0.00000000E+00
  4.70000000E+02  1.20000000E+01  0.00000000E+00
  4.70000000E+02  1.00000000E+01  0.00000000E+00
  4.70000000E+02  8.00000000E+00  0.00000000E+00
  4.70000000E+02  6.00000000E+00  0.00000000E+00
  4.70000000E+02  4.00000000E+00  0.00000000E+00
  4.70000000E+02  2.00000000E+00  0.00000000E+00
  4.70000000E+02 -3.33066907E-14  0.00000000E+00
  4.80000000E+02  1.00000000E+02  0.00000000E+00
  4.80000000E+02  9.80000000E+01  0.00000000E+00
  4.80000000E+02  9.60000000E+01  0.00000000E+00
  4.80000000E+02  9.40000000E+01  0.00000000E+00
  4.80000000E+02  9.20000000E+01  0.00000000E+00
  4.80000000E+02  9.00000000E+01  0.00000000E+00
  4.80000000E+02  8.80000000E+01  0.00000000E+00
  4.80000000E+02  8.60000000E+01  0.00000000E+00
  4.80000000E+02  8.40000000E+01  0.00000000E+00
  4.80000000E+02  8.20000000E+01  0.00000000E+00
  4.80000000E+02  8.00000000E+01  0.00000000E+00
  4.80000000E+02  7.80000000E+01  0.00000000E+00
  4.80000000E+02  7.60000000E+01  0.00000000E+00
  4.80000000E+02  7.40000000E+01  0.00000000E+00
  4.80000000E+02  7.20000000E+01  0.00000000E+00
  4.80000000E+02  7.00000000E+01  0.00000000E+00
  4.80000000E+02  6.80000000E+01  0.00000000E+00
  4.80000000E+02  6.60000000E+01  0.00000000E+00
  4.80000000E+02  6.40000000E+01  0.00000000E+00
  4.80000000E+02  6.20000000E+01  0.00000000E+00
  4.80000000E+02  6.00000000E+01  0.00000000E+00
  4.80000000E+02  5.80000000E+01  0.00000000E+00
  4.80000000E+02  5.60000000E+01  0.00000000E+00
  4.80000000E+02  5.40000000E+01  0.00000000E+00
  4.80000000E+02  5.20000000E+01  0.00000000E+00
  4.80000000E+02  5.00000000E+01  0.00000000E+00
  4.80000000E+02  4.80000000E+01  0.00000000E+00
  4.80000000E+02  4.60000000E+01  0.00000000E+00
  4.80000000E+02  4.40000000E+01  0.00000000E+00
  4.80000000E+02  4.20000000E+01  0.00000000E+00
  4.80000000E+02  4.00000000E+01  0.00000000E+00
  4.80000000E+02  3.80000000E+01  0.00000000E+00
  4.80000000E+02  3.60000000E+01  0.00000000E+00
  4.80000000E+02  3.40000000E+01  0.00000000E+00
  4.80000000E+02  3.20000000E+01  0.00000000E+00
  4.80000000E+02  3.00000000E+01  0.00000000E+00
  4.80000000E+02  2.80000000E+01  0.00000000E+00
  4.80000000E+02  2.60000000E+01  0.00000000E+00
  4.80000000E+02  2.40000000E+01  0.00000000E+00
  4.80000000E+02  2.20000000E+01  0.00000000E+00
  4.80000000E+02  2.00000000E+01  0.00000000E+00
  4.80000000E+02  1.80000000E+01  0.00000000E+00
  4.80000000E+02  1.60000000E+01  0.00000000E+00
  4.80000000E+02  1.40000000E+01  0.00000000E+00
  4.80000000E+02  1.20000000E+01  0.00000000E+00
  4.80000000E+02  1.00000000E+01  0.00000000E+00
  4.80000000E+02  8.00000000E+00  0.00000000E+00
  4.80000000E+02  6.00000000E+00  0.00000000E+00
  4.80000000E+02  4.00000000E+00  0.00000000E+00
  4.80000000E+02  2.00000000E+00  0.00000000E+00
  4.80000000E+02 -3.33066907E-14  0.00000000E+00
  4.90000000E+02  1.00000000E+02  0.00000000E+00
  4.90000000E+02  9.80000000E+01  0.00000000E+00
  4.90000000E+02  9.60000000E+01  0.00000000E+00
  4.90000000E+02  9.40000000E+01  0.00000000E+00
  4.90000000E+02  9.20000000E+01  0.00000000E+00
  4.90000000E+02  9.00000000E+01  0.00000000E+00
  4.90000000E+02  8.80000000E+01  0.00000000E+00
  4.90000000E+02  8.60000000E+01  0.00000000E+00
  4.90000000E+02  8.40000000E+01  0.00000000E+00
  4.90000000E+02  8.20000000E+01  0.00000000E+00
  4.90000000E+02  8.00000000E+01  0.00000000E+00
  4.90000000E+02  7.80000000E+01  0.00000000E+00
  4.90000000E+02  7.60000000E+01  0.00000000E+00
  4.90000000E+02  7.40000000E+01  0.00000000E+00
  4.90000000E+02  7.20000000E+01  0.00000000E+00
  4.90000000E+02  7.00000000E+01  0.00000000E+00
  4.90000000E+02  6.80000000E+01  0.00000000E+00
  4.90000000E+02  6.60000000E+01  0.00000000E+00
  4.90000000E+02  6.40000000E+01  0.00000000E+00
  4.90000000E+02  6.20000000E+01  0.00000000E+00
  4.90000000E+02  6.00000000E+01  0.00000000E+00
  4.90000000E+02  5.80000000E+01  0.00000000E+00
  4.90000000E+02  5.60000000E+01  0.00000000E+00
  4.90000000E+02  5.40000000E+01  0.00000000E+00
  4.90000000E+02  5.20000000E+01  0.00000000E+00
  4.90000000E+02  5.00000000E+01  0.00000000E+00
  4.90000000E+02  4.80000000E+01  0.00000000E+00
  4.90000000E+02  4.60000000E+01  0.00000000E+00
  4.90000000E+02  4.40000000E+01  0.00000000E+00
  4.90000000E+02  4.20000000E+01  0.00000000E+00
  4.90000000E+02  4.00000000E+01  0.00000000E+00
  4.90000000E+02  3.80000000E+01  0.00000000E+00
  4.90000000E+02  3.60000000E+01  0.00000000E+00
  4.90000000E+02  3.40000000E+01  0.00000000E+00
  4.90000000E+02  3.20000000E+01  0.00000000E+00
  4.90000000E+02  3.00000000E+01  0.00000000E+00
  4.90000000E+02  2.80000000E+01  0.00000000E+00
  4.90000000E+02  2.60000000E+01  0.00000000E+00
  4.90000000E+02  2.40000000E+01  0.00000000E+00
  4.90000000E+02  2.20000000E+01  0.00000000E+00
  4.90000000E+02  2.00000000E+01  0.00000000E+00
  4.90000000E+02  1.80000000E+01  0.00000000E+00
  4.90000000E+02  1.60000000E+01  0.00000000E+00
  4.90000000E+02  1.40000000E+01  0.00000000E+00
  4.90000000E+02  1.20000000E+01  0.00000000E+00
  4.90000000E+02  1.00000000E+01  0.00000000E+00
  4.90000000E+02  8.00000000E+00  0.00000000E+00
  4.90000000E+02  6.00000000E+00  0.00000000E+00
  4.90000000E+02  4.00000000E+00  0.00000000E+00
  4.90000000E+02  2.00000000E+00  0.00000000E+00
  4.90000000E+02 -3.33066907E-14  0.00000000E+00
  5.00000000E+02  1.00000000E+02  0.00000000E+00
  5.00000000E+02  9.80000000E+01  0.00000000E+00
  5.00000000E+02  9.60000000E+01  0.00000000E+00
  5.00000000E+02  9.40000000E+01  0.00000000E+00
  5.00000000E+02  9.20000000E+01  0.00000000E+00
  5.00000000E+02  9.00000000E+01  0.00000000E+00
  5.00000000E+02  8.80000000E+01  0.00000000E+00
  5.00000000E+02  8.60000000E+01  0.00000000E+00
  5.00000000E+02  8.40000000E+01  0.00000000E+00
  5.00000000E+02  8.20000000E+01  0.00000000E+00
  5.00000000E+02  8.00000000E+01  0.00000000E+00
  5.00000000E+02  7.80000000E+01  0.00000000E+00
  5.00000000E+02  7.60000000E+01  0.00000000E+00
  5.00000000E+02  7.40000000E+01  0.00000000E+00
  5.00000000E+02  7.20000000E+01  0.00000000E+00
  5.00000000E+02  7.00000000E+01  0.00000000E+00
  5.00000000E+02  6.80000000E+01  0.00000000E+00
  5.00000000E+02  6.60000000E+01  0.00000000E+00
  5.00000000E+02  6.40000000E+01  0.00000000E+00
  5.00000000E+02  6.20000000E+01  0.00000000E+00
  5.00000000E+02  6.00000000E+01  0.00000000E+00
  5.00000000E+02  5.80000000E+01  0.00000000E+00
  5.00000000E+02  5.60000000E+01  0.00000000E+00
  5.00000000E+02  5.40000000E+01  0.00000000E+00
  5.00000000E+02  5.20000000E+01  0.00000000E+00
  5.00000000E+02  5.00000000E+01  0.00000000E+00
  5.00000000E+02  4.80000000E+01  0.00000000E+00
  5.00000000E+02  4.60000000E+01  0.00000000E+00
  5.00000000E+02  4.40000000E+01  0.00000000E+00
  5.00000000E+02  4.20000000E+01  0.00000000E+00
  5.00000000E+02  4.00000000E+01  0.00000000E+00
  5.00000000E+02  3.80000000E+01  0.00000000E+00
  5.00000000E+02  3.60000000E+01  0.00000000E+00
  5.00000000E+02  3.40000000E+01  0.00000000E+00
  5.00000000E+02  3.20000000E+01  0.00000000E+00
  5.00000000E+02  3.00000000E+01  0.00000000E+00
  5.00000000E+02  2.80000000E+01  0.00000000E+00
  5.00000000E+02  2.60000000E+01  0.00000000E+00
  5.00000000E+02  2.40000000E+01  0.00000000E+00
  5.00000000E+02  2.20000000E+01  0.00000000E+00
  5.00000000E+02  2.00000000E+01  0.00000000E+00
  5.00000000E+02  1.80000000E+01  0.00000000E+00
  5.00000000E+02  1.60000000E+01  0.00000000E+00
  5.00000000E+02  1.40000000E+01  0.00000000E+00
  5.00000000E+02  1.20000000E+01  0.00000000E+00
  5.00000000E+02  1.00000000E+01  0.00000000E+00
  5.00000000E+02  8.00000000E+00  0.00000000E+00
  5.00000000E+02  6.00000000E+00  0.00000000E+00
  5.00000000E+02  4.00000000E+00  0.00000000E+00
  5.00000000E+02  2.00000000E+00  0.00000000E+00
  5.00000000E+02 -3.33066907E-14  0.00000000E+00
  5.10000000E+02  1.00000000E+02  0.00000000E+00
  5.10000000E+02  9.80000000E+01  0.00000000E+00
  5.10000000E+02  9.60000000E+01  0.00000000E+00
  5.10000000E+02  9.40000000E+01  0.00000000E+00
  5.10000000E+02  9.20000000E+01  0.00000000E+00
  5.10000000E+02  9.00000000E+01  0.00000000E+00
  5.10000000E+02  8.80000000E+01  0.00000000E+00
  5.10000000E+02  8.60000000E+01  0.00000000E+00
  5.10000000E+02  8.40000000E+01  0.00000000E+00
  5.10000000E+02  8.20000000E+01  0.00000000E+00
  5.10000000E+02  8.00000000E+01  0.00000000E+00
  5.10000000E+02  7.80000000E+01  0.00000000E+00
  5.10000000E+02  7.60000000E+01  0.00000000E+00
  5.10000000E+02  7.40000000E+01  0.00000000E+00
  5.10000000E+02  7.20000000E+01  0.00000000E+00
  5.10000000E+02  7.00000000E+01  0.00000000E+00
  5.10000000E+02  6.80000000E+01  0.00000000E+00
  5.10000000E+02  6.60000000E+01  0.00000000E+00
  5.10000000E+02  6.40000000E+01  0.00000000E+00
  5.10000000E+02  6.20000000E+01  0.00000000E+00
  5.10000000E+02  6.00000000E+01  0.00000000E+00
  5.10000000E+02  5.80000000E+01  0.00000000E+00
  5.10000000E+02  5.60000000E+01  0.00000000E+00
  5.10000000E+02  5.40000000E+01  0.00000000E+00
  5.10000000E+02  5.20000000E+01  0.00000000E+00
  5.10000000E+02  5.00000000E+01  0.00000000E+00
  5.10000000E+02  4.80000000E+01  0.00000000E+00
  5.10000000E+02  4.60000000E+01  0.00000000E+00
  5.10000000E+02  4.40000000E+01  0.00000000E+00
  5.10000000E+02  4.20000000E+01  0.00000000E+00
  5.10000000E+02  4.00000000E+01  0.00000000E+00
  5.10000000E+02  3.80000000E+01  0.00000000E+00
  5.10000000E+02  3.60000000E+01  0.00000000E+00
  5.10000000E+02  3.40000000E+01  0.00000000E+00
  5.10000000E+02  3.20000000E+01  0.00000000E+00
  5.10000000E+02  3.00000000E+01  0.00000000E+00
  5.10000000E+02  2.80000000E+01  0.00000000E+00
  5.10000000E+02  2.60000000E+01  0.00000000E+00
  5.10000000E+02  2.40000000E+01  0.00000000E+00
  5.10000000E+02  2.20000000E+01  0.00000000E+00
  5.10000000E+02  2.00000000E+01  0.00000000E+00
  5.10000000E+02  1.80000000E+01  0.00000000E+00
  5.10000000E+02  1.60000000E+01  0.00000000E+00
  5.10000000E+02  1.40000000E+01  0.00000000E+00
  5.10000000E+02  1.20000000E+01  0.00000000E+00
  5.10000000E+02  1.00000000E+01  0.00000000E+00
  5.10000000E+02  8.00000000E+00  0.00000000E+00
  5.10000000E+02  6.00000000E+00  0.00000000E+00
  5.10000000E+02  4.00000000E+00  0.00000000E+00
  5.10000000E+02  2.00000000E+00  0.00000000E+00
  5.10000000E+02 -3.33066907E-14  0.00000000E+00
  5.20000000E+02  1.00000000E+02  0.00000000E+00
  5.20000000E+02  9.80000000E+01  0.00000000E+00
  5.20000000E+02  9.60000000E+01  0.00000000E+00
  5.20000000E+02  9.40000000E+01  0.00000000E+00
  5.20000000E+02  9.20000000E+01  0.00000000E+00
  5.20000000E+02  9.00000000E+01  0.00000000E+00
  5.20000000E+02  8.80000000E+01  0.00000000E+00
  5.20000000E+02  8.60000000E+01  0.00000000E+00
  5.20000000E+02  8.40000000E+01  0.00000000E+00
  5.20000000E+02  8.20000000E+01  0.00000000E+00
  5.20000000E+02  8.00000000E+01  0.00000000E+00
  5.20000000E+02  7.80000000E+01  0.00000000E+00
  5.20000000E+02  7.60000000E+01  0.00000000E+00
  5.20000000E+02  7.40000000E+01  0.00000000E+00
  5.20000000E+02  7.20000000E+01  0.00000000E+00
  5.20000000E+02  7.00000000E+01  0.00000000E+00
  5.20000000E+02  6.80000000E+01  0.00000000E+00
  5.20000000E+02  6.60000000E+01  0.00000000E+00
  5.20000000E+02  6.40000000E+01  0.00000000E+00
  5.20000000E+02  6.20000000E+01  0.00000000E+00
  5.20000000E+02  6.00000000E+01  0.00000000E+00
  5.20000000E+02  5.80000000E+01  0.00000000E+00
  5.20000000E+02  5.60000000E+01  0.00000000E+00
  5.20000000E+02  5.40000000E+01  0.00000000E+00
  5.20000000E+02  5.20000000E+01  0.00000000E+00
  5.20000000E+02  5.00000000E+01  0.00000000E+00
  5.20000000E+02  4.80000000E+01  0.00000000E+00
  5.20000000E+02  4.60000000E+01  0.00000000E+00
  5.20000000E+02  4.40000000E+01  0.00000000E+00
  5.20000000E+02  4.20000000E+01  0.00000000E+00
  5.20000000E+02  4.00000000E+01  0.00000000E+00
  5.20000000E+02  3.80000000E+01  0.00000000E+00
  5.20000000E+02  3.60000000E+01  0.00000000E+00
  5.20000000E+02  3.40000000E+01  0.00000000E+00
  5.20000000E+02  3.20000000E+01  0.00000000E+00
  5.20000000E+02  3.00000000E+01  0.00000000E+00
  5.20000000E+02  2.80000000E+01  0.00000000E+00
  5.20000000E+02  2.60000000E+01  0.00000000E+00
  5.20000000E+02  2.40000000E+01  0.00000000E+00
  5.20000000E+02  2.20000000E+01  0.00000000E+00
  5.20000000E+02  2.00000000E+01  0.00000000E+00
  5.20000000E+02  1.80000000E+01  0.00000000E+00
  5.20000000E+02  1.60000000E+01  0.00000000E+00
  5.20000000E+02  1.40000000E+01  0.00000000E+00
  5.20000000E+02  1.20000000E+01  0.00000000E+00
  5.20000000E+02  1.00000000E+01  0.00000000E+00
  5.20000000E+02  8.00000000E+00  0.00000000E+00
  5.20000000E+02  6.00000000E+00  0.00000000E+00
  5.20000000E+02  4.00000000E+00  0.00000000E+00
  5.20000000E+02  2.00000000E+00  0.00000000E+00
  5.20000000E+02 -3.33066907E-14  0.00000000E+00
  5.30000000E+02  1.00000000E+02  0.00000000E+00
  5.30000000E+02  9.80000000E+01  0.00000000E+00
  5.30000000E+02  9.60000000E+01  0.00000000E+00
  5.30000000E+02  9.40000000E+01  0.00000000E+00
  5.30000000E+02  9.20000000E+01  0.00000000E+00
  5.30000000E+02  9.00000000E+01  0.00000000E+00
  5.30000000E+02  8.80000000E+01  0.00000000E+00
  5.30000000E+02  8.60000000E+01  0.00000000E+00
  5.30000000E+02  8.40000000E+01  0.00000000E+00
  5.30000000E+02  8.20000000E+01  0.00000000E+00
  5.30000000E+02  8.00000000E+01  0.00000000E+00
  5.30000000E+02  7.80000000E+01  0.00000000E+00
  5.30000000E+02  7.60000000E+01  0.00000000E+00
  5.30000000E+02  7.40000000E+01  0.00000000E+00
  5.30000000E+02  7.20000000E+01  0.00000000E+00
  5.30000000E+02  7.00000000E+01  0.00000000E+00
  5.30000000E+02  6.80000000E+01  0.00000000E+00
  5.30000000E+02  6.60000000E+01  0.00000000E+00
  5.30000000E+02  6.40000000E+01  0.00000000E+00
  5.30000000E+02  6.20000000E+01  0.00000000E+00
  5.30000000E+02  6.00000000E+01  0.00000000E+00
  5.30000000E+02  5.80000000E+01  0.00000000E+00
  5.30000000E+02  5.60000000E+01  0.00000000E+00
  5.30000000E+02  5.40000000E+01  0.00000000E+00
  5.30000000E+02  5.20000000E+01  0.00000000E+00
  5.30000000E+02  5.00000000E+01  0.00000000E+00
  5.30000000E+02  4.80000000E+01  0.00000000E+00
  5.30000000E+02  4.60000000E+01  0.00000000E+00
  5.30000000E+02  4.40000000E+01  0.00000000E+00
  5.30000000E+02  4.20000000E+01  0.00000000E+00
  5.30000000E+02  4.00000000E+01  0.00000000E+00
  5.30000000E+02  3.80000000E+01  0.00000000E+00
  5.30000000E+02  3.60000000E+01  0.00000000E+00
  5.30000000E+02  3.40000000E+01  0.00000000E+00
  5.30000000E+02  3.20000000E+01  0.00000000E+00
  5.30000000E+02  3.00000000E+01  0.00000000E+00
  5.30000000E+02  2.80000000E+01  0.00000000E+00
  5.30000000E+02  2.60000000E+01  0.00000000E+00
  5.30000000E+02  2.40000000E+01  0.00000000E+00
  5.30000000E+02  2.20000000E+01  0.00000000E+00
  5.30000000E+02  2.00000000E+01  0.00000000E+00
  5.30000000E+02  1.80000000E+01  0.00000000E+00
  5.30000000E+02  1.60000000E+01  0.00000000E+00
  5.30000000E+02  1.40000000E+01  0.00000000E+00
  5.30000000E+02  1.20000000E+01  0.00000000E+00
  5.30000000E+02  1.00000000E+01  0.00000000E+00
  5.30000000E+02  8.00000000E+00  0.00000000E+00
  5.30000000E+02  6.00000000E+00  0.00000000E+00
  5.30000000E+02  4.00000000E+00  0.00000000E+00
  5.30000000E+02  2.00000000E+00  0.00000000E+00
  5.30000000E+02 -3.33066907E-14  0.00000000E+00
  5.40000000E+02  1.00000000E+02  0.00000000E+00
  5.40000000E+02  9.80000000E+01  0.00000000E+00
  5.40000000E+02  9.60000000E+01  0.00000000E+00
  5.40000000E+02  9.40000000E+01  0.00000000E+00
  5.40000000E+02  9.20000000E+01  0.00000000E+00
  5.40000000E+02  9.00000000E+01  0.00000000E+00
  5.40000000E+02  8.80000000E+01  0.00000000E+00
  5.40000000E+02  8.60000000E+01  0.00000000E+00
  5.40000000E+02  8.40000000E+01  0.00000000E+00
  5.40000000E+02  8.20000000E+01  0.00000000E+00
  5.40000000E+02  8.00000000E+01  0.00000000E+00
  5.40000000E+02  7.80000000E+01  0.00000000E+00
  5.40000000E+02  7.60000000E+01  0.00000000E+00
  5.40000000E+02  7.40000000E+01  0.00000000E+00
  5.40000000E+02  7.20000000E+01  0.00000000E+00
  5.40000000E+02  7.00000000E+01  0.00000000E+00
  5.40000000E+02  6.80000000E+01  0.00000000E+00
  5.40000000E+02  6.60000000E+01  0.00000000E+00
  5.40000000E+02  6.40000000E+01  0.00000000E+00
  5.40000000E+02  6.20000000E+01  0.00000000E+00
  5.40000000E+02  6.00000000E+01  0.00000000E+00
  5.40000000E+02  5.80000000E+01  0.00000000E+00
  5.40000000E+02  5.60000000E+01  0.00000000E+00
  5.40000000E+02  5.40000000E+01  0.00000000E+00
  5.40000000E+02  5.20000000E+01  0.00000000E+00
  5.40000000E+02  5.00000000E+01  0.00000000E+00
  5.40000000E+02  4.80000000E+01  0.00000000E+00
  5.40000000E+02  4.60000000E+01  0.00000000E+00
  5.40000000E+02  4.40000000E+01  0.00000000E+00
  5.40000000E+02  4.20000000E+01  0.00000000E+00
  5.40000000E+02  4.00000000E+01  0.00000000E+00
  5.40000000E+02  3.80000000E+01  0.00000000E+00
  5.40000000E+02  3.60000000E+01  0.00000000E+00
  5.40000000E+02  3.40000000E+01  0.00000000E+00
  5.40000000E+02  3.20000000E+01  0.00000000E+00
  5.40000000E+02  3.00000000E+01  0.00000000E+00
  5.40000000E+02  2.80000000E+01  0.00000000E+00
  5.40000000E+02  2.60000000E+01  0.00000000E+00
  5.40000000E+02  2.40000000E+01  0.00000000E+00
  5.40000000E+02  2.20000000E+01  0.00000000E+00
  5.40000000E+02  2.00000000E+01  0.00000000E+00
  5.40000000E+02  1.80000000E+01  0.00000000E+00
  5.40000000E+02  1.60000000E+01  0.00000000E+00
  5.40000000E+02  1.40000000E+01  0.00000000E+00
  5.40000000E+02  1.20000000E+01  0.00000000E+00
  5.40000000E+02  1.00000000E+01  0.00000000E+00
  5.40000000E+02  8.00000000E+00  0.00000000E+00
  5.40000000E+02  6.00000000E+00  0.00000000E+00
  5.40000000E+02  4.00000000E+00  0.00000000E+00
  5.40000000E+02  2.00000000E+00  0.00000000E+00
  5.40000000E+02 -3.33066907E-14  0.00000000E+00
  5.50000000E+02  1.00000000E+02  0.00000000E+00
  5.50000000E+02  9.80000000E+01  0.00000000E+00
  5.50000000E+02  9.60000000E+01  0.00000000E+00
  5.50000000E+02  9.40000000E+01  0.00000000E+00
  5.50000000E+02  9.20000000E+01  0.00000000E+00
  5.50000000E+02  9.00000000E+01  0.00000000E+00
  5.50000000E+02  8.80000000E+01  0.00000000E+00
  5.50000000E+02  8.60000000E+01  0.00000000E+00
  5.50000000E+02  8.40000000E+01  0.00000000E+00
  5.50000000E+02  8.20000000E+01  0.00000000E+00
  5.50000000E+02  8.00000000E+01  0.00000000E+00
  5.50000000E+02  7.80000000E+01  0.00000000E+00
  5.50000000E+02  7.60000000E+01  0.00000000E+00
  5.50000000E+02  7.40000000E+01  0.00000000E+00
  5.50000000E+02  7.20000000E+01  0.00000000E+00
  5.50000000E+02  7.00000000E+01  0.00000000E+00
  5.50000000E+02  6.80000000E+01  0.00000000E+00
  5.50000000E+02  6.60000000E+01  0.00000000E+00
  5.50000000E+02  6.40000000E+01  0.00000000E+00
  5.50000000E+02  6.20000000E+01  0.00000000E+00
  5.50000000E+02  6.00000000E+01  0.00000000E+00
  5.50000000E+02  5.80000000E+01  0.00000000E+00
  5.50000000E+02  5.60000000E+01  0.00000000E+00
  5.50000000E+02  5.40000000E+01  0.00000000E+00
  5.50000000E+02  5.20000000E+01  0.00000000E+00
  5.50000000E+02  5.00000000E+01  0.00000000E+00
  5.50000000E+02  4.80000000E+01  0.00000000E+00
  5.50000000E+02  4.60000000E+01  0.00000000E+00
  5.50000000E+02  4.40000000E+01  0.00000000E+00
  5.50000000E+02  4.20000000E+01  0.00000000E+00
  5.50000000E+02  4.00000000E+01  0.00000000E+00
  5.50000000E+02  3.80000000E+01  0.00000000E+00
  5.50000000E+02  3.60000000E+01  0.00000000E+00
  5.50000000E+02  3.40000000E+01  0.00000000E+00
  5.50000000E+02  3.20000000E+01  0.00000000E+00
  5.50000000E+02  3.00000000E+01  0.00000000E+00
  5.50000000E+02  2.80000000E+01  0.00000000E+00
  5.50000000E+02  2.60000000E+01  0.00000000E+00
  5.50000000E+02  2.40000000E+01  0.00000000E+00
  5.50000000E+02  2.20000000E+01  0.00000000E+00
  5.50000000E+02  2.00000000E+01  0.00000000E+00
  5.50000000E+02  1.80000000E+01  0.00000000E+00
  5.50000000E+02  1.60000000E+01  0.00000000E+00
  5.50000000E+02  1.40000000E+01  0.00000000E+00
  5.50000000E+02  1.20000000E+01  0.00000000E+00
  5.50000000E+02  1.00000000E+01  0.00000000E+00
  5.50000000E+02  8.00000000E+00  0.00000000E+00
  5.50000000E+02  6.00000000E+00  0.00000000E+00
  5.50000000E+02  4.00000000E+00  0.00000000E+00
  5.50000000E+02  2.00000000E+00  0.00000000E+00
  5.50000000E+02 -3.33066907E-14  0.00000000E+00
  5.60000000E+02  1.00000000E+02  0.00000000E+00
  5.60000000E+02  9.80000000E+01  0.00000000E+00
  5.60000000E+02  9.60000000E+01  0.00000000E+00
  5.60000000E+02  9.40000000E+01  0.00000000E+00
  5.60000000E+02  9.20000000E+01  0.00000000E+00
  5.60000000E+02  9.00000000E+01  0.00000000E+00
  5.60000000E+02  8.80000000E+01  0.00000000E+00
  5.60000000E+02  8.60000000E+01  0.00000000E+00
  5.60000000E+02  8.40000000E+01  0.00000000E+00
  5.60000000E+02  8.20000000E+01  0.00000000E+00
  5.60000000E+02  8.00000000E+01  0.00000000E+00
  5.60000000E+02  7.80000000E+01  0.00000000E+00
  5.60000000E+02  7.60000000E+01  0.00000000E+00
  5.60000000E+02  7.40000000E+01  0.00000000E+00
  5.60000000E+02  7.20000000E+01  0.00000000E+00
  5.60000000E+02  7.00000000E+01  0.00000000E+00
  5.60000000E+02  6.80000000E+01  0.00000000E+00
  5.60000000E+02  6.60000000E+01  0.00000000E+00
  5.60000000E+02  6.40000000E+01  0.00000000E+00
  5.60000000E+02  6.20000000E+01  0.00000000E+00
  5.60000000E+02  6.00000000E+01  0.00000000E+00
  5.60000000E+02  5.80000000E+01  0.00000000E+00
  5.60000000E+02  5.60000000E+01  0.00000000E+00
  5.60000000E+02  5.40000000E+01  0.00000000E+00
  5.60000000E+02  5.20000000E+01  0.00000000E+00
  5.60000000E+02  5.00000000E+01  0.00000000E+00
  5.60000000E+02  4.80000000E+01  0.00000000E+00
  5.60000000E+02  4.60000000E+01  0.00000000E+00
  5.60000000E+02  4.40000000E+01  0.00000000E+00
  5.60000000E+02  4.20000000E+01  0.00000000E+00
  5.60000000E+02  4.00000000E+01  0.00000000E+00
  5.60000000E+02  3.80000000E+01  0.00000000E+00
  5.60000000E+02  3.60000000E+01  0.00000000E+00
  5.60000000E+02  3.40000000E+01  0.00000000E+00
  5.60000000E+02  3.20000000E+01  0.00000000E+00
  5.60000000E+02  3.00000000E+01  0.00000000E+00
  5.60000000E+02  2.80000000E+01  0.00000000E+00
  5.60000000E+02  2.60000000E+01  0.00000000E+00
  5.60000000E+02  2.40000000E+01  0.00000000E+00
  5.60000000E+02  2.20000000E+01  0.00000000E+00
  5.60000000E+02  2.00000000E+01  0.00000000E+00
  5.60000000E+02  1.80000000E+01  0.00000000E+00
  5.60000000E+02  1.60000000E+01  0.00000000E+00
  5.60000000E+02  1.40000000E+01  0.00000000E+00
  5.60000000E+02  1.20000000E+01  0.00000000E+00
  5.60000000E+02  1.00000000E+01  0.00000000E+00
  5.60000000E+02  8.00000000E+00  0.00000000E+00
  5.60000000E+02  6.00000000E+00  0.00000000E+00
  5.60000000E+02  4.00000000E+00  0.00000000E+00
  5.60000000E+02  2.00000000E+00  0.00000000E+00
  5.60000000E+02 -3.33066907E-14  0.00000000E+00
  5.70000000E+02  1.00000000E+02  0.00000000E+00
  5.70000000E+02  9.80000000E+01  0.00000000E+00
  5.70000000E+02  9.60000000E+01  0.00000000E+00
  5.70000000E+02  9.40000000E+01  0.00000000E+00
  5.70000000E+02  9.20000000E+01  0.00000000E+00
  5.70000000E+02  9.00000000E+01  0.00000000E+00
  5.70000000E+02  8.80000000E+01  0.00000000E+00
  5.70000000E+02  8.60000000E+01  0.00000000E+00
  5.70000000E+02  8.40000000E+01  0.00000000E+00
  5.70000000E+02  8.20000000E+01  0.00000000E+00
  5.70000000E+02  8.00000000E+01  0.00000000E+00
  5.70000000E+02  7.80000000E+01  0.00000000E+00
  5.70000000E+02  7.60000000E+01  0.00000000E+00
  5.70000000E+02  7.40000000E+01  0.00000000E+00
  5.70000000E+02  7.20000000E+01  0.00000000E+00
  5.70000000E+02  7.00000000E+01  0.00000000E+00
  5.70000000E+02  6.80000000E+01  0.00000000E+00
  5.70000000E+02  6.60000000E+01  0.00000000E+00
  5.70000000E+02  6.40000000E+01  0.00000000E+00
  5.70000000E+02  6.20000000E+01  0.00000000E+00
  5.70000000E+02  6.00000000E+01  0.00000000E+00
  5.70000000E+02  5.80000000E+01  0.00000000E+00
  5.70000000E+02  5.60000000E+01  0.00000000E+00
  5.70000000E+02  5.40000000E+01  0.00000000E+00
  5.70000000E+02  5.20000000E+01  0.00000000E+00
  5.70000000E+02  5.00000000E+01  0.00000000E+00
  5.70000000E+02  4.80000000E+01  0.00000000E+00
  5.70000000E+02  4.60000000E+01  0.00000000E+00
  5.70000000E+02  4.40000000E+01  0.00000000E+00
  5.70000000E+02  4.20000000E+01  0.00000000E+00
  5.70000000E+02  4.00000000E+01  0.00000000E+00
  5.70000000E+02  3.80000000E+01  0.00000000E+00
  5.70000000E+02  3.60000000E+01  0.00000000E+00
  5.70000000E+02  3.40000000E+01  0.00000000E+00
  5.70000000E+02  3.20000000E+01  0.00000000E+00
  5.70000000E+02  3.00000000E+01  0.00000000E+00
  5.70000000E+02  2.80000000E+01  0.00000000E+00
  5.70000000E+02  2.60000000E+01  0.00000000E+00
  5.70000000E+02  2.40000000E+01  0.00000000E+00
  5.70000000E+02  2.20000000E+01  0.00000000E+00
  5.70000000E+02  2.00000000E+01  0.00000000E+00
  5.70000000E+02  1.80000000E+01  0.00000000E+00
  5.70000000E+02  1.60000000E+01  0.00000000E+00
  5.70000000E+02  1.40000000E+01  0.00000000E+00
  5.70000000E+02  1.20000000E+01  0.00000000E+00
  5.70000000E+02  1.00000000E+01  0.00000000E+00
  5.70000000E+02  8.00000000E+00  0.00000000E+00
  5.70000000E+02  6.00000000E+00  0.00000000E+00
  5.70000000E+02  4.00000000E+00  0.00000000E+00
  5.70000000E+02  2.00000000E+00  0.00000000E+00
  5.70000000E+02 -3.33066907E-14  0.00000000E+00
  5.80000000E+02  1.00000000E+02  0.00000000E+00
  5.80000000E+02  9.80000000E+01  0.00000000E+00
  5.80000000E+02  9.60000000E+01  0.00000000E+00
  5.80000000E+02  9.40000000E+01  0.00000000E+00
  5.80000000E+02  9.20000000E+01  0.00000000E+00
  5.80000000E+02  9.00000000E+01  0.00000000E+00
  5.80000000E+02  8.80000000E+01  0.00000000E+00
  5.80000000E+02  8.60000000E+01  0.00000000E+00
  5.80000000E+02  8.40000000E+01  0.00000000E+00
  5.80000000E+02  8.20000000E+01  0.00000000E+00
  5.80000000E+02  8.00000000E+01  0.00000000E+00
  5.80000000E+02  7.80000000E+01  0.00000000E+00
  5.80000000E+02  7.60000000E+01  0.00000000E+00
  5.80000000E+02  7.40000000E+01  0.00000000E+00
  5.80000000E+02  7.20000000E+01  0.00000000E+00
  5.80000000E+02  7.00000000E+01  0.00000000E+00
  5.80000000E+02  6.80000000E+01  0.00000000E+00
  5.80000000E+02  6.60000000E+01  0.00000000E+00
  5.80000000E+02  6.40000000E+01  0.00000000E+00
  5.80000000E+02  6.20000000E+01  0.00000000E+00
  5.80000000E+02  6.00000000E+01  0.00000000E+00
  5.80000000E+02  5.80000000E+01  0.00000000E+00
  5.80000000E+02  5.60000000E+01  0.00000000E+00
  5.80000000E+02  5.40000000E+01  0.00000000E+00
  5.80000000E+02  5.20000000E+01  0.00000000E+00
  5.80000000E+02  5.00000000E+01  0.00000000E+00
  5.80000000E+02  4.80000000E+01  0.00000000E+00
  5.80000000E+02  4.60000000E+01  0.00000000E+00
  5.80000000E+02  4.40000000E+01  0.00000000E+00
  5.80000000E+02  4.20000000E+01  0.00000000E+00
  5.80000000E+02  4.00000000E+01  0.00000000E+00
  5.80000000E+02  3.80000000E+01  0.00000000E+00
  5.80000000E+02  3.60000000E+01  0.00000000E+00
  5.80000000E+02  3.40000000E+01  0.00000000E+00
  5.80000000E+02  3.20000000E+01  0.00000000E+00
  5.80000000E+02  3.00000000E+01  0.00000000E+00
  5.80000000E+02  2.80000000E+01  0.00000000E+00
  5.80000000E+02  2.60000000E+01  0.00000000E+00
  5.80000000E+02  2.40000000E+01  0.00000000E+00
  5.80000000E+02  2.20000000E+01  0.00000000E+00
  5.80000000E+02  2.00000000E+01  0.00000000E+00
  5.80000000E+02  1.80000000E+01  0.00000000E+00
  5.80000000E+02  1.60000000E+01  0.00000000E+00
  5.80000000E+02  1.40000000E+01  0.00000000E+00
  5.80000000E+02  1.20000000E+01  0.00000000E+00
  5.80000000E+02  1.00000000E+01  0.00000000E+00
  5.80000000E+02  8.00000000E+00  0.00000000E+00
  5.80000000E+02  6.00000000E+00  0.00000000E+00
  5.80000000E+02  4.00000000E+00  0.00000000E+00
  5.80000000E+02  2.00000000E+00  0.00000000E+00
  5.80000000E+02 -3.33066907E-14  0.00000000E+00
  5.90000000E+02  1.00000000E+02  0.00000000E+00
  5.90000000E+02  9.80000000E+01  0.00000000E+00
  5.90000000E+02  9.60000000E+01  0.00000000E+00
  5.90000000E+02  9.40000000E+01  0.00000000E+00
  5.90000000E+02  9.20000000E+01  0.00000000E+00
  5.90000000E+02  9.00000000E+01  0.00000000E+00
  5.90000000E+02  8.80000000E+01  0.00000000E+00
  5.90000000E+02  8.60000000E+01  0.00000000E+00
  5.90000000E+02  8.40000000E+01  0.00000000E+00
  5.90000000E+02  8.20000000E+01  0.00000000E+00
  5.90000000E+02  8.00000000E+01  0.00000000E+00
  5.90000000E+02  7.80000000E+01  0.00000000E+00
  5.90000000E+02  7.60000000E+01  0.00000000E+00
  5.90000000E+02  7.40000000E+01  0.00000000E+00
  5.90000000E+02  7.20000000E+01  0.00000000E+00
  5.90000000E+02  7.00000000E+01  0.00000000E+00
  5.90000000E+02  6.80000000E+01  0.00000000E+00
  5.90000000E+02  6.60000000E+01  0.00000000E+00
  5.90000000E+02  6.40000000E+01  0.00000000E+00
  5.90000000E+02  6.20000000E+01  0.00000000E+00
  5.90000000E+02  6.00000000E+01  0.00000000E+00
  5.90000000E+02  5.80000000E+01  0.00000000E+00
  5.90000000E+02  5.60000000E+01  0.00000000E+00
  5.90000000E+02  5.40000000E+01  0.00000000E+00
  5.90000000E+02  5.20000000E+01  0.00000000E+00
  5.90000000E+02  5.00000000E+01  0.00000000E+00
  5.90000000E+02  4.80000000E+01  0.00000000E+00
  5.90000000E+02  4.60000000E+01  0.00000000E+00
  5.90000000E+02  4.40000000E+01  0.00000000E+00
  5.90000000E+02  4.20000000E+01  0.00000000E+00
  5.90000000E+02  4.00000000E+01  0.00000000E+00
  5.90000000E+02  3.80000000E+01  0.00000000E+00
  5.90000000E+02  3.60000000E+01  0.00000000E+00
  5.90000000E+02  3.40000000E+01  0.00000000E+00
  5.90000000E+02  3.20000000E+01  0.00000000E+00
  5.90000000E+02  3.00000000E+01  0.00000000E+00
  5.90000000E+02  2.80000000E+01  0.00000000E+00
  5.90000000E+02  2.60000000E+01  0.00000000E+00
  5.90000000E+02  2.40000000E+01  0.00000000E+00
  5.90000000E+02  2.20000000E+01  0.00000000E+00
  5.90000000E+02  2.00000000E+01  0.00000000E+00
  5.90000000E+02  1.80000000E+01  0.00000000E+00
  5.90000000E+02  1.60000000E+01  0.00000000E+00
  5.90000000E+02  1.40000000E+01  0.00000000E+00
  5.90000000E+02  1.20000000E+01  0.00000000E+00
  5.90000000E+02  1.00000000E+01  0.00000000E+00
  5.90000000E+02  8.00000000E+00  0.00000000E+00
  5.90000000E+02  6.00000000E+00  0.00000000E+00
  5.90000000E+02  4.00000000E+00  0.00000000E+00
  5.90000000E+02  2.00000000E+00  0.00000000E+00
  5.90000000E+02 -3.33066907E-14  0.00000000E+00
  6.00000000E+02  1.00000000E+02  0.00000000E+00
  6.00000000E+02  9.80000000E+01  0.00000000E+00
  6.00000000E+02  9.60000000E+01  0.00000000E+00
  6.00000000E+02  9.40000000E+01  0.00000000E+00
  6.00000000E+02  9.20000000E+01  0.00000000E+00
  6.00000000E+02  9.00000000E+01  0.00000000E+00
  6.00000000E+02  8.80000000E+01  0.00000000E+00
  6.00000000E+02  8.60000000E+01  0.00000000E+00
  6.00000000E+02  8.40000000E+01  0.00000000E+00
  6.00000000E+02  8.20000000E+01  0.00000000E+00
  6.00000000E+02  8.00000000E+01  0.00000000E+00
  6.00000000E+02  7.80000000E+01  0.00000000E+00
  6.00000000E+02  7.60000000E+01  0.00000000E+00
  6.00000000E+02  7.40000000E+01  0.00000000E+00
  6.00000000E+02  7.20000000E+01  0.00000000E+00
  6.00000000E+02  7.00000000E+01  0.00000000E+00
  6.00000000E+02  6.80000000E+01  0.00000000E+00
  6.00000000E+02  6.60000000E+01  0.00000000E+00
  6.00000000E+02  6.40000000E+01  0.00000000E+00
  6.00000000E+02  6.20000000E+01  0.00000000E+00
  6.00000000E+02  6.00000000E+01  0.00000000E+00
  6.00000000E+02  5.80000000E+01  0.00000000E+00
  6.00000000E+02  5.60000000E+01  0.00000000E+00
  6.00000000E+02  5.40000000E+01  0.00000000E+00
  6.00000000E+02  5.20000000E+01  0.00000000E+00
  6.00000000E+02  5.00000000E+01  0.00000000E+00
  6.00000000E+02  4.80000000E+01  0.00000000E+00
  6.00000000E+02  4.60000000E+01  0.00000000E+00
  6.00000000E+02  4.40000000E+01  0.00000000E+00
  6.00000000E+02  4.20000000E+01  0.00000000E+00
  6.00000000E+02  4.00000000E+01  0.00000000E+00
  6.00000000E+02  3.80000000E+01  0.00000000E+00
  6.00000000E+02  3.60000000E+01  0.00000000E+00
  6.00000000E+02  3.40000000E+01  0.00000000E+00
  6.00000000E+02  3.20000000E+01  0.00000000E+00
  6.00000000E+02  3.00000000E+01  0.00000000E+00
  6.00000000E+02  2.80000000E+01  0.00000000E+00
  6.00000000E+02  2.60000000E+01  0.00000000E+00
  6.00000000E+02  2.40000000E+01  0.00000000E+00
  6.00000000E+02  2.20000000E+01  0.00000000E+00
  6.00000000E+02  2.00000000E+01  0.00000000E+00
  6.00000000E+02  1.80000000E+01  0.00000000E+00
  6.00000000E+02  1.60000000E+01  0.00000000E+00
  6.00000000E+02  1.40000000E+01  0.00000000E+00
  6.00000000E+02  1.20000000E+01  0.00000000E+00
  6.00000000E+02  1.00000000E+01  0.00000000E+00
  6.00000000E+02  8.00000000E+00  0.00000000E+00
  6.00000000E+02  6.00000000E+00  0.00000000E+00
  6.00000000E+02  4.00000000E+00  0.00000000E+00
  6.00000000E+02  2.00000000E+00  0.00000000E+00
  6.00000000E+02 -3.33066907E-14  0.00000000E+00
  6.10000000E+02  1.00000000E+02  0.00000000E+00
  6.10000000E+02  9.80000000E+01  0.00000000E+00
  6.10000000E+02  9.60000000E+01  0.00000000E+00
  6.10000000E+02  9.40000000E+01  0.00000000E+00
  6.10000000E+02  9.20000000E+01  0.00000000E+00
  6.10000000E+02  9.00000000E+01  0.00000000E+00
  6.10000000E+02  8.80000000E+01  0.00000000E+00
  6.10000000E+02  8.60000000E+01  0.00000000E+00
  6.10000000E+02  8.40000000E+01  0.00000000E+00
  6.10000000E+02  8.20000000E+01  0.00000000E+00
  6.10000000E+02  8.00000000E+01  0.00000000E+00
  6.10000000E+02  7.80000000E+01  0.00000000E+00
  6.10000000E+02  7.60000000E+01  0.00000000E+00
  6.10000000E+02  7.40000000E+01  0.00000000E+00
  6.10000000E+02  7.20000000E+01  0.00000000E+00
  6.10000000E+02  7.00000000E+01  0.00000000E+00
  6.10000000E+02  6.80000000E+01  0.00000000E+00
  6.10000000E+02  6.60000000E+01  0.00000000E+00
  6.10000000E+02  6.40000000E+01  0.00000000E+00
  6.10000000E+02  6.20000000E+01  0.00000000E+00
  6.10000000E+02  6.00000000E+01  0.00000000E+00
  6.10000000E+02  5.80000000E+01  0.00000000E+00
  6.10000000E+02  5.60000000E+01  0.00000000E+00
  6.10000000E+02  5.40000000E+01  0.00000000E+00
  6.10000000E+02  5.20000000E+01  0.00000000E+00
  6.10000000E+02  5.00000000E+01  0.00000000E+00
  6.10000000E+02  4.80000000E+01  0.00000000E+00
  6.10000000E+02  4.60000000E+01  0.00000000E+00
  6.10000000E+02  4.40000000E+01  0.00000000E+00
  6.10000000E+02  4.20000000E+01  0.00000000E+00
  6.10000000E+02  4.00000000E+01  0.00000000E+00
  6.10000000E+02  3.80000000E+01  0.00000000E+00
  6.10000000E+02  3.60000000E+01  0.00000000E+00
  6.10000000E+02  3.40000000E+01  0.00000000E+00
  6.10000000E+02  3.20000000E+01  0.00000000E+00
  6.10000000E+02  3.00000000E+01  0.00000000E+00
  6.10000000E+02  2.80000000E+01  0.00000000E+00
  6.10000000E+02  2.60000000E+01  0.00000000E+00
  6.10000000E+02  2.40000000E+01  0.00000000E+00
  6.10000000E+02  2.20000000E+01  0.00000000E+00
  6.10000000E+02  2.00000000E+01  0.00000000E+00
  6.10000000E+02  1.80000000E+01  0.00000000E+00
  6.10000000E+02  1.60000000E+01  0.00000000E+00
  6.10000000E+02  1.40000000E+01  0.00000000E+00
  6.10000000E+02  1.20000000E+01  0.00000000E+00
  6.10000000E+02  1.00000000E+01  0.00000000E+00
  6.10000000E+02  8.00000000E+00  0.00000000E+00
  6.10000000E+02  6.00000000E+00  0.00000000E+00
  6.10000000E+02  4.00000000E+00  0.00000000E+00
  6.10000000E+02  2.00000000E+00  0.00000000E+00
  6.10000000E+02 -3.33066907E-14  0.00000000E+00
  6.20000000E+02  1.00000000E+02  0.00000000E+00
  6.20000000E+02  9.80000000E+01  0.00000000E+00
  6.20000000E+02  9.60000000E+01  0.00000000E+00
  6.20000000E+02  9.40000000E+01  0.00000000E+00
  6.20000000E+02  9.20000000E+01  0.00000000E+00
  6.20000000E+02  9.00000000E+01  0.00000000E+00
  6.20000000E+02  8.80000000E+01  0.00000000E+00
  6.20000000E+02  8.60000000E+01  0.00000000E+00
  6.20000000E+02  8.40000000E+01  0.00000000E+00
  6.20000000E+02  8.20000000E+01  0.00000000E+00
  6.20000000E+02  8.00000000E+01  0.00000000E+00
  6.20000000E+02  7.80000000E+01  0.00000000E+00
  6.20000000E+02  7.60000000E+01  0.00000000E+00
  6.20000000E+02  7.40000000E+01  0.00000000E+00
  6.20000000E+02  7.20000000E+01  0.00000000E+00
  6.20000000E+02  7.00000000E+01  0.00000000E+00
  6.20000000E+02  6.80000000E+01  0.00000000E+00
  6.20000000E+02  6.60000000E+01  0.00000000E+00
  6.20000000E+02  6.40000000E+01  0.00000000E+00
  6.20000000E+02  6.20000000E+01  0.00000000E+00
  6.20000000E+02  6.00000000E+01  0.00000000E+00
  6.20000000E+02  5.80000000E+01  0.00000000E+00
  6.20000000E+02  5.60000000E+01  0.00000000E+00
  6.20000000E+02  5.40000000E+01  0.00000000E+00
  6.20000000E+02  5.20000000E+01  0.00000000E+00
  6.20000000E+02  5.00000000E+01  0.00000000E+00
  6.20000000E+02  4.80000000E+01  0.00000000E+00
  6.20000000E+02  4.60000000E+01  0.00000000E+00
  6.20000000E+02  4.40000000E+01  0.00000000E+00
  6.20000000E+02  4.20000000E+01  0.00000000E+00
  6.20000000E+02  4.00000000E+01  0.00000000E+00
  6.20000000E+02  3.80000000E+01  0.00000000E+00
  6.20000000E+02  3.60000000E+01  0.00000000E+00
  6.20000000E+02  3.40000000E+01  0.00000000E+00
  6.20000000E+02  3.20000000E+01  0.00000000E+00
  6.20000000E+02  3.00000000E+01  0.00000000E+00
  6.20000000E+02  2.80000000E+01  0.00000000E+00
  6.20000000E+02  2.60000000E+01  0.00000000E+00
  6.20000000E+02  2.40000000E+01  0.00000000E+00
  6.20000000E+02  2.20000000E+01  0.00000000E+00
  6.20000000E+02  2.00000000E+01  0.00000000E+00
  6.20000000E+02  1.80000000E+01  0.00000000E+00
  6.20000000E+02  1.60000000E+01  0.00000000E+00
  6.20000000E+02  1.40000000E+01  0.00000000E+00
  6.20000000E+02  1.20000000E+01  0.00000000E+00
  6.20000000E+02  1.00000000E+01  0.00000000E+00
  6.20000000E+02  8.00000000E+00  0.00000000E+00
  6.20000000E+02  6.00000000E+00  0.00000000E+00
  6.20000000E+02  4.00000000E+00  0.00000000E+00
  6.20000000E+02  2.00000000E+00  0.00000000E+00
  6.20000000E+02 -3.33066907E-14  0.00000000E+00
  6.30000000E+02  1.00000000E+02  0.00000000E+00
  6.30000000E+02  9.80000000E+01  0.00000000E+00
  6.30000000E+02  9.60000000E+01  0.00000000E+00
  6.30000000E+02  9.40000000E+01  0.00000000E+00
  6.30000000E+02  9.20000000E+01  0.00000000E+00
  6.30000000E+02  9.00000000E+01  0.00000000E+00
  6.30000000E+02  8.80000000E+01  0.00000000E+00
  6.30000000E+02  8.60000000E+01  0.00000000E+00
  6.30000000E+02  8.40000000E+01  0.00000000E+00
  6.30000000E+02  8.20000000E+01  0.00000000E+00
  6.30000000E+02  8.00000000E+01  0.00000000E+00
  6.30000000E+02  7.80000000E+01  0.00000000E+00
  6.30000000E+02  7.60000000E+01  0.00000000E+00
  6.30000000E+02  7.40000000E+01  0.00000000E+00
  6.30000000E+02  7.20000000E+01  0.00000000E+00
  6.30000000E+02  7.00000000E+01  0.00000000E+00
  6.30000000E+02  6.80000000E+01  0.00000000E+00
  6.30000000E+02  6.60000000E+01  0.00000000E+00
  6.30000000E+02  6.40000000E+01  0.00000000E+00
  6.30000000E+02  6.20000000E+01  0.00000000E+00
  6.30000000E+02  6.00000000E+01  0.00000000E+00
  6.30000000E+02  5.80000000E+01  0.00000000E+00
  6.30000000E+02  5.60000000E+01  0.00000000E+00
  6.30000000E+02  5.40000000E+01  0.00000000E+00
  6.30000000E+02  5.20000000E+01  0.00000000E+00
  6.30000000E+02  5.00000000E+01  0.00000000E+00
  6.30000000E+02  4.80000000E+01  0.00000000E+00
  6.30000000E+02  4.60000000E+01  0.00000000E+00
  6.30000000E+02  4.40000000E+01  0.00000000E+00
  6.30000000E+02  4.20000000E+01  0.00000000E+00
  6.30000000E+02  4.00000000E+01  0.00000000E+00
  6.30000000E+02  3.80000000E+01  0.00000000E+00
  6.30000000E+02  3.60000000E+01  0.00000000E+00
  6.30000000E+02  3.40000000E+01  0.00000000E+00
  6.30000000E+02  3.20000000E+01  0.00000000E+00
  6.30000000E+02  3.00000000E+01  0.00000000E+00
  6.30000000E+02  2.80000000E+01  0.00000000E+00
  6.30000000E+02  2.60000000E+01  0.00000000E+00
  6.30000000E+02  2.40000000E+01  0.00000000E+00
  6.30000000E+02  2.20000000E+01  0.00000000E+00
  6.30000000E+02  2.00000000E+01  0.00000000E+00
  6.30000000E+02  1.80000000E+01  0.00000000E+00
  6.30000000E+02  1.60000000E+01  0.00000000E+00
  6.30000000E+02  1.40000000E+01  0.00000000E+00
  6.30000000E+02  1.20000000E+01  0.00000000E+00
  6.30000000E+02  1.00000000E+01  0.00000000E+00
  6.30000000E+02  8.00000000E+00  0.00000000E+00
  6.30000000E+02  6.00000000E+00  0.00000000E+00
  6.30000000E+02  4.00000000E+00  0.00000000E+00
  6.30000000E+02  2.00000000E+00  0.00000000E+00
  6.30000000E+02 -3.33066907E-14  0.00000000E+00
  6.40000000E+02  1.00000000E+02  0.00000000E+00
  6.40000000E+02  9.80000000E+01  0.00000000E+00
  6.40000000E+02  9.60000000E+01  0.00000000E+00
  6.40000000E+02  9.40000000E+01  0.00000000E+00
  6.40000000E+02  9.20000000E+01  0.00000000E+00
  6.40000000E+02  9.00000000E+01  0.00000000E+00
  6.40000000E+02  8.80000000E+01  0.00000000E+00
  6.40000000E+02  8.60000000E+01  0.00000000E+00
  6.40000000E+02  8.40000000E+01  0.00000000E+00
  6.40000000E+02  8.20000000E+01  0.00000000E+00
  6.40000000E+02  8.00000000E+01  0.00000000E+00
  6.40000000E+02  7.80000000E+01  0.00000000E+00
  6.40000000E+02  7.60000000E+01  0.00000000E+00
  6.40000000E+02  7.40000000E+01  0.00000000E+00
  6.40000000E+02  7.20000000E+01  0.00000000E+00
  6.40000000E+02  7.00000000E+01  0.00000000E+00
  6.40000000E+02  6.80000000E+01  0.00000000E+00
  6.40000000E+02  6.60000000E+01  0.00000000E+00
  6.40000000E+02  6.40000000E+01  0.00000000E+00
  6.40000000E+02  6.20000000E+01  0.00000000E+00
  6.40000000E+02  6.00000000E+01  0.00000000E+00
  6.40000000E+02  5.80000000E+01  0.00000000E+00
  6.40000000E+02  5.60000000E+01  0.00000000E+00
  6.40000000E+02  5.40000000E+01  0.00000000E+00
  6.40000000E+02  5.20000000E+01  0.00000000E+00
  6.40000000E+02  5.00000000E+01  0.00000000E+00
  6.40000000E+02  4.80000000E+01  0.00000000E+00
  6.40000000E+02  4.60000000E+01  0.00000000E+00
  6.40000000E+02  4.40000000E+01  0.00000000E+00
  6.40000000E+02  4.20000000E+01  0.00000000E+00
  6.40000000E+02  4.00000000E+01  0.00000000E+00
  6.40000000E+02  3.80000000E+01  0.00000000E+00
  6.40000000E+02  3.60000000E+01  0.00000000E+00
  6.40000000E+02  3.40000000E+01  0.00000000E+00
  6.40000000E+02  3.20000000E+01  0.00000000E+00
  6.40000000E+02  3.00000000E+01  0.00000000E+00
  6.40000000E+02  2.80000000E+01  0.00000000E+00
  6.40000000E+02  2.60000000E+01  0.00000000E+00
  6.40000000E+02  2.40000000E+01  0.00000000E+00
  6.40000000E+02  2.20000000E+01  0.00000000E+00
  6.40000000E+02  2.00000000E+01  0.00000000E+00
  6.40000000E+02  1.80000000E+01  0.00000000E+00
  6.40000000E+02  1.60000000E+01  0.00000000E+00
  6.40000000E+02  1.40000000E+01  0.00000000E+00
  6.40000000E+02  1.20000000E+01  0.00000000E+00
  6.40000000E+02  1.00000000E+01  0.00000000E+00
  6.40000000E+02  8.00000000E+00  0.00000000E+00
  6.40000000E+02  6.00000000E+00  0.00000000E+00
  6.40000000E+02  4.00000000E+00  0.00000000E+00
  6.40000000E+02  2.00000000E+00  0.00000000E+00
  6.40000000E+02 -3.33066907E-14  0.00000000E+00
  6.50000000E+02  1.00000000E+02  0.00000000E+00
  6.50000000E+02  9.80000000E+01  0.00000000E+00
  6.50000000E+02  9.60000000E+01  0.00000000E+00
  6.50000000E+02  9.40000000E+01  0.00000000E+00
  6.50000000E+02  9.20000000E+01  0.00000000E+00
  6.50000000E+02  9.00000000E+01  0.00000000E+00
  6.50000000E+02  8.80000000E+01  0.00000000E+00
  6.50000000E+02  8.60000000E+01  0.00000000E+00
  6.50000000E+02  8.40000000E+01  0.00000000E+00
  6.50000000E+02  8.20000000E+01  0.00000000E+00
  6.50000000E+02  8.00000000E+01  0.00000000E+00
  6.50000000E+02  7.80000000E+01  0.00000000E+00
  6.50000000E+02  7.60000000E+01  0.00000000E+00
  6.50000000E+02  7.40000000E+01  0.00000000E+00
  6.50000000E+02  7.20000000E+01  0.00000000E+00
  6.50000000E+02  7.00000000E+01  0.00000000E+00
  6.50000000E+02  6.80000000E+01  0.00000000E+00
  6.50000000E+02  6.60000000E+01  0.00000000E+00
  6.50000000E+02  6.40000000E+01  0.00000000E+00
  6.50000000E+02  6.20000000E+01  0.00000000E+00
  6.50000000E+02  6.00000000E+01  0.00000000E+00
  6.50000000E+02  5.80000000E+01  0.00000000E+00
  6.50000000E+02  5.60000000E+01  0.00000000E+00
  6.50000000E+02  5.40000000E+01  0.00000000E+00
  6.50000000E+02  5.20000000E+01  0.00000000E+00
  6.50000000E+02  5.00000000E+01  0.00000000E+00
  6.50000000E+02  4.80000000E+01  0.00000000E+00
  6.50000000E+02  4.60000000E+01  0.00000000E+00
  6.50000000E+02  4.40000000E+01  0.00000000E+00
  6.50000000E+02  4.20000000E+01  0.00000000E+00
  6.50000000E+02  4.00000000E+01  0.00000000E+00
  6.50000000E+02  3.80000000E+01  0.00000000E+00
  6.50000000E+02  3.60000000E+01  0.00000000E+00
  6.50000000E+02  3.40000000E+01  0.00000000E+00
  6.50000000E+02  3.20000000E+01  0.00000000E+00
  6.50000000E+02  3.00000000E+01  0.00000000E+00
  6.50000000E+02  2.80000000E+01  0.00000000E+00
  6.50000000E+02  2.60000000E+01  0.00000000E+00
  6.50000000E+02  2.40000000E+01  0.00000000E+00
  6.50000000E+02  2.20000000E+01  0.00000000E+00
  6.50000000E+02  2.00000000E+01  0.00000000E+00
  6.50000000E+02  1.80000000E+01  0.00000000E+00
  6.50000000E+02  1.60000000E+01  0.00000000E+00
  6.50000000E+02  1.40000000E+01  0.00000000E+00
  6.50000000E+02  1.20000000E+01  0.00000000E+00
  6.50000000E+02  1.00000000E+01  0.00000000E+00
  6.50000000E+02  8.00000000E+00  0.00000000E+00
  6.50000000E+02  6.00000000E+00  0.00000000E+00
  6.50000000E+02  4.00000000E+00  0.00000000E+00
  6.50000000E+02  2.00000000E+00  0.00000000E+00
  6.50000000E+02 -3.33066907E-14  0.00000000E+00
  6.60000000E+02  1.00000000E+02  0.00000000E+00
  6.60000000E+02  9.80000000E+01  0.00000000E+00
  6.60000000E+02  9.60000000E+01  0.00000000E+00
  6.60000000E+02  9.40000000E+01  0.00000000E+00
  6.60000000E+02  9.20000000E+01  0.00000000E+00
  6.60000000E+02  9.00000000E+01  0.00000000E+00
  6.60000000E+02  8.80000000E+01  0.00000000E+00
  6.60000000E+02  8.60000000E+01  0.00000000E+00
  6.60000000E+02  8.40000000E+01  0.00000000E+00
  6.60000000E+02  8.20000000E+01  0.00000000E+00
  6.60000000E+02  8.00000000E+01  0.00000000E+00
  6.60000000E+02  7.80000000E+01  0.00000000E+00
  6.60000000E+02  7.60000000E+01  0.00000000E+00
  6.60000000E+02  7.40000000E+01  0.00000000E+00
  6.60000000E+02  7.20000000E+01  0.00000000E+00
  6.60000000E+02  7.00000000E+01  0.00000000E+00
  6.60000000E+02  6.80000000E+01  0.00000000E+00
  6.60000000E+02  6.60000000E+01  0.00000000E+00
  6.60000000E+02  6.40000000E+01  0.00000000E+00
  6.60000000E+02  6.20000000E+01  0.00000000E+00
  6.60000000E+02  6.00000000E+01  0.00000000E+00
  6.60000000E+02  5.80000000E+01  0.00000000E+00
  6.60000000E+02  5.60000000E+01  0.00000000E+00
  6.60000000E+02  5.40000000E+01  0.00000000E+00
  6.60000000E+02  5.20000000E+01  0.00000000E+00
  6.60000000E+02  5.00000000E+01  0.00000000E+00
  6.60000000E+02  4.80000000E+01  0.00000000E+00
  6.60000000E+02  4.60000000E+01  0.00000000E+00
  6.60000000E+02  4.40000000E+01  0.00000000E+00
  6.60000000E+02  4.20000000E+01  0.00000000E+00
  6.60000000E+02  4.00000000E+01  0.00000000E+00
  6.60000000E+02  3.80000000E+01  0.00000000E+00
  6.60000000E+02  3.60000000E+01  0.00000000E+00
  6.60000000E+02  3.40000000E+01  0.00000000E+00
  6.60000000E+02  3.20000000E+01  0.00000000E+00
  6.60000000E+02  3.00000000E+01  0.00000000E+00
  6.60000000E+02  2.80000000E+01  0.00000000E+00
  6.60000000E+02  2.60000000E+01  0.00000000E+00
  6.60000000E+02  2.40000000E+01  0.00000000E+00
  6.60000000E+02  2.20000000E+01  0.00000000E+00
  6.60000000E+02  2.00000000E+01  0.00000000E+00
  6.60000000E+02  1.80000000E+01  0.00000000E+00
  6.60000000E+02  1.60000000E+01  0.00000000E+00
  6.60000000E+02  1.40000000E+01  0.00000000E+00
  6.60000000E+02  1.20000000E+01  0.00000000E+00
  6.60000000E+02  1.00000000E+01  0.00000000E+00
  6.60000000E+02  8.00000000E+00  0.00000000E+00
  6.60000000E+02  6.00000000E+00  0.00000000E+00
  6.60000000E+02  4.00000000E+00  0.00000000E+00
  6.60000000E+02  2.00000000E+00  0.00000000E+00
  6.60000000E+02 -3.33066907E-14  0.00000000E+00
  6.70000000E+02  1.00000000E+02  0.00000000E+00
  6.70000000E+02  9.80000000E+01  0.00000000E+00
  6.70000000E+02  9.60000000E+01  0.00000000E+00
  6.70000000E+02  9.40000000E+01  0.00000000E+00
  6.70000000E+02  9.20000000E+01  0.00000000E+00
  6.70000000E+02  9.00000000E+01  0.00000000E+00
  6.70000000E+02  8.80000000E+01  0.00000000E+00
  6.70000000E+02  8.60000000E+01  0.00000000E+00
  6.70000000E+02  8.40000000E+01  0.00000000E+00
  6.70000000E+02  8.20000000E+01  0.00000000E+00
  6.70000000E+02  8.00000000E+01  0.00000000E+00
  6.70000000E+02  7.80000000E+01  0.00000000E+00
  6.70000000E+02  7.60000000E+01  0.00000000E+00
  6.70000000E+02  7.40000000E+01  0.00000000E+00
  6.70000000E+02  7.20000000E+01  0.00000000E+00
  6.70000000E+02  7.00000000E+01  0.00000000E+00
  6.70000000E+02  6.80000000E+01  0.00000000E+00
  6.70000000E+02  6.60000000E+01  0.00000000E+00
  6.70000000E+02  6.40000000E+01  0.00000000E+00
  6.70000000E+02  6.20000000E+01  0.00000000E+00
  6.70000000E+02  6.00000000E+01  0.00000000E+00
  6.70000000E+02  5.80000000E+01  0.00000000E+00
  6.70000000E+02  5.60000000E+01  0.00000000E+00
  6.70000000E+02  5.40000000E+01  0.00000000E+00
  6.70000000E+02  5.20000000E+01  0.00000000E+00
  6.70000000E+02  5.00000000E+01  0.00000000E+00
  6.70000000E+02  4.80000000E+01  0.00000000E+00
  6.70000000E+02  4.60000000E+01  0.00000000E+00
  6.70000000E+02  4.40000000E+01  0.00000000E+00
  6.70000000E+02  4.20000000E+01  0.00000000E+00
  6.70000000E+02  4.00000000E+01  0.00000000E+00
  6.70000000E+02  3.80000000E+01  0.00000000E+00
  6.70000000E+02  3.60000000E+01  0.00000000E+00
  6.70000000E+02  3.40000000E+01  0.00000000E+00
  6.70000000E+02  3.20000000E+01  0.00000000E+00
  6.70000000E+02  3.00000000E+01  0.00000000E+00
  6.70000000E+02  2.80000000E+01  0.00000000E+00
  6.70000000E+02  2.60000000E+01  0.00000000E+00
  6.70000000E+02  2.40000000E+01  0.00000000E+00
  6.70000000E+02  2.20000000E+01  0.00000000E+00
  6.70000000E+02  2.00000000E+01  0.00000000E+00
  6.70000000E+02  1.80000000E+01  0.00000000E+00
  6.70000000E+02  1.60000000E+01  0.00000000E+00
  6.70000000E+02  1.40000000E+01  0.00000000E+00
  6.70000000E+02  1.20000000E+01  0.00000000E+00
  6.70000000E+02  1.00000000E+01  0.00000000E+00
  6.70000000E+02  8.00000000E+00  0.00000000E+00
  6.70000000E+02  6.00000000E+00  0.00000000E+00
  6.70000000E+02  4.00000000E+00  0.00000000E+00
  6.70000000E+02  2.00000000E+00  0.00000000E+00
  6.70000000E+02 -3.33066907E-14  0.00000000E+00
  6.80000000E+02  1.00000000E+02  0.00000000E+00
  6.80000000E+02  9.80000000E+01  0.00000000E+00
  6.80000000E+02  9.60000000E+01  0.00000000E+00
  6.80000000E+02  9.40000000E+01  0.00000000E+00
  6.80000000E+02  9.20000000E+01  0.00000000E+00
  6.80000000E+02  9.00000000E+01  0.00000000E+00
  6.80000000E+02  8.80000000E+01  0.00000000E+00
  6.80000000E+02  8.60000000E+01  0.00000000E+00
  6.80000000E+02  8.40000000E+01  0.00000000E+00
  6.80000000E+02  8.20000000E+01  0.00000000E+00
  6.80000000E+02  8.00000000E+01  0.00000000E+00
  6.80000000E+02  7.80000000E+01  0.00000000E+00
  6.80000000E+02  7.60000000E+01  0.00000000E+00
  6.80000000E+02  7.40000000E+01  0.00000000E+00
  6.80000000E+02  7.20000000E+01  0.00000000E+00
  6.80000000E+02  7.00000000E+01  0.00000000E+00
  6.80000000E+02  6.80000000E+01  0.00000000E+00
  6.80000000E+02  6.60000000E+01  0.00000000E+00
  6.80000000E+02  6.40000000E+01  0.00000000E+00
  6.80000000E+02  6.20000000E+01  0.00000000E+00
  6.80000000E+02  6.00000000E+01  0.00000000E+00
  6.80000000E+02  5.80000000E+01  0.00000000E+00
  6.80000000E+02  5.60000000E+01  0.00000000E+00
  6.80000000E+02  5.40000000E+01  0.00000000E+00
  6.80000000E+02  5.20000000E+01  0.00000000E+00
  6.80000000E+02  5.00000000E+01  0.00000000E+00
  6.80000000E+02  4.80000000E+01  0.00000000E+00
  6.80000000E+02  4.60000000E+01  0.00000000E+00
  6.80000000E+02  4.40000000E+01  0.00000000E+00
  6.80000000E+02  4.20000000E+01  0.00000000E+00
  6.80000000E+02  4.00000000E+01  0.00000000E+00
  6.80000000E+02  3.80000000E+01  0.00000000E+00
  6.80000000E+02  3.60000000E+01  0.00000000E+00
  6.80000000E+02  3.40000000E+01  0.00000000E+00
  6.80000000E+02  3.20000000E+01  0.00000000E+00
  6.80000000E+02  3.00000000E+01  0.00000000E+00
  6.80000000E+02  2.80000000E+01  0.00000000E+00
  6.80000000E+02  2.60000000E+01  0.00000000E+00
  6.80000000E+02  2.40000000E+01  0.00000000E+00
  6.80000000E+02  2.20000000E+01  0.00000000E+00
  6.80000000E+02  2.00000000E+01  0.00000000E+00
  6.80000000E+02  1.80000000E+01  0.00000000E+00
  6.80000000E+02  1.60000000E+01  0.00000000E+00
  6.80000000E+02  1.40000000E+01  0.00000000E+00
  6.80000000E+02  1.20000000E+01  0.00000000E+00
  6.80000000E+02  1.00000000E+01  0.00000000E+00
  6.80000000E+02  8.00000000E+00  0.00000000E+00
  6.80000000E+02  6.00000000E+00  0.00000000E+00
  6.80000000E+02  4.00000000E+00  0.00000000E+00
  6.80000000E+02  2.00000000E+00  0.00000000E+00
  6.80000000E+02 -3.33066907E-14  0.00000000E+00
  6.90000000E+02  1.00000000E+02  0.00000000E+00
  6.90000000E+02  9.80000000E+01  0.00000000E+00
  6.90000000E+02  9.60000000E+01  0.00000000E+00
  6.90000000E+02  9.40000000E+01  0.00000000E+00
  6.90000000E+02  9.20000000E+01  0.00000000E+00
  6.90000000E+02  9.00000000E+01  0.00000000E+00
  6.90000000E+02  8.80000000E+01  0.00000000E+00
  6.90000000E+02  8.60000000E+01  0.00000000E+00
  6.90000000E+02  8.40000000E+01  0.00000000E+00
  6.90000000E+02  8.20000000E+01  0.00000000E+00
  6.90000000E+02  8.00000000E+01  0.00000000E+00
  6.90000000E+02  7.80000000E+01  0.00000000E+00
  6.90000000E+02  7.60000000E+01  0.00000000E+00
  6.90000000E+02  7.40000000E+01  0.00000000E+00
  6.90000000E+02  7.20000000E+01  0.00000000E+00
  6.90000000E+02  7.00000000E+01  0.00000000E+00
  6.90000000E+02  6.80000000E+01  0.00000000E+00
  6.90000000E+02  6.60000000E+01  0.00000000E+00
  6.90000000E+02  6.40000000E+01  0.00000000E+00
  6.90000000E+02  6.20000000E+01  0.00000000E+00
  6.90000000E+02  6.00000000E+01  0.00000000E+00
  6.90000000E+02  5.80000000E+01  0.00000000E+00
  6.90000000E+02  5.60000000E+01  0.00000000E+00
  6.90000000E+02  5.40000000E+01  0.00000000E+00
  6.90000000E+02  5.20000000E+01  0.00000000E+00
  6.90000000E+02  5.00000000E+01  0.00000000E+00
  6.90000000E+02  4.80000000E+01  0.00000000E+00
  6.90000000E+02  4.60000000E+01  0.00000000E+00
  6.90000000E+02  4.40000000E+01  0.00000000E+00
  6.90000000E+02  4.20000000E+01  0.00000000E+00
  6.90000000E+02  4.00000000E+01  0.00000000E+00
  6.90000000E+02  3.80000000E+01  0.00000000E+00
  6.90000000E+02  3.60000000E+01  0.00000000E+00
  6.90000000E+02  3.40000000E+01  0.00000000E+00
  6.90000000E+02  3.20000000E+01  0.00000000E+00
  6.90000000E+02  3.00000000E+01  0.00000000E+00
  6.90000000E+02  2.80000000E+01  0.00000000E+00
  6.90000000E+02  2.60000000E+01  0.00000000E+00
  6.90000000E+02  2.40000000E+01  0.00000000E+00
  6.90000000E+02  2.20000000E+01  0.00000000E+00
  6.90000000E+02  2.00000000E+01  0.00000000E+00
  6.90000000E+02  1.80000000E+01  0.00000000E+00
  6.90000000E+02  1.60000000E+01  0.00000000E+00
  6.90000000E+02  1.40000000E+01  0.00000000E+00
  6.90000000E+02  1.20000000E+01  0.00000000E+00
  6.90000000E+02  1.00000000E+01  0.00000000E+00
  6.90000000E+02  8.00000000E+00  0.00000000E+00
  6.90000000E+02  6.00000000E+00  0.00000000E+00
  6.90000000E+02  4.00000000E+00  0.00000000E+00
  6.90000000E+02  2.00000000E+00  0.00000000E+00
  6.90000000E+02 -3.33066907E-14  0.00000000E+00
  7.00000000E+02  1.00000000E+02  0.00000000E+00
  7.00000000E+02  9.80000000E+01  0.00000000E+00
  7.00000000E+02  9.60000000E+01  0.00000000E+00
  7.00000000E+02  9.40000000E+01  0.00000000E+00
  7.00000000E+02  9.20000000E+01  0.00000000E+00
  7.00000000E+02  9.00000000E+01  0.00000000E+00
  7.00000000E+02  8.80000000E+01  0.00000000E+00
  7.00000000E+02  8.60000000E+01  0.00000000E+00
  7.00000000E+02  8.40000000E+01  0.00000000E+00
  7.00000000E+02  8.20000000E+01  0.00000000E+00
  7.00000000E+02  8.00000000E+01  0.00000000E+00
  7.00000000E+02  7.80000000E+01  0.00000000E+00
  7.00000000E+02  7.60000000E+01  0.00000000E+00
  7.00000000E+02  7.40000000E+01  0.00000000E+00
  7.00000000E+02  7.20000000E+01  0.00000000E+00
  7.00000000E+02  7.00000000E+01  0.00000000E+00
  7.00000000E+02  6.80000000E+01  0.00000000E+00
  7.00000000E+02  6.60000000E+01  0.00000000E+00
  7.00000000E+02  6.40000000E+01  0.00000000E+00
  7.00000000E+02  6.20000000E+01  0.00000000E+00
  7.00000000E+02  6.00000000E+01  0.00000000E+00
  7.00000000E+02  5.80000000E+01  0.00000000E+00
  7.00000000E+02  5.60000000E+01  0.00000000E+00
  7.00000000E+02  5.40000000E+01  0.00000000E+00
  7.00000000E+02  5.20000000E+01  0.00000000E+00
  7.00000000E+02  5.00000000E+01  0.00000000E+00
  7.00000000E+02  4.80000000E+01  0.00000000E+00
  7.00000000E+02  4.60000000E+01  0.00000000E+00
  7.00000000E+02  4.40000000E+01  0.00000000E+00
  7.00000000E+02  4.20000000E+01  0.00000000E+00
  7.00000000E+02  4.00000000E+01  0.00000000E+00
  7.00000000E+02  3.80000000E+01  0.00000000E+00
  7.00000000E+02  3.60000000E+01  0.00000000E+00
  7.00000000E+02  3.40000000E+01  0.00000000E+00
  7.00000000E+02  3.20000000E+01  0.00000000E+00
  7.00000000E+02  3.00000000E+01  0.00000000E+00
  7.00000000E+02  2.80000000E+01  0.00000000E+00
  7.00000000E+02  2.60000000E+01  0.00000000E+00
  7.00000000E+02  2.40000000E+01  0.00000000E+00
  7.00000000E+02  2.20000000E+01  0.00000000E+00
  7.00000000E+02  2.00000000E+01  0.00000000E+00
  7.00000000E+02  1.80000000E+01  0.00000000E+00
  7.00000000E+02  1.60000000E+01  0.00000000E+00
  7.00000000E+02  1.40000000E+01  0.00000000E+00
  7.00000000E+02  1.20000000E+01  0.00000000E+00
  7.00000000E+02  1.00000000E+01  0.00000000E+00
  7.00000000E+02  8.00000000E+00  0.00000000E+00
  7.00000000E+02  6.00000000E+00  0.00000000E+00
  7.00000000E+02  4.00000000E+00  0.00000000E+00
  7.00000000E+02  2.00000000E+00  0.00000000E+00
  7.00000000E+02 -3.33066907E-14  0.00000000E+00
  7.10000000E+02  1.00000000E+02  0.00000000E+00
  7.10000000E+02  9.80000000E+01  0.00000000E+00
  7.10000000E+02  9.60000000E+01  0.00000000E+00
  7.10000000E+02  9.40000000E+01  0.00000000E+00
  7.10000000E+02  9.20000000E+01  0.00000000E+00
  7.10000000E+02  9.00000000E+01  0.00000000E+00
  7.10000000E+02  8.80000000E+01  0.00000000E+00
  7.10000000E+02  8.60000000E+01  0.00000000E+00
  7.10000000E+02  8.40000000E+01  0.00000000E+00
  7.10000000E+02  8.20000000E+01  0.00000000E+00
  7.10000000E+02  8.00000000E+01  0.00000000E+00
  7.10000000E+02  7.80000000E+01  0.00000000E+00
  7.10000000E+02  7.60000000E+01  0.00000000E+00
  7.10000000E+02  7.40000000E+01  0.00000000E+00
  7.10000000E+02  7.20000000E+01  0.00000000E+00
  7.10000000E+02  7.00000000E+01  0.00000000E+00
  7.10000000E+02  6.80000000E+01  0.00000000E+00
  7.10000000E+02  6.60000000E+01  0.00000000E+00
  7.10000000E+02  6.40000000E+01  0.00000000E+00
  7.10000000E+02  6.20000000E+01  0.00000000E+00
  7.10000000E+02  6.00000000E+01  0.00000000E+00
  7.10000000E+02  5.80000000E+01  0.00000000E+00
  7.10000000E+02  5.60000000E+01  0.00000000E+00
  7.10000000E+02  5.40000000E+01  0.00000000E+00
  7.10000000E+02  5.20000000E+01  0.00000000E+00
  7.10000000E+02  5.00000000E+01  0.00000000E+00
  7.10000000E+02  4.80000000E+01  0.00000000E+00
  7.10000000E+02  4.60000000E+01  0.00000000E+00
  7.10000000E+02  4.40000000E+01  0.00000000E+00
  7.10000000E+02  4.20000000E+01  0.00000000E+00
  7.10000000E+02  4.00000000E+01  0.00000000E+00
  7.10000000E+02  3.80000000E+01  0.00000000E+00
  7.10000000E+02  3.60000000E+01  0.00000000E+00
  7.10000000E+02  3.40000000E+01  0.00000000E+00
  7.10000000E+02  3.20000000E+01  0.00000000E+00
  7.10000000E+02  3.00000000E+01  0.00000000E+00
  7.10000000E+02  2.80000000E+01  0.00000000E+00
  7.10000000E+02  2.60000000E+01  0.00000000E+00
  7.10000000E+02  2.40000000E+01  0.00000000E+00
  7.10000000E+02  2.20000000E+01  0.00000000E+00
  7.10000000E+02  2.00000000E+01  0.00000000E+00
  7.10000000E+02  1.80000000E+01  0.00000000E+00
  7.10000000E+02  1.60000000E+01  0.00000000E+00
  7.10000000E+02  1.40000000E+01  0.00000000E+00
  7.10000000E+02  1.20000000E+01  0.00000000E+00
  7.10000000E+02  1.00000000E+01  0.00000000E+00
  7.10000000E+02  8.00000000E+00  0.00000000E+00
  7.10000000E+02  6.00000000E+00  0.00000000E+00
  7.10000000E+02  4.00000000E+00  0.00000000E+00
  7.10000000E+02  2.00000000E+00  0.00000000E+00
  7.10000000E+02 -3.33066907E-14  0.00000000E+00
  7.20000000E+02  1.00000000E+02  0.00000000E+00
  7.20000000E+02  9.80000000E+01  0.00000000E+00
  7.20000000E+02  9.60000000E+01  0.00000000E+00
  7.20000000E+02  9.40000000E+01  0.00000000E+00
  7.20000000E+02  9.20000000E+01  0.00000000E+00
  7.20000000E+02  9.00000000E+01  0.00000000E+00
  7.20000000E+02  8.80000000E+01  0.00000000E+00
  7.20000000E+02  8.60000000E+01  0.00000000E+00
  7.20000000E+02  8.40000000E+01  0.00000000E+00
  7.20000000E+02  8.20000000E+01  0.00000000E+00
  7.20000000E+02  8.00000000E+01  0.00000000E+00
  7.20000000E+02  7.80000000E+01  0.00000000E+00
  7.20000000E+02  7.60000000E+01  0.00000000E+00
  7.20000000E+02  7.40000000E+01  0.00000000E+00
  7.20000000E+02  7.20000000E+01  0.00000000E+00
  7.20000000E+02  7.00000000E+01  0.00000000E+00
  7.20000000E+02  6.80000000E+01  0.00000000E+00
  7.20000000E+02  6.60000000E+01  0.00000000E+00
  7.20000000E+02  6.40000000E+01  0.00000000E+00
  7.20000000E+02  6.20000000E+01  0.00000000E+00
  7.20000000E+02  6.00000000E+01  0.00000000E+00
  7.20000000E+02  5.80000000E+01  0.00000000E+00
  7.20000000E+02  5.60000000E+01  0.00000000E+00
  7.20000000E+02  5.40000000E+01  0.00000000E+00
  7.20000000E+02  5.20000000E+01  0.00000000E+00
  7.20000000E+02  5.00000000E+01  0.00000000E+00
  7.20000000E+02  4.80000000E+01  0.00000000E+00
  7.20000000E+02  4.60000000E+01  0.00000000E+00
  7.20000000E+02  4.40000000E+01  0.00000000E+00
  7.20000000E+02  4.20000000E+01  0.00000000E+00
  7.20000000E+02  4.00000000E+01  0.00000000E+00
  7.20000000E+02  3.80000000E+01  0.00000000E+00
  7.20000000E+02  3.60000000E+01  0.00000000E+00
  7.20000000E+02  3.40000000E+01  0.00000000E+00
  7.20000000E+02  3.20000000E+01  0.00000000E+00
  7.20000000E+02  3.00000000E+01  0.00000000E+00
  7.20000000E+02  2.80000000E+01  0.00000000E+00
  7.20000000E+02  2.60000000E+01  0.00000000E+00
  7.20000000E+02  2.40000000E+01  0.00000000E+00
  7.20000000E+02  2.20000000E+01  0.00000000E+00
  7.20000000E+02  2.00000000E+01  0.00000000E+00
  7.20000000E+02  1.80000000E+01  0.00000000E+00
  7.20000000E+02  1.60000000E+01  0.00000000E+00
  7.20000000E+02  1.40000000E+01  0.00000000E+00
  7.20000000E+02  1.20000000E+01  0.00000000E+00
  7.20000000E+02  1.00000000E+01  0.00000000E+00
  7.20000000E+02  8.00000000E+00  0.00000000E+00
  7.20000000E+02  6.00000000E+00  0.00000000E+00
  7.20000000E+02  4.00000000E+00  0.00000000E+00
  7.20000000E+02  2.00000000E+00  0.00000000E+00
  7.20000000E+02 -3.33066907E-14  0.00000000E+00
  7.30000000E+02  1.00000000E+02  0.00000000E+00
  7.30000000E+02  9.80000000E+01  0.00000000E+00
  7.30000000E+02  9.60000000E+01  0.00000000E+00
  7.30000000E+02  9.40000000E+01  0.00000000E+00
  7.30000000E+02  9.20000000E+01  0.00000000E+00
  7.30000000E+02  9.00000000E+01  0.00000000E+00
  7.30000000E+02  8.80000000E+01  0.00000000E+00
  7.30000000E+02  8.60000000E+01  0.00000000E+00
  7.30000000E+02  8.40000000E+01  0.00000000E+00
  7.30000000E+02  8.20000000E+01  0.00000000E+00
  7.30000000E+02  8.00000000E+01  0.00000000E+00
  7.30000000E+02  7.80000000E+01  0.00000000E+00
  7.30000000E+02  7.60000000E+01  0.00000000E+00
  7.30000000E+02  7.40000000E+01  0.00000000E+00
  7.30000000E+02  7.20000000E+01  0.00000000E+00
  7.30000000E+02  7.00000000E+01  0.00000000E+00
  7.30000000E+02  6.80000000E+01  0.00000000E+00
  7.30000000E+02  6.60000000E+01  0.00000000E+00
  7.30000000E+02  6.40000000E+01  0.00000000E+00
  7.30000000E+02  6.20000000E+01  0.00000000E+00
  7.30000000E+02  6.00000000E+01  0.00000000E+00
  7.30000000E+02  5.80000000E+01  0.00000000E+00
  7.30000000E+02  5.60000000E+01  0.00000000E+00
  7.30000000E+02  5.40000000E+01  0.00000000E+00
  7.30000000E+02  5.20000000E+01  0.00000000E+00
  7.30000000E+02  5.00000000E+01  0.00000000E+00
  7.30000000E+02  4.80000000E+01  0.00000000E+00
  7.30000000E+02  4.60000000E+01  0.00000000E+00
  7.30000000E+02  4.40000000E+01  0.00000000E+00
  7.30000000E+02  4.20000000E+01  0.00000000E+00
  7.30000000E+02  4.00000000E+01  0.00000000E+00
  7.30000000E+02  3.80000000E+01  0.00000000E+00
  7.30000000E+02  3.60000000E+01  0.00000000E+00
  7.30000000E+02  3.40000000E+01  0.00000000E+00
  7.30000000E+02  3.20000000E+01  0.00000000E+00
  7.30000000E+02  3.00000000E+01  0.00000000E+00
  7.30000000E+02  2.80000000E+01  0.00000000E+00
  7.30000000E+02  2.60000000E+01  0.00000000E+00
  7.30000000E+02  2.40000000E+01  0.00000000E+00
  7.30000000E+02  2.20000000E+01  0.00000000E+00
  7.30000000E+02  2.00000000E+01  0.00000000E+00
  7.30000000E+02  1.80000000E+01  0.00000000E+00
  7.30000000E+02  1.60000000E+01  0.00000000E+00
  7.30000000E+02  1.40000000E+01  0.00000000E+00
  7.30000000E+02  1.20000000E+01  0.00000000E+00
  7.30000000E+02  1.00000000E+01  0.00000000E+00
  7.30000000E+02  8.00000000E+00  0.00000000E+00
  7.30000000E+02  6.00000000E+00  0.00000000E+00
  7.30000000E+02  4.00000000E+00  0.00000000E+00
  7.30000000E+02  2.00000000E+00  0.00000000E+00
  7.30000000E+02 -3.33066907E-14  0.00000000E+00
  7.40000000E+02  1.00000000E+02  0.00000000E+00
  7.40000000E+02  9.80000000E+01  0.00000000E+00
  7.40000000E+02  9.60000000E+01  0.00000000E+00
  7.40000000E+02  9.40000000E+01  0.00000000E+00
  7.40000000E+02  9.20000000E+01  0.00000000E+00
  7.40000000E+02  9.00000000E+01  0.00000000E+00
  7.40000000E+02  8.80000000E+01  0.00000000E+00
  7.40000000E+02  8.60000000E+01  0.00000000E+00
  7.40000000E+02  8.40000000E+01  0.00000000E+00
  7.40000000E+02  8.20000000E+01  0.00000000E+00
  7.40000000E+02  8.00000000E+01  0.00000000E+00
  7.40000000E+02  7.80000000E+01  0.00000000E+00
  7.40000000E+02  7.60000000E+01  0.00000000E+00
  7.40000000E+02  7.40000000E+01  0.00000000E+00
  7.40000000E+02  7.20000000E+01  0.00000000E+00
  7.40000000E+02  7.00000000E+01  0.00000000E+00
  7.40000000E+02  6.80000000E+01  0.00000000E+00
  7.40000000E+02  6.60000000E+01  0.00000000E+00
  7.40000000E+02  6.40000000E+01  0.00000000E+00
  7.40000000E+02  6.20000000E+01  0.00000000E+00
  7.40000000E+02  6.00000000E+01  0.00000000E+00
  7.40000000E+02  5.80000000E+01  0.00000000E+00
  7.40000000E+02  5.60000000E+01  0.00000000E+00
  7.40000000E+02  5.40000000E+01  0.00000000E+00
  7.40000000E+02  5.20000000E+01  0.00000000E+00
  7.40000000E+02  5.00000000E+01  0.00000000E+00
  7.40000000E+02  4.80000000E+01  0.00000000E+00
  7.40000000E+02  4.60000000E+01  0.00000000E+00
  7.40000000E+02  4.40000000E+01  0.00000000E+00
  7.40000000E+02  4.20000000E+01  0.00000000E+00
  7.40000000E+02  4.00000000E+01  0.00000000E+00
  7.40000000E+02  3.80000000E+01  0.00000000E+00
  7.40000000E+02  3.60000000E+01  0.00000000E+00
  7.40000000E+02  3.40000000E+01  0.00000000E+00
  7.40000000E+02  3.20000000E+01  0.00000000E+00
  7.40000000E+02  3.00000000E+01  0.00000000E+00
  7.40000000E+02  2.80000000E+01  0.00000000E+00
  7.40000000E+02  2.60000000E+01  0.00000000E+00
  7.40000000E+02  2.40000000E+01  0.00000000E+00
  7.40000000E+02  2.20000000E+01  0.00000000E+00
  7.40000000E+02  2.00000000E+01  0.00000000E+00
  7.40000000E+02  1.80000000E+01  0.00000000E+00
  7.40000000E+02  1.60000000E+01  0.00000000E+00
  7.40000000E+02  1.40000000E+01  0.00000000E+00
  7.40000000E+02  1.20000000E+01  0.00000000E+00
  7.40000000E+02  1.00000000E+01  0.00000000E+00
  7.40000000E+02  8.00000000E+00  0.00000000E+00
  7.40000000E+02  6.00000000E+00  0.00000000E+00
  7.40000000E+02  4.00000000E+00  0.00000000E+00
  7.40000000E+02  2.00000000E+00  0.00000000E+00
  7.40000000E+02 -3.33066907E-14  0.00000000E+00
  7.50000000E+02  1.00000000E+02  0.00000000E+00
  7.50000000E+02  9.80000000E+01  0.00000000E+00
  7.50000000E+02  9.60000000E+01  0.00000000E+00
  7.50000000E+02  9.40000000E+01  0.00000000E+00
  7.50000000E+02  9.20000000E+01  0.00000000E+00
  7.50000000E+02  9.00000000E+01  0.00000000E+00
  7.50000000E+02  8.80000000E+01  0.00000000E+00
  7.50000000E+02  8.60000000E+01  0.00000000E+00
  7.50000000E+02  8.40000000E+01  0.00000000E+00
  7.50000000E+02  8.20000000E+01  0.00000000E+00
  7.50000000E+02  8.00000000E+01  0.00000000E+00
  7.50000000E+02  7.80000000E+01  0.00000000E+00
  7.50000000E+02  7.60000000E+01  0.00000000E+00
  7.50000000E+02  7.40000000E+01  0.00000000E+00
  7.50000000E+02  7.20000000E+01  0.00000000E+00
  7.50000000E+02  7.00000000E+01  0.00000000E+00
  7.50000000E+02  6.80000000E+01  0.00000000E+00
  7.50000000E+02  6.60000000E+01  0.00000000E+00
  7.50000000E+02  6.40000000E+01  0.00000000E+00
  7.50000000E+02  6.20000000E+01  0.00000000E+00
  7.50000000E+02  6.00000000E+01  0.00000000E+00
  7.50000000E+02  5.80000000E+01  0.00000000E+00
  7.50000000E+02  5.60000000E+01  0.00000000E+00
  7.50000000E+02  5.40000000E+01  0.00000000E+00
  7.50000000E+02  5.20000000E+01  0.00000000E+00
  7.50000000E+02  5.00000000E+01  0.00000000E+00
  7.50000000E+02  4.80000000E+01  0.00000000E+00
  7.50000000E+02  4.60000000E+01  0.00000000E+00
  7.50000000E+02  4.40000000E+01  0.00000000E+00
  7.50000000E+02  4.20000000E+01  0.00000000E+00
  7.50000000E+02  4.00000000E+01  0.00000000E+00
  7.50000000E+02  3.80000000E+01  0.00000000E+00
  7.50000000E+02  3.60000000E+01  0.00000000E+00
  7.50000000E+02  3.40000000E+01  0.00000000E+00
  7.50000000E+02  3.20000000E+01  0.00000000E+00
  7.50000000E+02  3.00000000E+01  0.00000000E+00
  7.50000000E+02  2.80000000E+01  0.00000000E+00
  7.50000000E+02  2.60000000E+01  0.00000000E+00
  7.50000000E+02  2.40000000E+01  0.00000000E+00
  7.50000000E+02  2.20000000E+01  0.00000000E+00
  7.50000000E+02  2.00000000E+01  0.00000000E+00
  7.50000000E+02  1.80000000E+01  0.00000000E+00
  7.50000000E+02  1.60000000E+01  0.00000000E+00
  7.50000000E+02  1.40000000E+01  0.00000000E+00
  7.50000000E+02  1.20000000E+01  0.00000000E+00
  7.50000000E+02  1.00000000E+01  0.00000000E+00
  7.50000000E+02  8.00000000E+00  0.00000000E+00
  7.50000000E+02  6.00000000E+00  0.00000000E+00
  7.50000000E+02  4.00000000E+00  0.00000000E+00
  7.50000000E+02  2.00000000E+00  0.00000000E+00
  7.50000000E+02 -3.33066907E-14  0.00000000E+00
  7.60000000E+02  1.00000000E+02  0.00000000E+00
  7.60000000E+02  9.80000000E+01  0.00000000E+00
  7.60000000E+02  9.60000000E+01  0.00000000E+00
  7.60000000E+02  9.40000000E+01  0.00000000E+00
  7.60000000E+02  9.20000000E+01  0.00000000E+00
  7.60000000E+02  9.00000000E+01  0.00000000E+00
  7.60000000E+02  8.80000000E+01  0.00000000E+00
  7.60000000E+02  8.60000000E+01  0.00000000E+00
  7.60000000E+02  8.40000000E+01  0.00000000E+00
  7.60000000E+02  8.20000000E+01  0.00000000E+00
  7.60000000E+02  8.00000000E+01  0.00000000E+00
  7.60000000E+02  7.80000000E+01  0.00000000E+00
  7.60000000E+02  7.60000000E+01  0.00000000E+00
  7.60000000E+02  7.40000000E+01  0.00000000E+00
  7.60000000E+02  7.20000000E+01  0.00000000E+00
  7.60000000E+02  7.00000000E+01  0.00000000E+00
  7.60000000E+02  6.80000000E+01  0.00000000E+00
  7.60000000E+02  6.60000000E+01  0.00000000E+00
  7.60000000E+02  6.40000000E+01  0.00000000E+00
  7.60000000E+02  6.20000000E+01  0.00000000E+00
  7.60000000E+02  6.00000000E+01  0.00000000E+00
  7.60000000E+02  5.80000000E+01  0.00000000E+00
  7.60000000E+02  5.60000000E+01  0.00000000E+00
  7.60000000E+02  5.40000000E+01  0.00000000E+00
  7.60000000E+02  5.20000000E+01  0.00000000E+00
  7.60000000E+02  5.00000000E+01  0.00000000E+00
  7.60000000E+02  4.80000000E+01  0.00000000E+00
  7.60000000E+02  4.60000000E+01  0.00000000E+00
  7.60000000E+02  4.40000000E+01  0.00000000E+00
  7.60000000E+02  4.20000000E+01  0.00000000E+00
  7.60000000E+02  4.00000000E+01  0.00000000E+00
  7.60000000E+02  3.80000000E+01  0.00000000E+00
  7.60000000E+02  3.60000000E+01  0.00000000E+00
  7.60000000E+02  3.40000000E+01  0.00000000E+00
  7.60000000E+02  3.20000000E+01  0.00000000E+00
  7.60000000E+02  3.00000000E+01  0.00000000E+00
  7.60000000E+02  2.80000000E+01  0.00000000E+00
  7.60000000E+02  2.60000000E+01  0.00000000E+00
  7.60000000E+02  2.40000000E+01  0.00000000E+00
  7.60000000E+02  2.20000000E+01  0.00000000E+00
  7.60000000E+02  2.00000000E+01  0.00000000E+00
  7.60000000E+02  1.80000000E+01  0.00000000E+00
  7.60000000E+02  1.60000000E+01  0.00000000E+00
  7.60000000E+02  1.40000000E+01  0.00000000E+00
  7.60000000E+02  1.20000000E+01  0.00000000E+00
  7.60000000E+02  1.00000000E+01  0.00000000E+00
  7.60000000E+02  8.00000000E+00  0.00000000E+00
  7.60000000E+02  6.00000000E+00  0.00000000E+00
  7.60000000E+02  4.00000000E+00  0.00000000E+00
  7.60000000E+02  2.00000000E+00  0.00000000E+00
  7.60000000E+02 -3.33066907E-14  0.00000000E+00
  7.70000000E+02  1.00000000E+02  0.00000000E+00
  7.70000000E+02  9.80000000E+01  0.00000000E+00
  7.70000000E+02  9.60000000E+01  0.00000000E+00
  7.70000000E+02  9.40000000E+01  0.00000000E+00
  7.70000000E+02  9.20000000E+01  0.00000000E+00
  7.70000000E+02  9.00000000E+01  0.00000000E+00
  7.70000000E+02  8.80000000E+01  0.00000000E+00
  7.70000000E+02  8.60000000E+01  0.00000000E+00
  7.70000000E+02  8.40000000E+01  0.00000000E+00
  7.70000000E+02  8.20000000E+01  0.00000000E+00
  7.70000000E+02  8.00000000E+01  0.00000000E+00
  7.70000000E+02  7.80000000E+01  0.00000000E+00
  7.70000000E+02  7.60000000E+01  0.00000000E+00
  7.70000000E+02  7.40000000E+01  0.00000000E+00
  7.70000000E+02  7.20000000E+01  0.00000000E+00
  7.70000000E+02  7.00000000E+01  0.00000000E+00
  7.70000000E+02  6.80000000E+01  0.00000000E+00
  7.70000000E+02  6.60000000E+01  0.00000000E+00
  7.70000000E+02  6.40000000E+01  0.00000000E+00
  7.70000000E+02  6.20000000E+01  0.00000000E+00
  7.70000000E+02  6.00000000E+01  0.00000000E+00
  7.70000000E+02  5.80000000E+01  0.00000000E+00
  7.70000000E+02  5.60000000E+01  0.00000000E+00
  7.70000000E+02  5.40000000E+01  0.00000000E+00
  7.70000000E+02  5.20000000E+01  0.00000000E+00
  7.70000000E+02  5.00000000E+01  0.00000000E+00
  7.70000000E+02  4.80000000E+01  0.00000000E+00
  7.70000000E+02  4.60000000E+01  0.00000000E+00
  7.70000000E+02  4.40000000E+01  0.00000000E+00
  7.70000000E+02  4.20000000E+01  0.00000000E+00
  7.70000000E+02  4.00000000E+01  0.00000000E+00
  7.70000000E+02  3.80000000E+01  0.00000000E+00
  7.70000000E+02  3.60000000E+01  0.00000000E+00
  7.70000000E+02  3.40000000E+01  0.00000000E+00
  7.70000000E+02  3.20000000E+01  0.00000000E+00
  7.70000000E+02  3.00000000E+01  0.00000000E+00
  7.70000000E+02  2.80000000E+01  0.00000000E+00
  7.70000000E+02  2.60000000E+01  0.00000000E+00
  7.70000000E+02  2.40000000E+01  0.00000000E+00
  7.70000000E+02  2.20000000E+01  0.00000000E+00
  7.70000000E+02  2.00000000E+01  0.00000000E+00
  7.70000000E+02  1.80000000E+01  0.00000000E+00
  7.70000000E+02  1.60000000E+01  0.00000000E+00
  7.70000000E+02  1.40000000E+01  0.00000000E+00
  7.70000000E+02  1.20000000E+01  0.00000000E+00
  7.70000000E+02  1.00000000E+01  0.00000000E+00
  7.70000000E+02  8.00000000E+00  0.00000000E+00
  7.70000000E+02  6.00000000E+00  0.00000000E+00
  7.70000000E+02  4.00000000E+00  0.00000000E+00
  7.70000000E+02  2.00000000E+00  0.00000000E+00
  7.70000000E+02 -3.33066907E-14  0.00000000E+00
  7.80000000E+02  1.00000000E+02  0.00000000E+00
  7.80000000E+02  9.80000000E+01  0.00000000E+00
  7.80000000E+02  9.60000000E+01  0.00000000E+00
  7.80000000E+02  9.40000000E+01  0.00000000E+00
  7.80000000E+02  9.20000000E+01  0.00000000E+00
  7.80000000E+02  9.00000000E+01  0.00000000E+00
  7.80000000E+02  8.80000000E+01  0.00000000E+00
  7.80000000E+02  8.60000000E+01  0.00000000E+00
  7.80000000E+02  8.40000000E+01  0.00000000E+00
  7.80000000E+02  8.20000000E+01  0.00000000E+00
  7.80000000E+02  8.00000000E+01  0.00000000E+00
  7.80000000E+02  7.80000000E+01  0.00000000E+00
  7.80000000E+02  7.60000000E+01  0.00000000E+00
  7.80000000E+02  7.40000000E+01  0.00000000E+00
  7.80000000E+02  7.20000000E+01  0.00000000E+00
  7.80000000E+02  7.00000000E+01  0.00000000E+00
  7.80000000E+02  6.80000000E+01  0.00000000E+00
  7.80000000E+02  6.60000000E+01  0.00000000E+00
  7.80000000E+02  6.40000000E+01  0.00000000E+00
  7.80000000E+02  6.20000000E+01  0.00000000E+00
  7.80000000E+02  6.00000000E+01  0.00000000E+00
  7.80000000E+02  5.80000000E+01  0.00000000E+00
  7.80000000E+02  5.60000000E+01  0.00000000E+00
  7.80000000E+02  5.40000000E+01  0.00000000E+00
  7.80000000E+02  5.20000000E+01  0.00000000E+00
  7.80000000E+02  5.00000000E+01  0.00000000E+00
  7.80000000E+02  4.80000000E+01  0.00000000E+00
  7.80000000E+02  4.60000000E+01  0.00000000E+00
  7.80000000E+02  4.40000000E+01  0.00000000E+00
  7.80000000E+02  4.20000000E+01  0.00000000E+00
  7.80000000E+02  4.00000000E+01  0.00000000E+00
  7.80000000E+02  3.80000000E+01  0.00000000E+00
  7.80000000E+02  3.60000000E+01  0.00000000E+00
  7.80000000E+02  3.40000000E+01  0.00000000E+00
  7.80000000E+02  3.20000000E+01  0.00000000E+00
  7.80000000E+02  3.00000000E+01  0.00000000E+00
  7.80000000E+02  2.80000000E+01  0.00000000E+00
  7.80000000E+02  2.60000000E+01  0.00000000E+00
  7.80000000E+02  2.40000000E+01  0.00000000E+00
  7.80000000E+02  2.20000000E+01  0.00000000E+00
  7.80000000E+02  2.00000000E+01  0.00000000E+00
  7.80000000E+02  1.80000000E+01  0.00000000E+00
  7.80000000E+02  1.60000000E+01  0.00000000E+00
  7.80000000E+02  1.40000000E+01  0.00000000E+00
  7.80000000E+02  1.20000000E+01  0.00000000E+00
  7.80000000E+02  1.00000000E+01  0.00000000E+00
  7.80000000E+02  8.00000000E+00  0.00000000E+00
  7.80000000E+02  6.00000000E+00  0.00000000E+00
  7.80000000E+02  4.00000000E+00  0.00000000E+00
  7.80000000E+02  2.00000000E+00  0.00000000E+00
  7.80000000E+02 -3.33066907E-14  0.00000000E+00
  7.90000000E+02  1.00000000E+02  0.00000000E+00
  7.90000000E+02  9.80000000E+01  0.00000000E+00
  7.90000000E+02  9.60000000E+01  0.00000000E+00
  7.90000000E+02  9.40000000E+01  0.00000000E+00
  7.90000000E+02  9.20000000E+01  0.00000000E+00
  7.90000000E+02  9.00000000E+01  0.00000000E+00
  7.90000000E+02  8.80000000E+01  0.00000000E+00
  7.90000000E+02  8.60000000E+01  0.00000000E+00
  7.90000000E+02  8.40000000E+01  0.00000000E+00
  7.90000000E+02  8.20000000E+01  0.00000000E+00
  7.90000000E+02  8.00000000E+01  0.00000000E+00
  7.90000000E+02  7.80000000E+01  0.00000000E+00
  7.90000000E+02  7.60000000E+01  0.00000000E+00
  7.90000000E+02  7.40000000E+01  0.00000000E+00
  7.90000000E+02  7.20000000E+01  0.00000000E+00
  7.90000000E+02  7.00000000E+01  0.00000000E+00
  7.90000000E+02  6.80000000E+01  0.00000000E+00
  7.90000000E+02  6.60000000E+01  0.00000000E+00
  7.90000000E+02  6.40000000E+01  0.00000000E+00
  7.90000000E+02  6.20000000E+01  0.00000000E+00
  7.90000000E+02  6.00000000E+01  0.00000000E+00
  7.90000000E+02  5.80000000E+01  0.00000000E+00
  7.90000000E+02  5.60000000E+01  0.00000000E+00
  7.90000000E+02  5.40000000E+01  0.00000000E+00
  7.90000000E+02  5.20000000E+01  0.00000000E+00
  7.90000000E+02  5.00000000E+01  0.00000000E+00
  7.90000000E+02  4.80000000E+01  0.00000000E+00
  7.90000000E+02  4.60000000E+01  0.00000000E+00
  7.90000000E+02  4.40000000E+01  0.00000000E+00
  7.90000000E+02  4.20000000E+01  0.00000000E+00
  7.90000000E+02  4.00000000E+01  0.00000000E+00
  7.90000000E+02  3.80000000E+01  0.00000000E+00
  7.90000000E+02  3.60000000E+01  0.00000000E+00
  7.90000000E+02  3.40000000E+01  0.00000000E+00
  7.90000000E+02  3.20000000E+01  0.00000000E+00
  7.90000000E+02  3.00000000E+01  0.00000000E+00
  7.90000000E+02  2.80000000E+01  0.00000000E+00
  7.90000000E+02  2.60000000E+01  0.00000000E+00
  7.90000000E+02  2.40000000E+01  0.00000000E+00
  7.90000000E+02  2.20000000E+01  0.00000000E+00
  7.90000000E+02  2.00000000E+01  0.00000000E+00
  7.90000000E+02  1.80000000E+01  0.00000000E+00
  7.90000000E+02  1.60000000E+01  0.00000000E+00
  7.90000000E+02  1.40000000E+01  0.00000000E+00
  7.90000000E+02  1.20000000E+01  0.00000000E+00
  7.90000000E+02  1.00000000E+01  0.00000000E+00
  7.90000000E+02  8.00000000E+00  0.00000000E+00
  7.90000000E+02  6.00000000E+00  0.00000000E+00
  7.90000000E+02  4.00000000E+00  0.00000000E+00
  7.90000000E+02  2.00000000E+00  0.00000000E+00
  7.90000000E+02 -3.33066907E-14  0.00000000E+00
  8.00000000E+02  1.00000000E+02  0.00000000E+00
  8.00000000E+02  9.80000000E+01  0.00000000E+00
  8.00000000E+02  9.60000000E+01  0.00000000E+00
  8.00000000E+02  9.40000000E+01  0.00000000E+00
  8.00000000E+02  9.20000000E+01  0.00000000E+00
  8.00000000E+02  9.00000000E+01  0.00000000E+00
  8.00000000E+02  8.80000000E+01  0.00000000E+00
  8.00000000E+02  8.60000000E+01  0.00000000E+00
  8.00000000E+02  8.40000000E+01  0.00000000E+00
  8.00000000E+02  8.20000000E+01  0.00000000E+00
  8.00000000E+02  8.00000000E+01  0.00000000E+00
  8.00000000E+02  7.80000000E+01  0.00000000E+00
  8.00000000E+02  7.60000000E+01  0.00000000E+00
  8.00000000E+02  7.40000000E+01  0.00000000E+00
  8.00000000E+02  7.20000000E+01  0.00000000E+00
  8.00000000E+02  7.00000000E+01  0.00000000E+00
  8.00000000E+02  6.80000000E+01  0.00000000E+00
  8.00000000E+02  6.60000000E+01  0.00000000E+00
  8.00000000E+02  6.40000000E+01  0.00000000E+00
  8.00000000E+02  6.20000000E+01  0.00000000E+00
  8.00000000E+02  6.00000000E+01  0.00000000E+00
  8.00000000E+02  5.80000000E+01  0.00000000E+00
  8.00000000E+02  5.60000000E+01  0.00000000E+00
  8.00000000E+02  5.40000000E+01  0.00000000E+00
  8.00000000E+02  5.20000000E+01  0.00000000E+00
  8.00000000E+02  5.00000000E+01  0.00000000E+00
  8.00000000E+02  4.80000000E+01  0.00000000E+00
  8.00000000E+02  4.60000000E+01  0.00000000E+00
  8.00000000E+02  4.40000000E+01  0.00000000E+00
  8.00000000E+02  4.20000000E+01  0.00000000E+00
  8.00000000E+02  4.00000000E+01  0.00000000E+00
  8.00000000E+02  3.80000000E+01  0.00000000E+00
  8.00000000E+02  3.60000000E+01  0.00000000E+00
  8.00000000E+02  3.40000000E+01  0.00000000E+00
  8.00000000E+02  3.20000000E+01  0.00000000E+00
  8.00000000E+02  3.00000000E+01  0.00000000E+00
  8.00000000E+02  2.80000000E+01  0.00000000E+00
  8.00000000E+02  2.60000000E+01  0.00000000E+00
  8.00000000E+02  2.40000000E+01  0.00000000E+00
  8.00000000E+02  2.20000000E+01  0.00000000E+00
  8.00000000E+02  2.00000000E+01  0.00000000E+00
  8.00000000E+02  1.80000000E+01  0.00000000E+00
  8.00000000E+02  1.60000000E+01  0.00000000E+00
  8.00000000E+02  1.40000000E+01  0.00000000E+00
  8.00000000E+02  1.20000000E+01  0.00000000E+00
  8.00000000E+02  1.00000000E+01  0.00000000E+00
  8.00000000E+02  8.00000000E+00  0.00000000E+00
  8.00000000E+02  6.00000000E+00  0.00000000E+00
  8.00000000E+02  4.00000000E+00  0.00000000E+00
  8.00000000E+02  2.00000000E+00  0.00000000E+00
  8.00000000E+02 -3.33066907E-14  0.00000000E+00
  8.10000000E+02  1.00000000E+02  0.00000000E+00
  8.10000000E+02  9.80000000E+01  0.00000000E+00
  8.10000000E+02  9.60000000E+01  0.00000000E+00
  8.10000000E+02  9.40000000E+01  0.00000000E+00
  8.10000000E+02  9.20000000E+01  0.00000000E+00
  8.10000000E+02  9.00000000E+01  0.00000000E+00
  8.10000000E+02  8.80000000E+01  0.00000000E+00
  8.10000000E+02  8.60000000E+01  0.00000000E+00
  8.10000000E+02  8.40000000E+01  0.00000000E+00
  8.10000000E+02  8.20000000E+01  0.00000000E+00
  8.10000000E+02  8.00000000E+01  0.00000000E+00
  8.10000000E+02  7.80000000E+01  0.00000000E+00
  8.10000000E+02  7.60000000E+01  0.00000000E+00
  8.10000000E+02  7.40000000E+01  0.00000000E+00
  8.10000000E+02  7.20000000E+01  0.00000000E+00
  8.10000000E+02  7.00000000E+01  0.00000000E+00
  8.10000000E+02  6.80000000E+01  0.00000000E+00
  8.10000000E+02  6.60000000E+01  0.00000000E+00
  8.10000000E+02  6.40000000E+01  0.00000000E+00
  8.10000000E+02  6.20000000E+01  0.00000000E+00
  8.10000000E+02  6.00000000E+01  0.00000000E+00
  8.10000000E+02  5.80000000E+01  0.00000000E+00
  8.10000000E+02  5.60000000E+01  0.00000000E+00
  8.10000000E+02  5.40000000E+01  0.00000000E+00
  8.10000000E+02  5.20000000E+01  0.00000000E+00
  8.10000000E+02  5.00000000E+01  0.00000000E+00
  8.10000000E+02  4.80000000E+01  0.00000000E+00
  8.10000000E+02  4.60000000E+01  0.00000000E+00
  8.10000000E+02  4.40000000E+01  0.00000000E+00
  8.10000000E+02  4.20000000E+01  0.00000000E+00
  8.10000000E+02  4.00000000E+01  0.00000000E+00
  8.10000000E+02  3.80000000E+01  0.00000000E+00
  8.10000000E+02  3.60000000E+01  0.00000000E+00
  8.10000000E+02  3.40000000E+01  0.00000000E+00
  8.10000000E+02  3.20000000E+01  0.00000000E+00
  8.10000000E+02  3.00000000E+01  0.00000000E+00
  8.10000000E+02  2.80000000E+01  0.00000000E+00
  8.10000000E+02  2.60000000E+01  0.00000000E+00
  8.10000000E+02  2.40000000E+01  0.00000000E+00
  8.10000000E+02  2.20000000E+01  0.00000000E+00
  8.10000000E+02  2.00000000E+01  0.00000000E+00
  8.10000000E+02  1.80000000E+01  0.00000000E+00
  8.10000000E+02  1.60000000E+01  0.00000000E+00
  8.10000000E+02  1.40000000E+01  0.00000000E+00
  8.10000000E+02  1.20000000E+01  0.00000000E+00
  8.10000000E+02  1.00000000E+01  0.00000000E+00
  8.10000000E+02  8.00000000E+00  0.00000000E+00
  8.10000000E+02  6.00000000E+00  0.00000000E+00
  8.10000000E+02  4.00000000E+00  0.00000000E+00
  8.10000000E+02  2.00000000E+00  0.00000000E+00
  8.10000000E+02 -3.33066907E-14  0.00000000E+00
  8.20000000E+02  1.00000000E+02  0.00000000E+00
  8.20000000E+02  9.80000000E+01  0.00000000E+00
  8.20000000E+02  9.60000000E+01  0.00000000E+00
  8.20000000E+02  9.40000000E+01  0.00000000E+00
  8.20000000E+02  9.20000000E+01  0.00000000E+00
  8.20000000E+02  9.00000000E+01  0.00000000E+00
  8.20000000E+02  8.80000000E+01  0.00000000E+00
  8.20000000E+02  8.60000000E+01  0.00000000E+00
  8.20000000E+02  8.40000000E+01  0.00000000E+00
  8.20000000E+02  8.20000000E+01  0.00000000E+00
  8.20000000E+02  8.00000000E+01  0.00000000E+00
  8.20000000E+02  7.80000000E+01  0.00000000E+00
  8.20000000E+02  7.60000000E+01  0.00000000E+00
  8.20000000E+02  7.40000000E+01  0.00000000E+00
  8.20000000E+02  7.20000000E+01  0.00000000E+00
  8.20000000E+02  7.00000000E+01  0.00000000E+00
  8.20000000E+02  6.80000000E+01  0.00000000E+00
  8.20000000E+02  6.60000000E+01  0.00000000E+00
  8.20000000E+02  6.40000000E+01  0.00000000E+00
  8.20000000E+02  6.20000000E+01  0.00000000E+00
  8.20000000E+02  6.00000000E+01  0.00000000E+00
  8.20000000E+02  5.80000000E+01  0.00000000E+00
  8.20000000E+02  5.60000000E+01  0.00000000E+00
  8.20000000E+02  5.40000000E+01  0.00000000E+00
  8.20000000E+02  5.20000000E+01  0.00000000E+00
  8.20000000E+02  5.00000000E+01  0.00000000E+00
  8.20000000E+02  4.80000000E+01  0.00000000E+00
  8.20000000E+02  4.60000000E+01  0.00000000E+00
  8.20000000E+02  4.40000000E+01  0.00000000E+00
  8.20000000E+02  4.20000000E+01  0.00000000E+00
  8.20000000E+02  4.00000000E+01  0.00000000E+00
  8.20000000E+02  3.80000000E+01  0.00000000E+00
  8.20000000E+02  3.60000000E+01  0.00000000E+00
  8.20000000E+02  3.40000000E+01  0.00000000E+00
  8.20000000E+02  3.20000000E+01  0.00000000E+00
  8.20000000E+02  3.00000000E+01  0.00000000E+00
  8.20000000E+02  2.80000000E+01  0.00000000E+00
  8.20000000E+02  2.60000000E+01  0.00000000E+00
  8.20000000E+02  2.40000000E+01  0.00000000E+00
  8.20000000E+02  2.20000000E+01  0.00000000E+00
  8.20000000E+02  2.00000000E+01  0.00000000E+00
  8.20000000E+02  1.80000000E+01  0.00000000E+00
  8.20000000E+02  1.60000000E+01  0.00000000E+00
  8.20000000E+02  1.40000000E+01  0.00000000E+00
  8.20000000E+02  1.20000000E+01  0.00000000E+00
  8.20000000E+02  1.00000000E+01  0.00000000E+00
  8.20000000E+02  8.00000000E+00  0.00000000E+00
  8.20000000E+02  6.00000000E+00  0.00000000E+00
  8.20000000E+02  4.00000000E+00  0.00000000E+00
  8.20000000E+02  2.00000000E+00  0.00000000E+00
  8.20000000E+02 -3.33066907E-14  0.00000000E+00
  8.30000000E+02  1.00000000E+02  0.00000000E+00
  8.30000000E+02  9.80000000E+01  0.00000000E+00
  8.30000000E+02  9.60000000E+01  0.00000000E+00
  8.30000000E+02  9.40000000E+01  0.00000000E+00
  8.30000000E+02  9.20000000E+01  0.00000000E+00
  8.30000000E+02  9.00000000E+01  0.00000000E+00
  8.30000000E+02  8.80000000E+01  0.00000000E+00
  8.30000000E+02  8.60000000E+01  0.00000000E+00
  8.30000000E+02  8.40000000E+01  0.00000000E+00
  8.30000000E+02  8.20000000E+01  0.00000000E+00
  8.30000000E+02  8.00000000E+01  0.00000000E+00
  8.30000000E+02  7.80000000E+01  0.00000000E+00
  8.30000000E+02  7.60000000E+01  0.00000000E+00
  8.30000000E+02  7.40000000E+01  0.00000000E+00
  8.30000000E+02  7.20000000E+01  0.00000000E+00
  8.30000000E+02  7.00000000E+01  0.00000000E+00
  8.30000000E+02  6.80000000E+01  0.00000000E+00
  8.30000000E+02  6.60000000E+01  0.00000000E+00
  8.30000000E+02  6.40000000E+01  0.00000000E+00
  8.30000000E+02  6.20000000E+01  0.00000000E+00
  8.30000000E+02  6.00000000E+01  0.00000000E+00
  8.30000000E+02  5.80000000E+01  0.00000000E+00
  8.30000000E+02  5.60000000E+01  0.00000000E+00
  8.30000000E+02  5.40000000E+01  0.00000000E+00
  8.30000000E+02  5.20000000E+01  0.00000000E+00
  8.30000000E+02  5.00000000E+01  0.00000000E+00
  8.30000000E+02  4.80000000E+01  0.00000000E+00
  8.30000000E+02  4.60000000E+01  0.00000000E+00
  8.30000000E+02  4.40000000E+01  0.00000000E+00
  8.30000000E+02  4.20000000E+01  0.00000000E+00
  8.30000000E+02  4.00000000E+01  0.00000000E+00
  8.30000000E+02  3.80000000E+01  0.00000000E+00
  8.30000000E+02  3.60000000E+01  0.00000000E+00
  8.30000000E+02  3.40000000E+01  0.00000000E+00
  8.30000000E+02  3.20000000E+01  0.00000000E+00
  8.30000000E+02  3.00000000E+01  0.00000000E+00
  8.30000000E+02  2.80000000E+01  0.00000000E+00
  8.30000000E+02  2.60000000E+01  0.00000000E+00
  8.30000000E+02  2.40000000E+01  0.00000000E+00
  8.30000000E+02  2.20000000E+01  0.00000000E+00
  8.30000000E+02  2.00000000E+01  0.00000000E+00
  8.30000000E+02  1.80000000E+01  0.00000000E+00
  8.30000000E+02  1.60000000E+01  0.00000000E+00
  8.30000000E+02  1.40000000E+01  0.00000000E+00
  8.30000000E+02  1.20000000E+01  0.00000000E+00
  8.30000000E+02  1.00000000E+01  0.00000000E+00
  8.30000000E+02  8.00000000E+00  0.00000000E+00
  8.30000000E+02  6.00000000E+00  0.00000000E+00
  8.30000000E+02  4.00000000E+00  0.00000000E+00
  8.30000000E+02  2.00000000E+00  0.00000000E+00
  8.30000000E+02 -3.33066907E-14  0.00000000E+00
  8.40000000E+02  1.00000000E+02  0.00000000E+00
  8.40000000E+02  9.80000000E+01  0.00000000E+00
  8.40000000E+02  9.60000000E+01  0.00000000E+00
  8.40000000E+02  9.40000000E+01  0.00000000E+00
  8.40000000E+02  9.20000000E+01  0.00000000E+00
  8.40000000E+02  9.00000000E+01  0.00000000E+00
  8.40000000E+02  8.80000000E+01  0.00000000E+00
  8.40000000E+02  8.60000000E+01  0.00000000E+00
  8.40000000E+02  8.40000000E+01  0.00000000E+00
  8.40000000E+02  8.20000000E+01  0.00000000E+00
  8.40000000E+02  8.00000000E+01  0.00000000E+00
  8.40000000E+02  7.80000000E+01  0.00000000E+00
  8.40000000E+02  7.60000000E+01  0.00000000E+00
  8.40000000E+02  7.40000000E+01  0.00000000E+00
  8.40000000E+02  7.20000000E+01  0.00000000E+00
  8.40000000E+02  7.00000000E+01  0.00000000E+00
  8.40000000E+02  6.80000000E+01  0.00000000E+00
  8.40000000E+02  6.60000000E+01  0.00000000E+00
  8.40000000E+02  6.40000000E+01  0.00000000E+00
  8.40000000E+02  6.20000000E+01  0.00000000E+00
  8.40000000E+02  6.00000000E+01  0.00000000E+00
  8.40000000E+02  5.80000000E+01  0.00000000E+00
  8.40000000E+02  5.60000000E+01  0.00000000E+00
  8.40000000E+02  5.40000000E+01  0.00000000E+00
  8.40000000E+02  5.20000000E+01  0.00000000E+00
  8.40000000E+02  5.00000000E+01  0.00000000E+00
  8.40000000E+02  4.80000000E+01  0.00000000E+00
  8.40000000E+02  4.60000000E+01  0.00000000E+00
  8.40000000E+02  4.40000000E+01  0.00000000E+00
  8.40000000E+02  4.20000000E+01  0.00000000E+00
  8.40000000E+02  4.00000000E+01  0.00000000E+00
  8.40000000E+02  3.80000000E+01  0.00000000E+00
  8.40000000E+02  3.60000000E+01  0.00000000E+00
  8.40000000E+02  3.40000000E+01  0.00000000E+00
  8.40000000E+02  3.20000000E+01  0.00000000E+00
  8.40000000E+02  3.00000000E+01  0.00000000E+00
  8.40000000E+02  2.80000000E+01  0.00000000E+00
  8.40000000E+02  2.60000000E+01  0.00000000E+00
  8.40000000E+02  2.40000000E+01  0.00000000E+00
  8.40000000E+02  2.20000000E+01  0.00000000E+00
  8.40000000E+02  2.00000000E+01  0.00000000E+00
  8.40000000E+02  1.80000000E+01  0.00000000E+00
  8.40000000E+02  1.60000000E+01  0.00000000E+00
  8.40000000E+02  1.40000000E+01  0.00000000E+00
  8.40000000E+02  1.20000000E+01  0.00000000E+00
  8.40000000E+02  1.00000000E+01  0.00000000E+00
  8.40000000E+02  8.00000000E+00  0.00000000E+00
  8.40000000E+02  6.00000000E+00  0.00000000E+00
  8.40000000E+02  4.00000000E+00  0.00000000E+00
  8.40000000E+02  2.00000000E+00  0.00000000E+00
  8.40000000E+02 -3.33066907E-14  0.00000000E+00
  8.50000000E+02  1.00000000E+02  0.00000000E+00
  8.50000000E+02  9.80000000E+01  0.00000000E+00
  8.50000000E+02  9.60000000E+01  0.00000000E+00
  8.50000000E+02  9.40000000E+01  0.00000000E+00
  8.50000000E+02  9.20000000E+01  0.00000000E+00
  8.50000000E+02  9.00000000E+01  0.00000000E+00
  8.50000000E+02  8.80000000E+01  0.00000000E+00
  8.50000000E+02  8.60000000E+01  0.00000000E+00
  8.50000000E+02  8.40000000E+01  0.00000000E+00
  8.50000000E+02  8.20000000E+01  0.00000000E+00
  8.50000000E+02  8.00000000E+01  0.00000000E+00
  8.50000000E+02  7.80000000E+01  0.00000000E+00
  8.50000000E+02  7.60000000E+01  0.00000000E+00
  8.50000000E+02  7.40000000E+01  0.00000000E+00
  8.50000000E+02  7.20000000E+01  0.00000000E+00
  8.50000000E+02  7.00000000E+01  0.00000000E+00
  8.50000000E+02  6.80000000E+01  0.00000000E+00
  8.50000000E+02  6.60000000E+01  0.00000000E+00
  8.50000000E+02  6.40000000E+01  0.00000000E+00
  8.50000000E+02  6.20000000E+01  0.00000000E+00
  8.50000000E+02  6.00000000E+01  0.00000000E+00
  8.50000000E+02  5.80000000E+01  0.00000000E+00
  8.50000000E+02  5.60000000E+01  0.00000000E+00
  8.50000000E+02  5.40000000E+01  0.00000000E+00
  8.50000000E+02  5.20000000E+01  0.00000000E+00
  8.50000000E+02  5.00000000E+01  0.00000000E+00
  8.50000000E+02  4.80000000E+01  0.00000000E+00
  8.50000000E+02  4.60000000E+01  0.00000000E+00
  8.50000000E+02  4.40000000E+01  0.00000000E+00
  8.50000000E+02  4.20000000E+01  0.00000000E+00
  8.50000000E+02  4.00000000E+01  0.00000000E+00
  8.50000000E+02  3.80000000E+01  0.00000000E+00
  8.50000000E+02  3.60000000E+01  0.00000000E+00
  8.50000000E+02  3.40000000E+01  0.00000000E+00
  8.50000000E+02  3.20000000E+01  0.00000000E+00
  8.50000000E+02  3.00000000E+01  0.00000000E+00
  8.50000000E+02  2.80000000E+01  0.00000000E+00
  8.50000000E+02  2.60000000E+01  0.00000000E+00
  8.50000000E+02  2.40000000E+01  0.00000000E+00
  8.50000000E+02  2.20000000E+01  0.00000000E+00
  8.50000000E+02  2.00000000E+01  0.00000000E+00
  8.50000000E+02  1.80000000E+01  0.00000000E+00
  8.50000000E+02  1.60000000E+01  0.00000000E+00
  8.50000000E+02  1.40000000E+01  0.00000000E+00
  8.50000000E+02  1.20000000E+01  0.00000000E+00
  8.50000000E+02  1.00000000E+01  0.00000000E+00
  8.50000000E+02  8.00000000E+00  0.00000000E+00
  8.50000000E+02  6.00000000E+00  0.00000000E+00
  8.50000000E+02  4.00000000E+00  0.00000000E+00
  8.50000000E+02  2.00000000E+00  0.00000000E+00
  8.50000000E+02 -3.33066907E-14  0.00000000E+00
  8.60000000E+02  1.00000000E+02  0.00000000E+00
  8.60000000E+02  9.80000000E+01  0.00000000E+00
  8.60000000E+02  9.60000000E+01  0.00000000E+00
  8.60000000E+02  9.40000000E+01  0.00000000E+00
  8.60000000E+02  9.20000000E+01  0.00000000E+00
  8.60000000E+02  9.00000000E+01  0.00000000E+00
  8.60000000E+02  8.80000000E+01  0.00000000E+00
  8.60000000E+02  8.60000000E+01  0.00000000E+00
  8.60000000E+02  8.40000000E+01  0.00000000E+00
  8.60000000E+02  8.20000000E+01  0.00000000E+00
  8.60000000E+02  8.00000000E+01  0.00000000E+00
  8.60000000E+02  7.80000000E+01  0.00000000E+00
  8.60000000E+02  7.60000000E+01  0.00000000E+00
  8.60000000E+02  7.40000000E+01  0.00000000E+00
  8.60000000E+02  7.20000000E+01  0.00000000E+00
  8.60000000E+02  7.00000000E+01  0.00000000E+00
  8.60000000E+02  6.80000000E+01  0.00000000E+00
  8.60000000E+02  6.60000000E+01  0.00000000E+00
  8.60000000E+02  6.40000000E+01  0.00000000E+00
  8.60000000E+02  6.20000000E+01  0.00000000E+00
  8.60000000E+02  6.00000000E+01  0.00000000E+00
  8.60000000E+02  5.80000000E+01  0.00000000E+00
  8.60000000E+02  5.60000000E+01  0.00000000E+00
  8.60000000E+02  5.40000000E+01  0.00000000E+00
  8.60000000E+02  5.20000000E+01  0.00000000E+00
  8.60000000E+02  5.00000000E+01  0.00000000E+00
  8.60000000E+02  4.80000000E+01  0.00000000E+00
  8.60000000E+02  4.60000000E+01  0.00000000E+00
  8.60000000E+02  4.40000000E+01  0.00000000E+00
  8.60000000E+02  4.20000000E+01  0.00000000E+00
  8.60000000E+02  4.00000000E+01  0.00000000E+00
  8.60000000E+02  3.80000000E+01  0.00000000E+00
  8.60000000E+02  3.60000000E+01  0.00000000E+00
  8.60000000E+02  3.40000000E+01  0.00000000E+00
  8.60000000E+02  3.20000000E+01  0.00000000E+00
  8.60000000E+02  3.00000000E+01  0.00000000E+00
  8.60000000E+02  2.80000000E+01  0.00000000E+00
  8.60000000E+02  2.60000000E+01  0.00000000E+00
  8.60000000E+02  2.40000000E+01  0.00000000E+00
  8.60000000E+02  2.20000000E+01  0.00000000E+00
  8.60000000E+02  2.00000000E+01  0.00000000E+00
  8.60000000E+02  1.80000000E+01  0.00000000E+00
  8.60000000E+02  1.60000000E+01  0.00000000E+00
  8.60000000E+02  1.40000000E+01  0.00000000E+00
  8.60000000E+02  1.20000000E+01  0.00000000E+00
  8.60000000E+02  1.00000000E+01  0.00000000E+00
  8.60000000E+02  8.00000000E+00  0.00000000E+00
  8.60000000E+02  6.00000000E+00  0.00000000E+00
  8.60000000E+02  4.00000000E+00  0.00000000E+00
  8.60000000E+02  2.00000000E+00  0.00000000E+00
  8.60000000E+02 -3.33066907E-14  0.00000000E+00
  8.70000000E+02  1.00000000E+02  0.00000000E+00
  8.70000000E+02  9.80000000E+01  0.00000000E+00
  8.70000000E+02  9.60000000E+01  0.00000000E+00
  8.70000000E+02  9.40000000E+01  0.00000000E+00
  8.70000000E+02  9.20000000E+01  0.00000000E+00
  8.70000000E+02  9.00000000E+01  0.00000000E+00
  8.70000000E+02  8.80000000E+01  0.00000000E+00
  8.70000000E+02  8.60000000E+01  0.00000000E+00
  8.70000000E+02  8.40000000E+01  0.00000000E+00
  8.70000000E+02  8.20000000E+01  0.00000000E+00
  8.70000000E+02  8.00000000E+01  0.00000000E+00
  8.70000000E+02  7.80000000E+01  0.00000000E+00
  8.70000000E+02  7.60000000E+01  0.00000000E+00
  8.70000000E+02  7.40000000E+01  0.00000000E+00
  8.70000000E+02  7.20000000E+01  0.00000000E+00
  8.70000000E+02  7.00000000E+01  0.00000000E+00
  8.70000000E+02  6.80000000E+01  0.00000000E+00
  8.70000000E+02  6.60000000E+01  0.00000000E+00
  8.70000000E+02  6.40000000E+01  0.00000000E+00
  8.70000000E+02  6.20000000E+01  0.00000000E+00
  8.70000000E+02  6.00000000E+01  0.00000000E+00
  8.70000000E+02  5.80000000E+01  0.00000000E+00
  8.70000000E+02  5.60000000E+01  0.00000000E+00
  8.70000000E+02  5.40000000E+01  0.00000000E+00
  8.70000000E+02  5.20000000E+01  0.00000000E+00
  8.70000000E+02  5.00000000E+01  0.00000000E+00
  8.70000000E+02  4.80000000E+01  0.00000000E+00
  8.70000000E+02  4.60000000E+01  0.00000000E+00
  8.70000000E+02  4.40000000E+01  0.00000000E+00
  8.70000000E+02  4.20000000E+01  0.00000000E+00
  8.70000000E+02  4.00000000E+01  0.00000000E+00
  8.70000000E+02  3.80000000E+01  0.00000000E+00
  8.70000000E+02  3.60000000E+01  0.00000000E+00
  8.70000000E+02  3.40000000E+01  0.00000000E+00
  8.70000000E+02  3.20000000E+01  0.00000000E+00
  8.70000000E+02  3.00000000E+01  0.00000000E+00
  8.70000000E+02  2.80000000E+01  0.00000000E+00
  8.70000000E+02  2.60000000E+01  0.00000000E+00
  8.70000000E+02  2.40000000E+01  0.00000000E+00
  8.70000000E+02  2.20000000E+01  0.00000000E+00
  8.70000000E+02  2.00000000E+01  0.00000000E+00
  8.70000000E+02  1.80000000E+01  0.00000000E+00
  8.70000000E+02  1.60000000E+01  0.00000000E+00
  8.70000000E+02  1.40000000E+01  0.00000000E+00
  8.70000000E+02  1.20000000E+01  0.00000000E+00
  8.70000000E+02  1.00000000E+01  0.00000000E+00
  8.70000000E+02  8.00000000E+00  0.00000000E+00
  8.70000000E+02  6.00000000E+00  0.00000000E+00
  8.70000000E+02  4.00000000E+00  0.00000000E+00
  8.70000000E+02  2.00000000E+00  0.00000000E+00
  8.70000000E+02 -3.33066907E-14  0.00000000E+00
  8.80000000E+02  1.00000000E+02  0.00000000E+00
  8.80000000E+02  9.80000000E+01  0.00000000E+00
  8.80000000E+02  9.60000000E+01  0.00000000E+00
  8.80000000E+02  9.40000000E+01  0.00000000E+00
  8.80000000E+02  9.20000000E+01  0.00000000E+00
  8.80000000E+02  9.00000000E+01  0.00000000E+00
  8.80000000E+02  8.80000000E+01  0.00000000E+00
  8.80000000E+02  8.60000000E+01  0.00000000E+00
  8.80000000E+02  8.40000000E+01  0.00000000E+00
  8.80000000E+02  8.20000000E+01  0.00000000E+00
  8.80000000E+02  8.00000000E+01  0.00000000E+00
  8.80000000E+02  7.80000000E+01  0.00000000E+00
  8.80000000E+02  7.60000000E+01  0.00000000E+00
  8.80000000E+02  7.40000000E+01  0.00000000E+00
  8.80000000E+02  7.20000000E+01  0.00000000E+00
  8.80000000E+02  7.00000000E+01  0.00000000E+00
  8.80000000E+02  6.80000000E+01  0.00000000E+00
  8.80000000E+02  6.60000000E+01  0.00000000E+00
  8.80000000E+02  6.40000000E+01  0.00000000E+00
  8.80000000E+02  6.20000000E+01  0.00000000E+00
  8.80000000E+02  6.00000000E+01  0.00000000E+00
  8.80000000E+02  5.80000000E+01  0.00000000E+00
  8.80000000E+02  5.60000000E+01  0.00000000E+00
  8.80000000E+02  5.40000000E+01  0.00000000E+00
  8.80000000E+02  5.20000000E+01  0.00000000E+00
  8.80000000E+02  5.00000000E+01  0.00000000E+00
  8.80000000E+02  4.80000000E+01  0.00000000E+00
  8.80000000E+02  4.60000000E+01  0.00000000E+00
  8.80000000E+02  4.40000000E+01  0.00000000E+00
  8.80000000E+02  4.20000000E+01  0.00000000E+00
  8.80000000E+02  4.00000000E+01  0.00000000E+00
  8.80000000E+02  3.80000000E+01  0.00000000E+00
  8.80000000E+02  3.60000000E+01  0.00000000E+00
  8.80000000E+02  3.40000000E+01  0.00000000E+00
  8.80000000E+02  3.20000000E+01  0.00000000E+00
  8.80000000E+02  3.00000000E+01  0.00000000E+00
  8.80000000E+02  2.80000000E+01  0.00000000E+00
  8.80000000E+02  2.60000000E+01  0.00000000E+00
  8.80000000E+02  2.40000000E+01  0.00000000E+00
  8.80000000E+02  2.20000000E+01  0.00000000E+00
  8.80000000E+02  2.00000000E+01  0.00000000E+00
  8.80000000E+02  1.80000000E+01  0.00000000E+00
  8.80000000E+02  1.60000000E+01  0.00000000E+00
  8.80000000E+02  1.40000000E+01  0.00000000E+00
  8.80000000E+02  1.20000000E+01  0.00000000E+00
  8.80000000E+02  1.00000000E+01  0.00000000E+00
  8.80000000E+02  8.00000000E+00  0.00000000E+00
  8.80000000E+02  6.00000000E+00  0.00000000E+00
  8.80000000E+02  4.00000000E+00  0.00000000E+00
  8.80000000E+02  2.00000000E+00  0.00000000E+00
  8.80000000E+02 -3.33066907E-14  0.00000000E+00
  8.90000000E+02  1.00000000E+02  0.00000000E+00
  8.90000000E+02  9.80000000E+01  0.00000000E+00
  8.90000000E+02  9.60000000E+01  0.00000000E+00
  8.90000000E+02  9.40000000E+01  0.00000000E+00
  8.90000000E+02  9.20000000E+01  0.00000000E+00
  8.90000000E+02  9.00000000E+01  0.00000000E+00
  8.90000000E+02  8.80000000E+01  0.00000000E+00
  8.90000000E+02  8.60000000E+01  0.00000000E+00
  8.90000000E+02  8.40000000E+01  0.00000000E+00
  8.90000000E+02  8.20000000E+01  0.00000000E+00
  8.90000000E+02  8.00000000E+01  0.00000000E+00
  8.90000000E+02  7.80000000E+01  0.00000000E+00
  8.90000000E+02  7.60000000E+01  0.00000000E+00
  8.90000000E+02  7.40000000E+01  0.00000000E+00
  8.90000000E+02  7.20000000E+01  0.00000000E+00
  8.90000000E+02  7.00000000E+01  0.00000000E+00
  8.90000000E+02  6.80000000E+01  0.00000000E+00
  8.90000000E+02  6.60000000E+01  0.00000000E+00
  8.90000000E+02  6.40000000E+01  0.00000000E+00
  8.90000000E+02  6.20000000E+01  0.00000000E+00
  8.90000000E+02  6.00000000E+01  0.00000000E+00
  8.90000000E+02  5.80000000E+01  0.00000000E+00
  8.90000000E+02  5.60000000E+01  0.00000000E+00
  8.90000000E+02  5.40000000E+01  0.00000000E+00
  8.90000000E+02  5.20000000E+01  0.00000000E+00
  8.90000000E+02  5.00000000E+01  0.00000000E+00
  8.90000000E+02  4.80000000E+01  0.00000000E+00
  8.90000000E+02  4.60000000E+01  0.00000000E+00
  8.90000000E+02  4.40000000E+01  0.00000000E+00
  8.90000000E+02  4.20000000E+01  0.00000000E+00
  8.90000000E+02  4.00000000E+01  0.00000000E+00
  8.90000000E+02  3.80000000E+01  0.00000000E+00
  8.90000000E+02  3.60000000E+01  0.00000000E+00
  8.90000000E+02  3.40000000E+01  0.00000000E+00
  8.90000000E+02  3.20000000E+01  0.00000000E+00
  8.90000000E+02  3.00000000E+01  0.00000000E+00
  8.90000000E+02  2.80000000E+01  0.00000000E+00
  8.90000000E+02  2.60000000E+01  0.00000000E+00
  8.90000000E+02  2.40000000E+01  0.00000000E+00
  8.90000000E+02  2.20000000E+01  0.00000000E+00
  8.90000000E+02  2.00000000E+01  0.00000000E+00
  8.90000000E+02  1.80000000E+01  0.00000000E+00
  8.90000000E+02  1.60000000E+01  0.00000000E+00
  8.90000000E+02  1.40000000E+01  0.00000000E+00
  8.90000000E+02  1.20000000E+01  0.00000000E+00
  8.90000000E+02  1.00000000E+01  0.00000000E+00
  8.90000000E+02  8.00000000E+00  0.00000000E+00
  8.90000000E+02  6.00000000E+00  0.00000000E+00
  8.90000000E+02  4.00000000E+00  0.00000000E+00
  8.90000000E+02  2.00000000E+00  0.00000000E+00
  8.90000000E+02 -3.33066907E-14  0.00000000E+00
  9.00000000E+02  1.00000000E+02  0.00000000E+00
  9.00000000E+02  9.80000000E+01  0.00000000E+00
  9.00000000E+02  9.60000000E+01  0.00000000E+00
  9.00000000E+02  9.40000000E+01  0.00000000E+00
  9.00000000E+02  9.20000000E+01  0.00000000E+00
  9.00000000E+02  9.00000000E+01  0.00000000E+00
  9.00000000E+02  8.80000000E+01  0.00000000E+00
  9.00000000E+02  8.60000000E+01  0.00000000E+00
  9.00000000E+02  8.40000000E+01  0.00000000E+00
  9.00000000E+02  8.20000000E+01  0.00000000E+00
  9.00000000E+02  8.00000000E+01  0.00000000E+00
  9.00000000E+02  7.80000000E+01  0.00000000E+00
  9.00000000E+02  7.60000000E+01  0.00000000E+00
  9.00000000E+02  7.40000000E+01  0.00000000E+00
  9.00000000E+02  7.20000000E+01  0.00000000E+00
  9.00000000E+02  7.00000000E+01  0.00000000E+00
  9.00000000E+02  6.80000000E+01  0.00000000E+00
  9.00000000E+02  6.60000000E+01  0.00000000E+00
  9.00000000E+02  6.40000000E+01  0.00000000E+00
  9.00000000E+02  6.20000000E+01  0.00000000E+00
  9.00000000E+02  6.00000000E+01  0.00000000E+00
  9.00000000E+02  5.80000000E+01  0.00000000E+00
  9.00000000E+02  5.60000000E+01  0.00000000E+00
  9.00000000E+02  5.40000000E+01  0.00000000E+00
  9.00000000E+02  5.20000000E+01  0.00000000E+00
  9.00000000E+02  5.00000000E+01  0.00000000E+00
  9.00000000E+02  4.80000000E+01  0.00000000E+00
  9.00000000E+02  4.60000000E+01  0.00000000E+00
  9.00000000E+02  4.40000000E+01  0.00000000E+00
  9.00000000E+02  4.20000000E+01  0.00000000E+00
  9.00000000E+02  4.00000000E+01  0.00000000E+00
  9.00000000E+02  3.80000000E+01  0.00000000E+00
  9.00000000E+02  3.60000000E+01  0.00000000E+00
  9.00000000E+02  3.40000000E+01  0.00000000E+00
  9.00000000E+02  3.20000000E+01  0.00000000E+00
  9.00000000E+02  3.00000000E+01  0.00000000E+00
  9.00000000E+02  2.80000000E+01  0.00000000E+00
  9.00000000E+02  2.60000000E+01  0.00000000E+00
  9.00000000E+02  2.40000000E+01  0.00000000E+00
  9.00000000E+02  2.20000000E+01  0.00000000E+00
  9.00000000E+02  2.00000000E+01  0.00000000E+00
  9.00000000E+02  1.80000000E+01  0.00000000E+00
  9.00000000E+02  1.60000000E+01  0.00000000E+00
  9.00000000E+02  1.40000000E+01  0.00000000E+00
  9.00000000E+02  1.20000000E+01  0.00000000E+00
  9.00000000E+02  1.00000000E+01  0.00000000E+00
  9.00000000E+02  8.00000000E+00  0.00000000E+00
  9.00000000E+02  6.00000000E+00  0.00000000E+00
  9.00000000E+02  4.00000000E+00  0.00000000E+00
  9.00000000E+02  2.00000000E+00  0.00000000E+00
  9.00000000E+02 -3.33066907E-14  0.00000000E+00
  9.10000000E+02  1.00000000E+02  0.00000000E+00
  9.10000000E+02  9.80000000E+01  0.00000000E+00
  9.10000000E+02  9.60000000E+01  0.00000000E+00
  9.10000000E+02  9.40000000E+01  0.00000000E+00
  9.10000000E+02  9.20000000E+01  0.00000000E+00
  9.10000000E+02  9.00000000E+01  0.00000000E+00
  9.10000000E+02  8.80000000E+01  0.00000000E+00
  9.10000000E+02  8.60000000E+01  0.00000000E+00
  9.10000000E+02  8.40000000E+01  0.00000000E+00
  9.10000000E+02  8.20000000E+01  0.00000000E+00
  9.10000000E+02  8.00000000E+01  0.00000000E+00
  9.10000000E+02  7.80000000E+01  0.00000000E+00
  9.10000000E+02  7.60000000E+01  0.00000000E+00
  9.10000000E+02  7.40000000E+01  0.00000000E+00
  9.10000000E+02  7.20000000E+01  0.00000000E+00
  9.10000000E+02  7.00000000E+01  0.00000000E+00
  9.10000000E+02  6.80000000E+01  0.00000000E+00
  9.10000000E+02  6.60000000E+01  0.00000000E+00
  9.10000000E+02  6.40000000E+01  0.00000000E+00
  9.10000000E+02  6.20000000E+01  0.00000000E+00
  9.10000000E+02  6.00000000E+01  0.00000000E+00
  9.10000000E+02  5.80000000E+01  0.00000000E+00
  9.10000000E+02  5.60000000E+01  0.00000000E+00
  9.10000000E+02  5.40000000E+01  0.00000000E+00
  9.10000000E+02  5.20000000E+01  0.00000000E+00
  9.10000000E+02  5.00000000E+01  0.00000000E+00
  9.10000000E+02  4.80000000E+01  0.00000000E+00
  9.10000000E+02  4.60000000E+01  0.00000000E+00
  9.10000000E+02  4.40000000E+01  0.00000000E+00
  9.10000000E+02  4.20000000E+01  0.00000000E+00
  9.10000000E+02  4.00000000E+01  0.00000000E+00
  9.10000000E+02  3.80000000E+01  0.00000000E+00
  9.10000000E+02  3.60000000E+01  0.00000000E+00
  9.10000000E+02  3.40000000E+01  0.00000000E+00
  9.10000000E+02  3.20000000E+01  0.00000000E+00
  9.10000000E+02  3.00000000E+01  0.00000000E+00
  9.10000000E+02  2.80000000E+01  0.00000000E+00
  9.10000000E+02  2.60000000E+01  0.00000000E+00
  9.10000000E+02  2.40000000E+01  0.00000000E+00
  9.10000000E+02  2.20000000E+01  0.00000000E+00
  9.10000000E+02  2.00000000E+01  0.00000000E+00
  9.10000000E+02  1.80000000E+01  0.00000000E+00
  9.10000000E+02  1.60000000E+01  0.00000000E+00
  9.10000000E+02  1.40000000E+01  0.00000000E+00
  9.10000000E+02  1.20000000E+01  0.00000000E+00
  9.10000000E+02  1.00000000E+01  0.00000000E+00
  9.10000000E+02  8.00000000E+00  0.00000000E+00
  9.10000000E+02  6.00000000E+00  0.00000000E+00
  9.10000000E+02  4.00000000E+00  0.00000000E+00
  9.10000000E+02  2.00000000E+00  0.00000000E+00
  9.10000000E+02 -3.33066907E-14  0.00000000E+00
  9.20000000E+02  1.00000000E+02  0.00000000E+00
  9.20000000E+02  9.80000000E+01  0.00000000E+00
  9.20000000E+02  9.60000000E+01  0.00000000E+00
  9.20000000E+02  9.40000000E+01  0.00000000E+00
  9.20000000E+02  9.20000000E+01  0.00000000E+00
  9.20000000E+02  9.00000000E+01  0.00000000E+00
  9.20000000E+02  8.80000000E+01  0.00000000E+00
  9.20000000E+02  8.60000000E+01  0.00000000E+00
  9.20000000E+02  8.40000000E+01  0.00000000E+00
  9.20000000E+02  8.20000000E+01  0.00000000E+00
  9.20000000E+02  8.00000000E+01  0.00000000E+00
  9.20000000E+02  7.80000000E+01  0.00000000E+00
  9.20000000E+02  7.60000000E+01  0.00000000E+00
  9.20000000E+02  7.40000000E+01  0.00000000E+00
  9.20000000E+02  7.20000000E+01  0.00000000E+00
  9.20000000E+02  7.00000000E+01  0.00000000E+00
  9.20000000E+02  6.80000000E+01  0.00000000E+00
  9.20000000E+02  6.60000000E+01  0.00000000E+00
  9.20000000E+02  6.40000000E+01  0.00000000E+00
  9.20000000E+02  6.20000000E+01  0.00000000E+00
  9.20000000E+02  6.00000000E+01  0.00000000E+00
  9.20000000E+02  5.80000000E+01  0.00000000E+00
  9.20000000E+02  5.60000000E+01  0.00000000E+00
  9.20000000E+02  5.40000000E+01  0.00000000E+00
  9.20000000E+02  5.20000000E+01  0.00000000E+00
  9.20000000E+02  5.00000000E+01  0.00000000E+00
  9.20000000E+02  4.80000000E+01  0.00000000E+00
  9.20000000E+02  4.60000000E+01  0.00000000E+00
  9.20000000E+02  4.40000000E+01  0.00000000E+00
  9.20000000E+02  4.20000000E+01  0.00000000E+00
  9.20000000E+02  4.00000000E+01  0.00000000E+00
  9.20000000E+02  3.80000000E+01  0.00000000E+00
  9.20000000E+02  3.60000000E+01  0.00000000E+00
  9.20000000E+02  3.40000000E+01  0.00000000E+00
  9.20000000E+02  3.20000000E+01  0.00000000E+00
  9.20000000E+02  3.00000000E+01  0.00000000E+00
  9.20000000E+02  2.80000000E+01  0.00000000E+00
  9.20000000E+02  2.60000000E+01  0.00000000E+00
  9.20000000E+02  2.40000000E+01  0.00000000E+00
  9.20000000E+02  2.20000000E+01  0.00000000E+00
  9.20000000E+02  2.00000000E+01  0.00000000E+00
  9.20000000E+02  1.80000000E+01  0.00000000E+00
  9.20000000E+02  1.60000000E+01  0.00000000E+00
  9.20000000E+02  1.40000000E+01  0.00000000E+00
  9.20000000E+02  1.20000000E+01  0.00000000E+00
  9.20000000E+02  1.00000000E+01  0.00000000E+00
  9.20000000E+02  8.00000000E+00  0.00000000E+00
  9.20000000E+02  6.00000000E+00  0.00000000E+00
  9.20000000E+02  4.00000000E+00  0.00000000E+00
  9.20000000E+02  2.00000000E+00  0.00000000E+00
  9.20000000E+02 -3.33066907E-14  0.00000000E+00
  9.30000000E+02  1.00000000E+02  0.00000000E+00
  9.30000000E+02  9.80000000E+01  0.00000000E+00
  9.30000000E+02  9.60000000E+01  0.00000000E+00
  9.30000000E+02  9.40000000E+01  0.00000000E+00
  9.30000000E+02  9.20000000E+01  0.00000000E+00
  9.30000000E+02  9.00000000E+01  0.00000000E+00
  9.30000000E+02  8.80000000E+01  0.00000000E+00
  9.30000000E+02  8.60000000E+01  0.00000000E+00
  9.30000000E+02  8.40000000E+01  0.00000000E+00
  9.30000000E+02  8.20000000E+01  0.00000000E+00
  9.30000000E+02  8.00000000E+01  0.00000000E+00
  9.30000000E+02  7.80000000E+01  0.00000000E+00
  9.30000000E+02  7.60000000E+01  0.00000000E+00
  9.30000000E+02  7.40000000E+01  0.00000000E+00
  9.30000000E+02  7.20000000E+01  0.00000000E+00
  9.30000000E+02  7.00000000E+01  0.00000000E+00
  9.30000000E+02  6.80000000E+01  0.00000000E+00
  9.30000000E+02  6.60000000E+01  0.00000000E+00
  9.30000000E+02  6.40000000E+01  0.00000000E+00
  9.30000000E+02  6.20000000E+01  0.00000000E+00
  9.30000000E+02  6.00000000E+01  0.00000000E+00
  9.30000000E+02  5.80000000E+01  0.00000000E+00
  9.30000000E+02  5.60000000E+01  0.00000000E+00
  9.30000000E+02  5.40000000E+01  0.00000000E+00
  9.30000000E+02  5.20000000E+01  0.00000000E+00
  9.30000000E+02  5.00000000E+01  0.00000000E+00
  9.30000000E+02  4.80000000E+01  0.00000000E+00
  9.30000000E+02  4.60000000E+01  0.00000000E+00
  9.30000000E+02  4.40000000E+01  0.00000000E+00
  9.30000000E+02  4.20000000E+01  0.00000000E+00
  9.30000000E+02  4.00000000E+01  0.00000000E+00
  9.30000000E+02  3.80000000E+01  0.00000000E+00
  9.30000000E+02  3.60000000E+01  0.00000000E+00
  9.30000000E+02  3.40000000E+01  0.00000000E+00
  9.30000000E+02  3.20000000E+01  0.00000000E+00
  9.30000000E+02  3.00000000E+01  0.00000000E+00
  9.30000000E+02  2.80000000E+01  0.00000000E+00
  9.30000000E+02  2.60000000E+01  0.00000000E+00
  9.30000000E+02  2.40000000E+01  0.00000000E+00
  9.30000000E+02  2.20000000E+01  0.00000000E+00
  9.30000000E+02  2.00000000E+01  0.00000000E+00
  9.30000000E+02  1.80000000E+01  0.00000000E+00
  9.30000000E+02  1.60000000E+01  0.00000000E+00
  9.30000000E+02  1.40000000E+01  0.00000000E+00
  9.30000000E+02  1.20000000E+01  0.00000000E+00
  9.30000000E+02  1.00000000E+01  0.00000000E+00
  9.30000000E+02  8.00000000E+00  0.00000000E+00
  9.30000000E+02  6.00000000E+00  0.00000000E+00
  9.30000000E+02  4.00000000E+00  0.00000000E+00
  9.30000000E+02  2.00000000E+00  0.00000000E+00
  9.30000000E+02 -3.33066907E-14  0.00000000E+00
  9.40000000E+02  1.00000000E+02  0.00000000E+00
  9.40000000E+02  9.80000000E+01  0.00000000E+00
  9.40000000E+02  9.60000000E+01  0.00000000E+00
  9.40000000E+02  9.40000000E+01  0.00000000E+00
  9.40000000E+02  9.20000000E+01  0.00000000E+00
  9.40000000E+02  9.00000000E+01  0.00000000E+00
  9.40000000E+02  8.80000000E+01  0.00000000E+00
  9.40000000E+02  8.60000000E+01  0.00000000E+00
  9.40000000E+02  8.40000000E+01  0.00000000E+00
  9.40000000E+02  8.20000000E+01  0.00000000E+00
  9.40000000E+02  8.00000000E+01  0.00000000E+00
  9.40000000E+02  7.80000000E+01  0.00000000E+00
  9.40000000E+02  7.60000000E+01  0.00000000E+00
  9.40000000E+02  7.40000000E+01  0.00000000E+00
  9.40000000E+02  7.20000000E+01  0.00000000E+00
  9.40000000E+02  7.00000000E+01  0.00000000E+00
  9.40000000E+02  6.80000000E+01  0.00000000E+00
  9.40000000E+02  6.60000000E+01  0.00000000E+00
  9.40000000E+02  6.40000000E+01  0.00000000E+00
  9.40000000E+02  6.20000000E+01  0.00000000E+00
  9.40000000E+02  6.00000000E+01  0.00000000E+00
  9.40000000E+02  5.80000000E+01  0.00000000E+00
  9.40000000E+02  5.60000000E+01  0.00000000E+00
  9.40000000E+02  5.40000000E+01  0.00000000E+00
  9.40000000E+02  5.20000000E+01  0.00000000E+00
  9.40000000E+02  5.00000000E+01  0.00000000E+00
  9.40000000E+02  4.80000000E+01  0.00000000E+00
  9.40000000E+02  4.60000000E+01  0.00000000E+00
  9.40000000E+02  4.40000000E+01  0.00000000E+00
  9.40000000E+02  4.20000000E+01  0.00000000E+00
  9.40000000E+02  4.00000000E+01  0.00000000E+00
  9.40000000E+02  3.80000000E+01  0.00000000E+00
  9.40000000E+02  3.60000000E+01  0.00000000E+00
  9.40000000E+02  3.40000000E+01  0.00000000E+00
  9.40000000E+02  3.20000000E+01  0.00000000E+00
  9.40000000E+02  3.00000000E+01  0.00000000E+00
  9.40000000E+02  2.80000000E+01  0.00000000E+00
  9.40000000E+02  2.60000000E+01  0.00000000E+00
  9.40000000E+02  2.40000000E+01  0.00000000E+00
  9.40000000E+02  2.20000000E+01  0.00000000E+00
  9.40000000E+02  2.00000000E+01  0.00000000E+00
  9.40000000E+02  1.80000000E+01  0.00000000E+00
  9.40000000E+02  1.60000000E+01  0.00000000E+00
  9.40000000E+02  1.40000000E+01  0.00000000E+00
  9.40000000E+02  1.20000000E+01  0.00000000E+00
  9.40000000E+02  1.00000000E+01  0.00000000E+00
  9.40000000E+02  8.00000000E+00  0.00000000E+00
  9.40000000E+02  6.00000000E+00  0.00000000E+00
  9.40000000E+02  4.00000000E+00  0.00000000E+00
  9.40000000E+02  2.00000000E+00  0.00000000E+00
  9.40000000E+02 -3.33066907E-14  0.00000000E+00
  9.50000000E+02  1.00000000E+02  0.00000000E+00
  9.50000000E+02  9.80000000E+01  0.00000000E+00
  9.50000000E+02  9.60000000E+01  0.00000000E+00
  9.50000000E+02  9.40000000E+01  0.00000000E+00
  9.50000000E+02  9.20000000E+01  0.00000000E+00
  9.50000000E+02  9.00000000E+01  0.00000000E+00
  9.50000000E+02  8.80000000E+01  0.00000000E+00
  9.50000000E+02  8.60000000E+01  0.00000000E+00
  9.50000000E+02  8.40000000E+01  0.00000000E+00
  9.50000000E+02  8.20000000E+01  0.00000000E+00
  9.50000000E+02  8.00000000E+01  0.00000000E+00
  9.50000000E+02  7.80000000E+01  0.00000000E+00
  9.50000000E+02  7.60000000E+01  0.00000000E+00
  9.50000000E+02  7.40000000E+01  0.00000000E+00
  9.50000000E+02  7.20000000E+01  0.00000000E+00
  9.50000000E+02  7.00000000E+01  0.00000000E+00
  9.50000000E+02  6.80000000E+01  0.00000000E+00
  9.50000000E+02  6.60000000E+01  0.00000000E+00
  9.50000000E+02  6.40000000E+01  0.00000000E+00
  9.50000000E+02  6.20000000E+01  0.00000000E+00
  9.50000000E+02  6.00000000E+01  0.00000000E+00
  9.50000000E+02  5.80000000E+01  0.00000000E+00
  9.50000000E+02  5.60000000E+01  0.00000000E+00
  9.50000000E+02  5.40000000E+01  0.00000000E+00
  9.50000000E+02  5.20000000E+01  0.00000000E+00
  9.50000000E+02  5.00000000E+01  0.00000000E+00
  9.50000000E+02  4.80000000E+01  0.00000000E+00
  9.50000000E+02  4.60000000E+01  0.00000000E+00
  9.50000000E+02  4.40000000E+01  0.00000000E+00
  9.50000000E+02  4.20000000E+01  0.00000000E+00
  9.50000000E+02  4.00000000E+01  0.00000000E+00
  9.50000000E+02  3.80000000E+01  0.00000000E+00
  9.50000000E+02  3.60000000E+01  0.00000000E+00
  9.50000000E+02  3.40000000E+01  0.00000000E+00
  9.50000000E+02  3.20000000E+01  0.00000000E+00
  9.50000000E+02  3.00000000E+01  0.00000000E+00
  9.50000000E+02  2.80000000E+01  0.00000000E+00
  9.50000000E+02  2.60000000E+01  0.00000000E+00
  9.50000000E+02  2.40000000E+01  0.00000000E+00
  9.50000000E+02  2.20000000E+01  0.00000000E+00
  9.50000000E+02  2.00000000E+01  0.00000000E+00
  9.50000000E+02  1.80000000E+01  0.00000000E+00
  9.50000000E+02  1.60000000E+01  0.00000000E+00
  9.50000000E+02  1.40000000E+01  0.00000000E+00
  9.50000000E+02  1.20000000E+01  0.00000000E+00
  9.50000000E+02  1.00000000E+01  0.00000000E+00
  9.50000000E+02  8.00000000E+00  0.00000000E+00
  9.50000000E+02  6.00000000E+00  0.00000000E+00
  9.50000000E+02  4.00000000E+00  0.00000000E+00
  9.50000000E+02  2.00000000E+00  0.00000000E+00
  9.50000000E+02 -3.33066907E-14  0.00000000E+00
  9.60000000E+02  1.00000000E+02  0.00000000E+00
  9.60000000E+02  9.80000000E+01  0.00000000E+00
  9.60000000E+02  9.60000000E+01  0.00000000E+00
  9.60000000E+02  9.40000000E+01  0.00000000E+00
  9.60000000E+02  9.20000000E+01  0.00000000E+00
  9.60000000E+02  9.00000000E+01  0.00000000E+00
  9.60000000E+02  8.80000000E+01  0.00000000E+00
  9.60000000E+02  8.60000000E+01  0.00000000E+00
  9.60000000E+02  8.40000000E+01  0.00000000E+00
  9.60000000E+02  8.20000000E+01  0.00000000E+00
  9.60000000E+02  8.00000000E+01  0.00000000E+00
  9.60000000E+02  7.80000000E+01  0.00000000E+00
  9.60000000E+02  7.60000000E+01  0.00000000E+00
  9.60000000E+02  7.40000000E+01  0.00000000E+00
  9.60000000E+02  7.20000000E+01  0.00000000E+00
  9.60000000E+02  7.00000000E+01  0.00000000E+00
  9.60000000E+02  6.80000000E+01  0.00000000E+00
  9.60000000E+02  6.60000000E+01  0.00000000E+00
  9.60000000E+02  6.40000000E+01  0.00000000E+00
  9.60000000E+02  6.20000000E+01  0.00000000E+00
  9.60000000E+02  6.00000000E+01  0.00000000E+00
  9.60000000E+02  5.80000000E+01  0.00000000E+00
  9.60000000E+02  5.60000000E+01  0.00000000E+00
  9.60000000E+02  5.40000000E+01  0.00000000E+00
  9.60000000E+02  5.20000000E+01  0.00000000E+00
  9.60000000E+02  5.00000000E+01  0.00000000E+00
  9.60000000E+02  4.80000000E+01  0.00000000E+00
  9.60000000E+02  4.60000000E+01  0.00000000E+00
  9.60000000E+02  4.40000000E+01  0.00000000E+00
  9.60000000E+02  4.20000000E+01  0.00000000E+00
  9.60000000E+02  4.00000000E+01  0.00000000E+00
  9.60000000E+02  3.80000000E+01  0.00000000E+00
  9.60000000E+02  3.60000000E+01  0.00000000E+00
  9.60000000E+02  3.40000000E+01  0.00000000E+00
  9.60000000E+02  3.20000000E+01  0.00000000E+00
  9.60000000E+02  3.00000000E+01  0.00000000E+00
  9.60000000E+02  2.80000000E+01  0.00000000E+00
  9.60000000E+02  2.60000000E+01  0.00000000E+00
  9.60000000E+02  2.40000000E+01  0.00000000E+00
  9.60000000E+02  2.20000000E+01  0.00000000E+00
  9.60000000E+02  2.00000000E+01  0.00000000E+00
  9.60000000E+02  1.80000000E+01  0.00000000E+00
  9.60000000E+02  1.60000000E+01  0.00000000E+00
  9.60000000E+02  1.40000000E+01  0.00000000E+00
  9.60000000E+02  1.20000000E+01  0.00000000E+00
  9.60000000E+02  1.00000000E+01  0.00000000E+00
  9.60000000E+02  8.00000000E+00  0.00000000E+00
  9.60000000E+02  6.00000000E+00  0.00000000E+00
  9.60000000E+02  4.00000000E+00  0.00000000E+00
  9.60000000E+02  2.00000000E+00  0.00000000E+00
  9.60000000E+02 -3.33066907E-14  0.00000000E+00
  9.70000000E+02  1.00000000E+02  0.00000000E+00
  9.70000000E+02  9.80000000E+01  0.00000000E+00
  9.70000000E+02  9.60000000E+01  0.00000000E+00
  9.70000000E+02  9.40000000E+01  0.00000000E+00
  9.70000000E+02  9.20000000E+01  0.00000000E+00
  9.70000000E+02  9.00000000E+01  0.00000000E+00
  9.70000000E+02  8.80000000E+01  0.00000000E+00
  9.70000000E+02  8.60000000E+01  0.00000000E+00
  9.70000000E+02  8.40000000E+01  0.00000000E+00
  9.70000000E+02  8.20000000E+01  0.00000000E+00
  9.70000000E+02  8.00000000E+01  0.00000000E+00
  9.70000000E+02  7.80000000E+01  0.00000000E+00
  9.70000000E+02  7.60000000E+01  0.00000000E+00
  9.70000000E+02  7.40000000E+01  0.00000000E+00
  9.70000000E+02  7.20000000E+01  0.00000000E+00
  9.70000000E+02  7.00000000E+01  0.00000000E+00
  9.70000000E+02  6.80000000E+01  0.00000000E+00
  9.70000000E+02  6.60000000E+01  0.00000000E+00
  9.70000000E+02  6.40000000E+01  0.00000000E+00
  9.70000000E+02  6.20000000E+01  0.00000000E+00
  9.70000000E+02  6.00000000E+01  0.00000000E+00
  9.70000000E+02  5.80000000E+01  0.00000000E+00
  9.70000000E+02  5.60000000E+01  0.00000000E+00
  9.70000000E+02  5.40000000E+01  0.00000000E+00
  9.70000000E+02  5.20000000E+01  0.00000000E+00
  9.70000000E+02  5.00000000E+01  0.00000000E+00
  9.70000000E+02  4.80000000E+01  0.00000000E+00
  9.70000000E+02  4.60000000E+01  0.00000000E+00
  9.70000000E+02  4.40000000E+01  0.00000000E+00
  9.70000000E+02  4.20000000E+01  0.00000000E+00
  9.70000000E+02  4.00000000E+01  0.00000000E+00
  9.70000000E+02  3.80000000E+01  0.00000000E+00
  9.70000000E+02  3.60000000E+01  0.00000000E+00
  9.70000000E+02  3.40000000E+01  0.00000000E+00
  9.70000000E+02  3.20000000E+01  0.00000000E+00
  9.70000000E+02  3.00000000E+01  0.00000000E+00
  9.70000000E+02  2.80000000E+01  0.00000000E+00
  9.70000000E+02  2.60000000E+01  0.00000000E+00
  9.70000000E+02  2.40000000E+01  0.00000000E+00
  9.70000000E+02  2.20000000E+01  0.00000000E+00
  9.70000000E+02  2.00000000E+01  0.00000000E+00
  9.70000000E+02  1.80000000E+01  0.00000000E+00
  9.70000000E+02  1.60000000E+01  0.00000000E+00
  9.70000000E+02  1.40000000E+01  0.00000000E+00
  9.70000000E+02  1.20000000E+01  0.00000000E+00
  9.70000000E+02  1.00000000E+01  0.00000000E+00
  9.70000000E+02  8.00000000E+00  0.00000000E+00
  9.70000000E+02  6.00000000E+00  0.00000000E+00
  9.70000000E+02  4.00000000E+00  0.00000000E+00
  9.70000000E+02  2.00000000E+00  0.00000000E+00
  9.70000000E+02 -3.33066907E-14  0.00000000E+00
  9.80000000E+02  1.00000000E+02  0.00000000E+00
  9.80000000E+02  9.80000000E+01  0.00000000E+00
  9.80000000E+02  9.60000000E+01  0.00000000E+00
  9.80000000E+02  9.40000000E+01  0.00000000E+00
  9.80000000E+02  9.20000000E+01  0.00000000E+00
  9.80000000E+02  9.00000000E+01  0.00000000E+00
  9.80000000E+02  8.80000000E+01  0.00000000E+00
  9.80000000E+02  8.60000000E+01  0.00000000E+00
  9.80000000E+02  8.40000000E+01  0.00000000E+00
  9.80000000E+02  8.20000000E+01  0.00000000E+00
  9.80000000E+02  8.00000000E+01  0.00000000E+00
  9.80000000E+02  7.80000000E+01  0.00000000E+00
  9.80000000E+02  7.60000000E+01  0.00000000E+00
  9.80000000E+02  7.40000000E+01  0.00000000E+00
  9.80000000E+02  7.20000000E+01  0.00000000E+00
  9.80000000E+02  7.00000000E+01  0.00000000E+00
  9.80000000E+02  6.80000000E+01  0.00000000E+00
  9.80000000E+02  6.60000000E+01  0.00000000E+00
  9.80000000E+02  6.40000000E+01  0.00000000E+00
  9.80000000E+02  6.20000000E+01  0.00000000E+00
  9.80000000E+02  6.00000000E+01  0.00000000E+00
  9.80000000E+02  5.80000000E+01  0.00000000E+00
  9.80000000E+02  5.60000000E+01  0.00000000E+00
  9.80000000E+02  5.40000000E+01  0.00000000E+00
  9.80000000E+02  5.20000000E+01  0.00000000E+00
  9.80000000E+02  5.00000000E+01  0.00000000E+00
  9.80000000E+02  4.80000000E+01  0.00000000E+00
  9.80000000E+02  4.60000000E+01  0.00000000E+00
  9.80000000E+02  4.40000000E+01  0.00000000E+00
  9.80000000E+02  4.20000000E+01  0.00000000E+00
  9.80000000E+02  4.00000000E+01  0.00000000E+00
  9.80000000E+02  3.80000000E+01  0.00000000E+00
  9.80000000E+02  3.60000000E+01  0.00000000E+00
  9.80000000E+02  3.40000000E+01  0.00000000E+00
  9.80000000E+02  3.20000000E+01  0.00000000E+00
  9.80000000E+02  3.00000000E+01  0.00000000E+00
  9.80000000E+02  2.80000000E+01  0.00000000E+00
  9.80000000E+02  2.60000000E+01  0.00000000E+00
  9.80000000E+02  2.40000000E+01  0.00000000E+00
  9.80000000E+02  2.20000000E+01  0.00000000E+00
  9.80000000E+02  2.00000000E+01  0.00000000E+00
  9.80000000E+02  1.80000000E+01  0.00000000E+00
  9.80000000E+02  1.60000000E+01  0.00000000E+00
  9.80000000E+02  1.40000000E+01  0.00000000E+00
  9.80000000E+02  1.20000000E+01  0.00000000E+00
  9.80000000E+02  1.00000000E+01  0.00000000E+00
  9.80000000E+02  8.00000000E+00  0.00000000E+00
  9.80000000E+02  6.00000000E+00  0.00000000E+00
  9.80000000E+02  4.00000000E+00  0.00000000E+00
  9.80000000E+02  2.00000000E+00  0.00000000E+00
  9.80000000E+02 -3.33066907E-14  0.00000000E+00
  9.90000000E+02  1.00000000E+02  0.00000000E+00
  9.90000000E+02  9.80000000E+01  0.00000000E+00
  9.90000000E+02  9.60000000E+01  0.00000000E+00
  9.90000000E+02  9.40000000E+01  0.00000000E+00
  9.90000000E+02  9.20000000E+01  0.00000000E+00
  9.90000000E+02  9.00000000E+01  0.00000000E+00
  9.90000000E+02  8.80000000E+01  0.00000000E+00
  9.90000000E+02  8.60000000E+01  0.00000000E+00
  9.90000000E+02  8.40000000E+01  0.00000000E+00
  9.90000000E+02  8.20000000E+01  0.00000000E+00
  9.90000000E+02  8.00000000E+01  0.00000000E+00
  9.90000000E+02  7.80000000E+01  0.00000000E+00
  9.90000000E+02  7.60000000E+01  0.00000000E+00
  9.90000000E+02  7.40000000E+01  0.00000000E+00
  9.90000000E+02  7.20000000E+01  0.00000000E+00
  9.90000000E+02  7.00000000E+01  0.00000000E+00
  9.90000000E+02  6.80000000E+01  0.00000000E+00
  9.90000000E+02  6.60000000E+01  0.00000000E+00
  9.90000000E+02  6.40000000E+01  0.00000000E+00
  9.90000000E+02  6.20000000E+01  0.00000000E+00
  9.90000000E+02  6.00000000E+01  0.00000000E+00
  9.90000000E+02  5.80000000E+01  0.00000000E+00
  9.90000000E+02  5.60000000E+01  0.00000000E+00
  9.90000000E+02  5.40000000E+01  0.00000000E+00
  9.90000000E+02  5.20000000E+01  0.00000000E+00
  9.90000000E+02  5.00000000E+01  0.00000000E+00
  9.90000000E+02  4.80000000E+01  0.00000000E+00
  9.90000000E+02  4.60000000E+01  0.00000000E+00
  9.90000000E+02  4.40000000E+01  0.00000000E+00
  9.90000000E+02  4.20000000E+01  0.00000000E+00
  9.90000000E+02  4.00000000E+01  0.00000000E+00
  9.90000000E+02  3.80000000E+01  0.00000000E+00
  9.90000000E+02  3.60000000E+01  0.00000000E+00
  9.90000000E+02  3.40000000E+01  0.00000000E+00
  9.90000000E+02  3.20000000E+01  0.00000000E+00
  9.90000000E+02  3.00000000E+01  0.00000000E+00
  9.90000000E+02  2.80000000E+01  0.00000000E+00
  9.90000000E+02  2.60000000E+01  0.00000000E+00
  9.90000000E+02  2.40000000E+01  0.00000000E+00
  9.90000000E+02  2.20000000E+01  0.00000000E+00
  9.90000000E+02  2.00000000E+01  0.00000000E+00
  9.90000000E+02  1.80000000E+01  0.00000000E+00
  9.90000000E+02  1.60000000E+01  0.00000000E+00
  9.90000000E+02  1.40000000E+01  0.00000000E+00
  9.90000000E+02  1.20000000E+01  0.00000000E+00
  9.90000000E+02  1.00000000E+01  0.00000000E+00
  9.90000000E+02  8.00000000E+00  0.00000000E+00
  9.90000000E+02  6.00000000E+00  0.00000000E+00
  9.90000000E+02  4.00000000E+00  0.00000000E+00
  9.90000000E+02  2.00000000E+00  0.00000000E+00
  9.90000000E+02 -3.33066907E-14  0.00000000E+00
  1.00000000E+03  1.00000000E+02  0.00000000E+00
  1.00000000E+03  9.80000000E+01  0.00000000E+00
  1.00000000E+03  9.60000000E+01  0.00000000E+00
  1.00000000E+03  9.40000000E+01  0.00000000E+00
  1.00000000E+03  9.20000000E+01  0.00000000E+00
  1.00000000E+03  9.00000000E+01  0.00000000E+00
  1.00000000E+03  8.80000000E+01  0.00000000E+00
  1.00000000E+03  8.60000000E+01  0.00000000E+00
  1.00000000E+03  8.40000000E+01  0.00000000E+00
  1.00000000E+03  8.20000000E+01  0.00000000E+00
  1.00000000E+03  8.00000000E+01  0.00000000E+00
  1.00000000E+03  7.80000000E+01  0.00000000E+00
  1.00000000E+03  7.60000000E+01  0.00000000E+00
  1.00000000E+03  7.40000000E+01  0.00000000E+00
  1.00000000E+03  7.20000000E+01  0.00000000E+00
  1.00000000E+03  7.00000000E+01  0.00000000E+00
  1.00000000E+03  6.80000000E+01  0.00000000E+00
  1.00000000E+03  6.60000000E+01  0.00000000E+00
  1.00000000E+03  6.40000000E+01  0.00000000E+00
  1.00000000E+03  6.20000000E+01  0.00000000E+00
  1.00000000E+03  6.00000000E+01  0.00000000E+00
  1.00000000E+03  5.80000000E+01  0.00000000E+00
  1.00000000E+03  5.60000000E+01  0.00000000E+00
  1.00000000E+03  5.40000000E+01  0.00000000E+00
  1.00000000E+03  5.20000000E+01  0.00000000E+00
  1.00000000E+03  5.00000000E+01  0.00000000E+00
  1.00000000E+03  4.80000000E+01  0.00000000E+00
  1.00000000E+03  4.60000000E+01  0.00000000E+00
  1.00000000E+03  4.40000000E+01  0.00000000E+00
  1.00000000E+03  4.20000000E+01  0.00000000E+00
  1.00000000E+03  4.00000000E+01  0.00000000E+00
  1.00000000E+03  3.80000000E+01  0.00000000E+00
  1.00000000E+03  3.60000000E+01  0.00000000E+00
  1.00000000E+03  3.40000000E+01  0.00000000E+00
  1.00000000E+03  3.20000000E+01  0.00000000E+00
  1.00000000E+03  3.00000000E+01  0.00000000E+00
  1.00000000E+03  2.80000000E+01  0.00000000E+00
  1.00000000E+03  2.60000000E+01  0.00000000E+00
  1.00000000E+03  2.40000000E+01  0.00000000E+00
  1.00000000E+03  2.20000000E+01  0.00000000E+00
  1.00000000E+03  2.00000000E+01  0.00000000E+00
  1.00000000E+03  1.80000000E+01  0.00000000E+00
  1.00000000E+03  1.60000000E+01  0.00000000E+00
  1.00000000E+03  1.40000000E+01  0.00000000E+00
  1.00000000E+03  1.20000000E+01  0.00000000E+00
  1.00000000E+03  1.00000000E+01  0.00000000E+00
  1.00000000E+03  8.00000000E+00  0.00000000E+00
  1.00000000E+03  6.00000000E+00  0.00000000E+00
  1.00000000E+03  4.00000000E+00  0.00000000E+00
  1.00000000E+03  2.00000000E+00  0.00000000E+00
  1.00000000E+03 -3.33066907E-14  0.00000000E+00
CELLS      5000     25000
         4           0           1          52          51
         4           1           2          53          52
         4           2           3          54          53
         4           3           4          55          54
         4           4           5          56          55
         4           5           6          57          56
         4           6           7          58          57
         4           7           8          59          58
         4           8           9          60          59
         4           9          10          61          60
         4          10          11          62          61
         4          11          12          63          62
         4          12          13          64          63
         4          13          14          65          64
         4          14          15          66          65
         4          15          16          67          66
         4          16          17          68          67
         4          17          18          69          68
         4          18          19          70          69
         4          19          20          71          70
         4          20          21          72          71
         4          21          22          73          72
         4          22          23          74          73
         4          23          24          75          74
         4          24          25          76          75
         4          25          26          77          76
         4          26          27          78          77
         4          27          28          79          78
         4          28          29          80          79
         4          29          30          81          80
         4          30          31          82          81
         4          31          32          83          82
         4          32          33          84          83
         4          33          34          85          84
         4          34          35          86          85
         4          35          36          87          86
         4          36          37          88          87
         4          37          38          89          88
         4          38          39          90          89
         4          39          40          91          90
         4          40          41          92          91
         4          41          42          93          92
         4          42          43          94          93
         4          43          44          95          94
         4          44          45          96          95
         4          45          46          97          96
         4          46          47          98          97
         4          47          48          99          98
         4          48          49         100          99
         4          49          50         101         100
         4          51          52         103         102
         4          52          53         104         103
         4          53          54         105         104
         4          54          55         106         105
         4          55          56         107         106
         4          56          57         108         107
         4          57          58         109         108
         4          58          59         110         109
         4          59          60         111         110
         4          60          61         112         111
         4          61          62         113         112
         4          62          63         114         113
         4          63          64         115         114
         4          64          65         116         115
         4          65          66         117         116
         4          66          67         118         117
         4          67          68         119         118
         4          68          69         120         119
         4          69          70         121         120
         4          70          71         122         121
         4          71          72         123         122
         4          72          73         124         123
         4          73          74         125         124
         4          74          75         126         125
         4          75          76         127         126
         4          76          77         128         127
         4          77          78         129         128
         4          78          79         130         129
         4          79          80         131         130
         4          80          81         132         131
         4          81          82         133         132
         4          82          83         134         133
         4          83          84         135         134
         4          84          85         136         135
         4          85          86         137         136
         4          86          87         138         137
         4          87          88         139         138
         4          88          89         140         139
         4          89          90         141         140
         4          90          91         142         141
         4          91          92         143         142
         4          92          93         144         143
         4          93          94         145         144
         4          94          95         146         145
         4          95          96         147         146
         4          96          97         148         147
         4          97          98         149         148
         4          98          99         150         149
         4          99         100         151         150
         4         100         101         152         151
         4         102         103         154         153
         4         103         104         155         154
         4         104         105         156         155
         4         105         106         157         156
         4         106         107         158         157
         4         107         108         159         158
         4         108         109         160         159
         4         109         110         161         160
         4         110         111         162         161
         4         111         112         163         162
         4         112         113         164         163
         4         113         114         165         164
         4         114         115         166         165
         4         115         116         167         166
         4         116         117         168         167
         4         117         118         169         168
         4         118         119         170         169
         4         119         120         171         170
         4         120         121         172         171
         4         121         122         173         172
         4         122         123         174         173
         4         123         124         175         174
         4         124         125         176         175
         4         125         126         177         176
         4         126         127         178         177
         4         127         128         179         178
         4         128         129         180         179
         4         129         130         181         180
         4         130         131         182         181
         4         131         132         183         182
         4         132         133         184         183
         4         133         134         185         184
         4         134         135         186         185
         4         135         136         187         186
         4         136         137         188         187
         4         137         138         189         188
         4         138         139         190         189
         4         139         140         191         190
         4         140         141         192         191
         4         141         142         193         192
         4         142         143         194         193
         4         143         144         195         194
         4         144         145         196         195
         4         145         146         197         196
         4         146         147         198         197
         4         147         148         199         198
         4         148         149         200         199
         4         149         150         201         200
         4         150         151         202         201
         4         151         152         203         202
         4         153         154         205         204
         4         154         155         206         205
         4         155         156         207         206
         4         156         157         208         207
         4         157         158         209         208
         4         158         159         210         209
         4         159         160         211         210
         4         160         161         212         211
         4         161         162         213         212
         4         162         163         214         213
         4         163         164         215         214
         4         164         165         216         215
         4         165         166         217         216
         4         166         167         218         217
         4         167         168         219         218
         4         168         169         220         219
         4         169         170         221         220
         4         170         171         222         221
         4         171         172         223         222
         4         172         173         224         223
         4         173         174         225         224
         4         174         175         226         225
         4         175         176         227         226
         4         176         177         228         227
         4         177         178         229         228
         4         178         179         230         229
         4         179         180         231         230
         4         180         181         232         231
         4         181         182         233         232
         4         182         183         234         233
         4         183         184         235         234
         4         184         185         236         235
         4         185         186         237         236
         4         186         187         238         237
         4         187         188         239         238
         4         188         189         240         239
         4         189         190         241         240
         4         190         191         242         241
         4         191         192         243         242
         4         192         193         244         243
         4         193         194         245         244
         4         194         195         246         245
         4         195         196         247         246
         4         196         197         248         247
         4         197         198         249         248
         4         198         199         250         249
         4         199         200         251         250
         4         200         201         252         251
         4         201         202         253         252
         4         202         203         254         253
         4         204         205         256         255
         4         205         206         257         256
         4         206         207         258         257
         4         207         208         259         258
         4         208         209         260         259
         4         209         210         261         260
         4         210         211         262         261
         4         211         212         263         262
         4         212         213         264         263
         4         213         214         265         264
         4         214         215         266         265
         4         215         216         267         266
         4         216         217         268         267
         4         217         218         269         268
         4         218         219         270         269
         4         219         220         271         270
         4         220         221         272         271
         4         221         222         273         272
         4         222         223         274         273
         4         223         224         275         274
         4         224         225         276         275
         4         225         226         277         276
         4         226         227         278         277
         4         227         228         279         278
         4         228         229         280         279
         4         229         230         281         280
         4         230         231         282         281
         4         231         232         283         282
         4         232         233         284         283
         4         233         234         285         284
         4         234         235         286         285
         4         235         236         287         286
         4         236         237         288         287
         4         237         238         289         288
         4         238         239         290         289
         4         239         240         291         290
         4         240         241         292         291
         4         241         242         293         292
         4         242         243         294         293
         4         243         244         295         294
         4         244         245         296         295
         4         245         246         297         296
         4         246         247         298         297
         4         247         248         299         298
         4         248         249         300         299
         4         249         250         301         300
         4         250         251         302         301
         4         251         252         303         302
         4         252         253         304         303
         4         253         254         305         304
         4         255         256         307         306
         4         256         257         308         307
         4         257         258         309         308
         4         258         259         310         309
         4         259         260         311         310
         4         260         261         312         311
         4         261         262         313         312
         4         262         263         314         313
         4         263         264         315         314
         4         264         265         316         315
         4         265         266         317         316
         4         266         267         318         317
         4         267         268         319         318
         4         268         269         320         319
         4         269         270         321         320
         4         270         271         322         321
         4         271         272         323         322
         4         272         273         324         323
         4         273         274         325         324
         4         274         275         326         325
         4         275         276         327         326
         4         276         277         328         327
         4         277         278         329         328
         4         278         279         330         329
         4         279         280         331         330
         4         280         281         332         331
         4         281         282         333         332
         4         282         283         334         333
         4         283         284         335         334
         4         284         285         336         335
         4         285         286         337         336
         4         286         287         338         337
         4         287         288         339         338
         4         288         289         340         339
         4         289         290         341         340
         4         290         291         342         341
         4         291         292         343         342
         4         292         293         344         343
         4         293         294         345         344
         4         294         295         346         345
         4         295         296         347         346
         4         296         297         348         347
         4         297         298         349         348
         4         298         299         350         349
         4         299         300         351         350
         4         300         301         352         351
         4         301         302         353         352
         4         302         303         354         353
         4         303         304         355         354
         4         304         305         356         355
         4         306         307         358         357
         4         307         308         359         358
         4         308         309         360         359
         4         309         310         361         360
         4         310         311         362         361
         4         311         312         363         362
         4         312         313         364         363
         4         313         314         365         364
         4         314         315         366         365
         4         315         316         367         366
         4         316         317         368         367
         4         317         318         369         368
         4         318         319         370         369
         4         319         320         371         370
         4         320         321         372         371
         4         321         322         373         372
         4         322         323         374         373
         4         323         324         375         374
         4         324         325         376         375
         4         325         326         377         376
         4         326         327         378         377
         4         327         328         379         378
         4         328         329         380         379
         4         329         330         381         380
         4         330         331         382         381
         4         331         332         383         382
         4         332         333         384         383
         4         333         334         385         384
         4         334         335         386         385
         4         335         336         387         386
         4         336         337         388         387
         4         337         338         389         388
         4         338         339         390         389
         4         339         340         391         390
         4         340         341         392         391
         4         341         342         393         392
         4         342         343         394         393
         4         343         344         395         394
         4         344         345         396         395
         4         345         346         397         396
         4         346         347         398         397
         4         347         348         399         398
         4         348         349         400         399
         4         349         350         401         400
         4         350         351         402         401
         4         351         352         403         402
         4         352         353         404         403
         4         353         354         405         404
         4         354         355         406         405
         4         355         356         407         406
         4         357         358         409         408
         4         358         359         410         409
         4         359         360         411         410
         4         360         361         412         411
         4         361         362         413         412
         4         362         363         414         413
         4         363         364         415         414
         4         364         365         416         415
         4         365         366         417         416
         4         366         367         418         417
         4         367         368         419         418
         4         368         369         420         419
         4         369         370         421         420
         4         370         371         422         421
         4         371         372         423         422
         4         372         373         424         423
         4         373         374         425         424
         4         374         375         426         425
         4         375         376         427         426
         4         376         377         428         427
         4         377         378         429         428
         4         378         379         430         429
         4         379         380         431         430
         4         380         381         432         431
         4         381         382         433         432
         4         382         383         434         433
         4         383         384         435         434
         4         384         385         436         435
         4         385         386         437         436
         4         386         387         438         437
         4         387         388         439         438
         4         388         389         440         439
         4         389         390         441         440
         4         390         391         442         441
         4         391         392         443         442
         4         392         393         444         443
         4         393         394         445         444
         4         394         395         446         445
         4         395         396         447         446
         4         396         397         448         447
         4         397         398         449         448
         4         398         399         450         449
         4         399         400         451         450
         4         400         401         452         451
         4         401         402         453         452
         4         402         403         454         453
         4         403         404         455         454
         4         404         405         456         455
         4         405         406         457         456
         4         406         407         458         457
         4         408         409         460         459
         4         409         410         461         460
         4         410         411         462         461
         4         411         412         463         462
         4         412         413         464         463
         4         413         414         465         464
         4         414         415         466         465
         4         415         416         467         466
         4         416         417         468         467
         4         417         418         469         468
         4         418         419         470         469
         4         419         420         471         470
         4         420         421         472         471
         4         421         422         473         472
         4         422         423         474         473
         4         423         424         475         474
         4         424         425         476         475
         4         425         426         477         476
         4         426         427         478         477
         4         427         428         479         478
         4         428         429         480         479
         4         429         430         481         480
         4         430         431         482         481
         4         431         432         483         482
         4         432         433         484         483
         4         433         434         485         484
         4         434         435         486         485
         4         435         436         487         486
         4         436         437         488         487
         4         437         438         489         488
         4         438         439         490         489
         4         439         440         491         490
         4         440         441         492         491
         4         441         442         493         492
         4         442         443         494         493
         4         443         444         495         494
         4         444         445         496         495
         4         445         446         497         496
         4         446         447         498         497
         4         447         448         499         498
         4         448         449         500         499
         4         449         450         501         500
         4         450         451         502         501
         4         451         452         503         502
         4         452         453         504         503
         4         453         454         505         504
         4         454         455         506         505
         4         455         456         507         506
         4         456         457         508         507
         4         457         458         509         508
         4         459         460         511         510
         4         460         461         512         511
         4         461         462         513         512
         4         462         463         514         513
         4         463         464         515         514
         4         464         465         516         515
         4         465         466         517         516
         4         466         467         518         517
         4         467         468         519         518
         4         468         469         520         519
         4         469         470         521         520
         4         470         471         522         521
         4         471         472         523         522
         4         472         473         524         523
         4         473         474         525         524
         4         474         475         526         525
         4         475         476         527         526
         4         476         477         528         527
         4         477         478         529         528
         4         478         479         530         529
         4         479         480         531         530
         4         480         481         532         531
         4         481         482         533         532
         4         482         483         534         533
         4         483         484         535         534
         4         484         485         536         535
         4         485         486         537         536
         4         486         487         538         537
         4         487         488         539         538
         4         488         489         540         539
         4         489         490         541         540
         4         490         491         542         541
         4         491         492         543         542
         4         492         493         544         543
         4         493         494         545         544
         4         494         495         546         545
         4         495         496         547         546
         4         496         497         548         547
         4         497         498         549         548
         4         498         499         550         549
         4         499         500         551         550
         4         500         501         552         551
         4         501         502         553         552
         4         502         503         554         553
         4         503         504         555         554
         4         504         505         556         555
         4         505         506         557         556
         4         506         507         558         557
         4         507         508         559         558
         4         508         509         560         559
         4         510         511         562         561
         4         511         512         563         562
         4         512         513         564         563
         4         513         514         565         564
         4         514         515         566         565
         4         515         516         567         566
         4         516         517         568         567
         4         517         518         569         568
         4         518         519         570         569
         4         519         520         571         570
         4         520         521         572         571
         4         521         522         573         572
         4         522         523         574         573
         4         523         524         575         574
         4         524         525         576         575
         4         525         526         577         576
         4         526         527         578         577
         4         527         528         579         578
         4         528         529         580         579
         4         529         530         581         580
         4         530         531         582         581
         4         531         532         583         582
         4         532         533         584         583
         4         533         534         585         584
         4         534         535         586         585
         4         535         536         587         586
         4         536         537         588         587
         4         537         538         589         588
         4         538         539         590         589
         4         539         540         591         590
         4         540         541         592         591
         4         541         542         593         592
         4         542         543         594         593
         4         543         544         595         594
         4         544         545         596         595
         4         545         546         597         596
         4         546         547         598         597
         4         547         548         599         598
         4         548         549         600         599
         4         549         550         601         600
         4         550         551         602         601
         4         551         552         603         602
         4         552         553         604         603
         4         553         554         605         604
         4         554         555         606         605
         4         555         556         607         606
         4         556         557         608         607
         4         557         558         609         608
         4         558         559         610         609
         4         559         560         611         610
         4         561         562         613         612
         4         562         563         614         613
         4         563         564         615         614
         4         564         565         616         615
         4         565         566         617         616
         4         566         567         618         617
         4         567         568         619         618
         4         568         569         620         619
         4         569         570         621         620
         4         570         571         622         621
         4         571         572         623         622
         4         572         573         624         623
         4         573         574         625         624
         4         574         575         626         625
         4         575         576         627         626
         4         576         577         628         627
         4         577         578         629         628
         4         578         579         630         629
         4         579         580         631         630
         4         580         581         632         631
         4         581         582         633         632
         4         582         583         634         633
         4         583         584         635         634
         4         584         585         636         635
         4         585         586         637         636
         4         586         587         638         637
         4         587         588         639         638
         4         588         589         640         639
         4         589         590         641         640
         4         590         591         642         641
         4         591         592         643         642
         4         592         593         644         643
         4         593         594         645         644
         4         594         595         646         645
         4         595         596         647         646
         4         596         597         648         647
         4         597         598         649         648
         4         598         599         650         649
         4         599         600         651         650
         4         600         601         652         651
         4         601         602         653         652
         4         602         603         654         653
         4         603         604         655         654
         4         604         605         656         655
         4         605         606         657         656
         4         606         607         658         657
         4         607         608         659         658
         4         608         609         660         659
         4         609         610         661         660
         4         610         611         662         661
         4         612         613         664         663
         4         613         614         665         664
         4         614         615         666         665
         4         615         616         667         666
         4         616         617         668         667
         4         617         618         669         668
         4         618         619         670         669
         4         619         620         671         670
         4         620         621         672         671
         4         621         622         673         672
         4         622         623         674         673
         4         623         624         675         674
         4         624         625         676         675
         4         625         626         677         676
         4         626         627         678         677
         4         627         628         679         678
         4         628         629         680         679
         4         629         630         681         680
         4         630         631         682         681
         4         631         632         683         682
         4         632         633         684         683
         4         633         634         685         684
         4         634         635         686         685
         4         635         636         687         686
         4         636         637         688         687
         4         637         638         689         688
         4         638         639         690         689
         4         639         640         691         690
         4         640         641         692         691
         4         641         642         693         692
         4         642         643         694         693
         4         643         644         695         694
         4         644         645         696         695
         4         645         646         697         696
         4         646         647         698         697
         4         647         648         699         698
         4         648         649         700         699
         4         649         650         701         700
         4         650         651         702         701
         4         651         652         703         702
         4         652         653         704         703
         4         653         654         705         704
         4         654         655         706         705
         4         655         656         707         706
         4         656         657         708         707
         4         657         658         709         708
         4         658         659         710         709
         4         659         660         711         710
         4         660         661         712         711
         4         661         662         713         712
         4         663         664         715         714
         4         664         665         716         715
         4         665         666         717         716
         4         666         667         718         717
         4         667         668         719         718
         4         668         669         720         719
         4         669         670         721         720
         4         670         671         722         721
         4         671         672         723         722
         4         672         673         724         723
         4         673         674         725         724
         4         674         675         726         725
         4         675         676         727         726
         4         676         677         728         727
         4         677         678         729         728
         4         678         679         730         729
         4         679         680         731         730
         4         680         681         732         731
         4         681         682         733         732
         4         682         683         734         733
         4         683         684         735         734
         4         684         685         736         735
         4         685         686         737         736
         4         686         687         738         737
         4         687         688         739         738
         4         688         689         740         739
         4         689         690         741         740
         4         690         691         742         741
         4         691         692         743         742
         4         692         693         744         743
         4         693         694         745         744
         4         694         695         746         745
         4         695         696         747         746
         4         696         697         748         747
         4         697         698         749         748
         4         698         699         750         749
         4         699         700         751         750
         4         700         701         752         751
         4         701         702         753         752
         4         702         703         754         753
         4         703         704         755         754
         4         704         705         756         755
         4         705         706         757         756
         4         706         707         758         757
         4         707         708         759         758
         4         708         709         760         759
         4         709         710         761         760
         4         710         711         762         761
         4         711         712         763         762
         4         712         713         764         763
         4         714         715         766         765
         4         715         716         767         766
         4         716         717         768         767
         4         717         718         769         768
         4         718         719         770         769
         4         719         720         771         770
         4         720         721         772         771
         4         721         722         773         772
         4         722         723         774         773
         4         723         724         775         774
         4         724         725         776         775
         4         725         726         777         776
         4         726         727         778         777
         4         727         728         779         778
         4         728         729         780         779
         4         729         730         781         780
         4         730         731         782         781
         4         731         732         783         782
         4         732         733         784         783
         4         733         734         785         784
         4         734         735         786         785
         4         735         736         787         786
         4         736         737         788         787
         4         737         738         789         788
         4         738         739         790         789
         4         739         740         791         790
         4         740         741         792         791
         4         741         742         793         792
         4         742         743         794         793
         4         743         744         795         794
         4         744         745         796         795
         4         745         746         797         796
         4         746         747         798         797
         4         747         748         799         798
         4         748         749         800         799
         4         749         750         801         800
         4         750         751         802         801
         4         751         752         803         802
         4         752         753         804         803
         4         753         754         805         804
         4         754         755         806         805
         4         755         756         807         806
         4         756         757         808         807
         4         757         758         809         808
         4         758         759         810         809
         4         759         760         811         810
         4         760         761         812         811
         4         761         762         813         812
         4         762         763         814         813
         4         763         764         815         814
         4         765         766         817         816
         4         766         767         818         817
         4         767         768         819         818
         4         768         769         820         819
         4         769         770         821         820
         4         770         771         822         821
         4         771         772         823         822
         4         772         773         824         823
         4         773         774         825         824
         4         774         775         826         825
         4         775         776         827         826
         4         776         777         828         827
         4         777         778         829         828
         4         778         779         830         829
         4         779         780         831         830
         4         780         781         832         831
         4         781         782         833         832
         4         782         783         834         833
         4         783         784         835         834
         4         784         785         836         835
         4         785         786         837         836
         4         786         787         838         837
         4         787         788         839         838
         4         788         789         840         839
         4         789         790         841         840
         4         790         791         842         841
         4         791         792         843         842
         4         792         793         844         843
         4         793         794         845         844
         4         794         795         846         845
         4         795         796         847         846
         4         796         797         848         847
         4         797         798         849         848
         4         798         799         850         849
         4         799         800         851         850
         4         800         801         852         851
         4         801         802         853         852
         4         802         803         854         853
         4         803         804         855         854
         4         804         805         856         855
         4         805         806         857         856
         4         806         807         858         857
         4         807         808         859         858
         4         808         809         860         859
         4         809         810         861         860
         4         810         811         862         861
         4         811         812         863         862
         4         812         813         864         863
         4         813         814         865         864
         4         814         815         866         865
         4         816         817         868         867
         4         817         818         869         868
         4         818         819         870         869
         4         819         820         871         870
         4         820         821         872         871
         4         821         822         873         872
         4         822         823         874         873
         4         823         824         875         874
         4         824         825         876         875
         4         825         826         877         876
         4         826         827         878         877
         4         827         828         879         878
         4         828         829         880         879
         4         829         830         881         880
         4         830         831         882         881
         4         831         832         883         882
         4         832         833         884         883
         4         833         834         885         884
         4         834         835         886         885
         4         835         836         887         886
         4         836         837         888         887
         4         837         838         889         888
         4         838         839         890         889
         4         839         840         891         890
         4         840         841         892         891
         4         841         842         893         892
         4         842         843         894         893
         4         843         844         895         894
         4         844         845         896         895
         4         845         846         897         896
         4         846         847         898         897
         4         847         848         899         898
         4         848         849         900         899
         4         849         850         901         900
         4         850         851         902         901
         4         851         852         903         902
         4         852         853         904         903
         4         853         854         905         904
         4         854         855         906         905
         4         855         856         907         906
         4         856         857         908         907
         4         857         858         909         908
         4         858         859         910         909
         4         859         860         911         910
         4         860         861         912         911
         4         861         862         913         912
         4         862         863         914         913
         4         863         864         915         914
         4         864         865         916         915
         4         865         866         917         916
         4         867         868         919         918
         4         868         869         920         919
         4         869         870         921         920
         4         870         871         922         921
         4         871         872         923         922
         4         872         873         924         923
         4         873         874         925         924
         4         874         875         926         925
         4         875         876         927         926
         4         876         877         928         927
         4         877         878         929         928
         4         878         879         930         929
         4         879         880         931         930
         4         880         881         932         931
         4         881         882         933         932
         4         882         883         934         933
         4         883         884         935         934
         4         884         885         936         935
         4         885         886         937         936
         4         886         887         938         937
         4         887         888         939         938
         4         888         889         940         939
         4         889         890         941         940
         4         890         891         942         941
         4         891         892         943         942
         4         892         893         944         943
         4         893         894         945         944
         4         894         895         946         945
         4         895         896         947         946
         4         896         897         948         947
         4         897         898         949         948
         4         898         899         950         949
         4         899         900         951         950
         4         900         901         952         951
         4         901         902         953         952
         4         902         903         954         953
         4         903         904         955         954
         4         904         905         956         955
         4         905         906         957         956
         4         906         907         958         957
         4         907         908         959         958
         4         908         909         960         959
         4         909         910         961         960
         4         910         911         962         961
         4         911         912         963         962
         4         912         913         964         963
         4         913         914         965         964
         4         914         915         966         965
         4         915         916         967         966
         4         916         917         968         967
         4         918         919         970         969
         4         919         920         971         970
         4         920         921         972         971
         4         921         922         973         972
         4         922         923         974         973
         4         923         924         975         974
         4         924         925         976         975
         4         925         926         977         976
         4         926         927         978         977
         4         927         928         979         978
         4         928         929         980         979
         4         929         930         981         980
         4         930         931         982         981
         4         931         932         983         982
         4         932         933         984         983
         4         933         934         985         984
         4         934         935         986         985
         4         935         936         987         986
         4         936         937         988         987
         4         937         938         989         988
         4         938         939         990         989
         4         939         940         991         990
         4         940         941         992         991
         4         941         942         993         992
         4         942         943         994         993
         4         943         944         995         994
         4         944         945         996         995
         4         945         946         997         996
         4         946         947         998         997
         4         947         948         999         998
         4         948         949        1000         999
         4         949         950        1001        1000
         4         950         951        1002        1001
         4         951         952        1003        1002
         4         952         953        1004        1003
         4         953         954        1005        1004
         4         954         955        1006        1005
         4         955         956        1007        1006
         4         956         957        1008        1007
         4         957         958        1009        1008
         4         958         959        1010        1009
         4         959         960        1011        1010
         4         960         961        1012        1011
         4         961         962        1013        1012
         4         962         963        1014        1013
         4         963         964        1015        1014
         4         964         965        1016        1015
         4         965         966        1017        1016
         4         966         967        1018        1017
         4         967         968        1019        1018
         4         969         970        1021        1020
         4         970         971        1022        1021
         4         971         972        1023        1022
         4         972         973        1024        1023
         4         973         974        1025        1024
         4         974         975        1026        1025
         4         975         976        1027        1026
         4         976         977        1028        1027
         4         977         978        1029        1028
         4         978         979        1030        1029
         4         979         980        1031        1030
         4         980         981        1032        1031
         4         981         982        1033        1032
         4         982         983        1034        1033
         4         983         984        1035        1034
         4         984         985        1036        1035
         4         985         986        1037        1036
         4         986         987        1038        1037
         4         987         988        1039        1038
         4         988         989        1040        1039
         4         989         990        1041        1040
         4         990         991        1042        1041
         4         991         992        1043        1042
         4         992         993        1044        1043
         4         993         994        1045        1044
         4         994         995        1046        1045
         4         995         996        1047        1046
         4         996         997        1048        1047
         4         997         998        1049        1048
         4         998         999        1050        1049
         4         999        1000        1051        1050
         4        1000        1001        1052        1051
         4        1001        1002        1053        1052
         4        1002        1003        1054        1053
         4        1003        1004        1055        1054
         4        1004        1005        1056        1055
         4        1005        1006        1057        1056
         4        1006        1007        1058        1057
         4        1007        1008        1059        1058
         4        1008        1009        1060        1059
         4        1009        1010        1061        1060
         4        1010        1011        1062        1061
         4        1011        1012        1063        1062
         4        1012        1013        1064        1063
         4        1013        1014        1065        1064
         4        1014        1015        1066        1065
         4        1015        1016        1067        1066
         4        1016        1017        1068        1067
         4        1017        1018        1069        1068
         4        1018        1019        1070        1069
         4        1020        1021        1072        1071
         4        1021        1022        1073        1072
         4        1022        1023        1074        1073
         4        1023        1024        1075        1074
         4        1024        1025        1076        1075
         4        1025        1026        1077        1076
         4        1026        1027        1078        1077
         4        1027        1028        1079        1078
         4        1028        1029        1080        1079
         4        1029        1030        1081        1080
         4        1030        1031        1082        1081
         4        1031        1032        1083        1082
         4        1032        1033        1084        1083
         4        1033        1034        1085        1084
         4        1034        1035        1086        1085
         4        1035        1036        1087        1086
         4        1036        1037        1088        1087
         4        1037        1038        1089        1088
         4        1038        1039        1090        1089
         4        1039        1040        1091        1090
         4        1040        1041        1092        1091
         4        1041        1042        1093        1092
         4        1042        1043        1094        1093
         4        1043        1044        1095        1094
         4        1044        1045        1096        1095
         4        1045        1046        1097        1096
         4        1046        1047        1098        1097
         4        1047        1048        1099        1098
         4        1048        1049        1100        1099
         4        1049        1050        1101        1100
         4        1050        1051        1102        1101
         4        1051        1052        1103        1102
         4        1052        1053        1104        1103
         4        1053        1054        1105        1104
         4        1054        1055        1106        1105
         4        1055        1056        1107        1106
         4        1056        1057        1108        1107
         4        1057        1058        1109        1108
         4        1058        1059        1110        1109
         4        1059        1060        1111        1110
         4        1060        1061        1112        1111
         4        1061        1062        1113        1112
         4        1062        1063        1114        1113
         4        1063        1064        1115        1114
         4        1064        1065        1116        1115
         4        1065        1066        1117        1116
         4        1066        1067        1118        1117
         4        1067        1068        1119        1118
         4        1068        1069        1120        1119
         4        1069        1070        1121        1120
         4        1071        1072        1123        1122
         4        1072        1073        1124        1123
         4        1073        1074        1125        1124
         4        1074        1075        1126        1125
         4        1075        1076        1127        1126
         4        1076        1077        1128        1127
         4        1077        1078        1129        1128
         4        1078        1079        1130        1129
         4        1079        1080        1131        1130
         4        1080        1081        1132        1131
         4        1081        1082        1133        1132
         4        1082        1083        1134        1133
         4        1083        1084        1135        1134
         4        1084        1085        1136        1135
         4        1085        1086        1137        1136
         4        1086        1087        1138        1137
         4        1087        1088        1139        1138
         4        1088        1089        1140        1139
         4        1089        1090        1141        1140
         4        1090        1091        1142        1141
         4        1091        1092        1143        1142
         4        1092        1093        1144        1143
         4        1093        1094        1145        1144
         4        1094        1095        1146        1145
         4        1095        1096        1147        1146
         4        1096        1097        1148        1147
         4        1097        1098        1149        1148
         4        1098        1099        1150        1149
         4        1099        1100        1151        1150
         4        1100        1101        1152        1151
         4        1101        1102        1153        1152
         4        1102        1103        1154        1153
         4        1103        1104        1155        1154
         4        1104        1105        1156        1155
         4        1105        1106        1157        1156
         4        1106        1107        1158        1157
         4        1107        1108        1159        1158
         4        1108        1109        1160        1159
         4        1109        1110        1161        1160
         4        1110        1111        1162        1161
         4        1111        1112        1163        1162
         4        1112        1113        1164        1163
         4        1113        1114        1165        1164
         4        1114        1115        1166        1165
         4        1115        1116        1167        1166
         4        1116        1117        1168        1167
         4        1117        1118        1169        1168
         4        1118        1119        1170        1169
         4        1119        1120        1171        1170
         4        1120        1121        1172        1171
         4        1122        1123        1174        1173
         4        1123        1124        1175        1174
         4        1124        1125        1176        1175
         4        1125        1126        1177        1176
         4        1126        1127        1178        1177
         4        1127        1128        1179        1178
         4        1128        1129        1180        1179
         4        1129        1130        1181        1180
         4        1130        1131        1182        1181
         4        1131        1132        1183        1182
         4        1132        1133        1184        1183
         4        1133        1134        1185        1184
         4        1134        1135        1186        1185
         4        1135        1136        1187        1186
         4        1136        1137        1188        1187
         4        1137        1138        1189        1188
         4        1138        1139        1190        1189
         4        1139        1140        1191        1190
         4        1140        1141        1192        1191
         4        1141        1142        1193        1192
         4        1142        1143        1194        1193
         4        1143        1144        1195        1194
         4        1144        1145        1196        1195
         4        1145        1146        1197        1196
         4        1146        1147        1198        1197
         4        1147        1148        1199        1198
         4        1148        1149        1200        1199
         4        1149        1150        1201        1200
         4        1150        1151        1202        1201
         4        1151        1152        1203        1202
         4        1152        1153        1204        1203
         4        1153        1154        1205        1204
         4        1154        1155        1206        1205
         4        1155        1156        1207        1206
         4        1156        1157        1208        1207
         4        1157        1158        1209        1208
         4        1158        1159        1210        1209
         4        1159        1160        1211        1210
         4        1160        1161        1212        1211
         4        1161        1162        1213        1212
         4        1162        1163        1214        1213
         4        1163        1164        1215        1214
         4        1164        1165        1216        1215
         4        1165        1166        1217        1216
         4        1166        1167        1218        1217
         4        1167        1168        1219        1218
         4        1168        1169        1220        1219
         4        1169        1170        1221        1220
         4        1170        1171        1222        1221
         4        1171        1172        1223        1222
         4        1173        1174        1225        1224
         4        1174        1175        1226        1225
         4        1175        1176        1227        1226
         4        1176        1177        1228        1227
         4        1177        1178        1229        1228
         4        1178        1179        1230        1229
         4        1179        1180        1231        1230
         4        1180        1181        1232        1231
         4        1181        1182        1233        1232
         4        1182        1183        1234        1233
         4        1183        1184        1235        1234
         4        1184        1185        1236        1235
         4        1185        1186        1237        1236
         4        1186        1187        1238        1237
         4        1187        1188        1239        1238
         4        1188        1189        1240        1239
         4        1189        1190        1241        1240
         4        1190        1191        1242        1241
         4        1191        1192        1243        1242
         4        1192        1193        1244        1243
         4        1193        1194        1245        1244
         4        1194        1195        1246        1245
         4        1195        1196        1247        1246
         4        1196        1197        1248        1247
         4        1197        1198        1249        1248
         4        1198        1199        1250        1249
         4        1199        1200        1251        1250
         4        1200        1201        1252        1251
         4        1201        1202        1253        1252
         4        1202        1203        1254        1253
         4        1203        1204        1255        1254
         4        1204        1205        1256        1255
         4        1205        1206        1257        1256
         4        1206        1207        1258        1257
         4        1207        1208        1259        1258
         4        1208        1209        1260        1259
         4        1209        1210        1261        1260
         4        1210        1211        1262        1261
         4        1211        1212        1263        1262
         4        1212        1213        1264        1263
         4        1213        1214        1265        1264
         4        1214        1215        1266        1265
         4        1215        1216        1267        1266
         4        1216        1217        1268        1267
         4        1217        1218        1269        1268
         4        1218        1219        1270        1269
         4        1219        1220        1271        1270
         4        1220        1221        1272        1271
         4        1221        1222        1273        1272
         4        1222        1223        1274        1273
         4        1224        1225        1276        1275
         4        1225        1226        1277        1276
         4        1226        1227        1278        1277
         4        1227        1228        1279        1278
         4        1228        1229        1280        1279
         4        1229        1230        1281        1280
         4        1230        1231        1282        1281
         4        1231        1232        1283        1282
         4        1232        1233        1284        1283
         4        1233        1234        1285        1284
         4        1234        1235        1286        1285
         4        1235        1236        1287        1286
         4        1236        1237        1288        1287
         4        1237        1238        1289        1288
         4        1238        1239        1290        1289
         4        1239        1240        1291        1290
         4        1240        1241        1292        1291
         4        1241        1242        1293        1292
         4        1242        1243        1294        1293
         4        1243        1244        1295        1294
         4        1244        1245        1296        1295
         4        1245        1246        1297        1296
         4        1246        1247        1298        1297
         4        1247        1248        1299        1298
         4        1248        1249        1300        1299
         4        1249        1250        1301        1300
         4        1250        1251        1302        1301
         4        1251        1252        1303        1302
         4        1252        1253        1304        1303
         4        1253        1254        1305        1304
         4        1254        1255        1306        1305
         4        1255        1256        1307        1306
         4        1256        1257        1308        1307
         4        1257        1258        1309        1308
         4        1258        1259        1310        1309
         4        1259        1260        1311        1310
         4        1260        1261        1312        1311
         4        1261        1262        1313        1312
         4        1262        1263        1314        1313
         4        1263        1264        1315        1314
         4        1264        1265        1316        1315
         4        1265        1266        1317        1316
         4        1266        1267        1318        1317
         4        1267        1268        1319        1318
         4        1268        1269        1320        1319
         4        1269        1270        1321        1320
         4        1270        1271        1322        1321
         4        1271        1272        1323        1322
         4        1272        1273        1324        1323
         4        1273        1274        1325        1324
         4        1275        1276        1327        1326
         4        1276        1277        1328        1327
         4        1277        1278        1329        1328
         4        1278        1279        1330        1329
         4        1279        1280        1331        1330
         4        1280        1281        1332        1331
         4        1281        1282        1333        1332
         4        1282        1283        1334        1333
         4        1283        1284        1335        1334
         4        1284        1285        1336        1335
         4        1285        1286        1337        1336
         4        1286        1287        1338        1337
         4        1287        1288        1339        1338
         4        1288        1289        1340        1339
         4        1289        1290        1341        1340
         4        1290        1291        1342        1341
         4        1291        1292        1343        1342
         4        1292        1293        1344        1343
         4        1293        1294        1345        1344
         4        1294        1295        1346        1345
         4        1295        1296        1347        1346
         4        1296        1297        1348        1347
         4        1297        1298        1349        1348
         4        1298        1299        1350        1349
         4        1299        1300        1351        1350
         4        1300        1301        1352        1351
         4        1301        1302        1353        1352
         4        1302        1303        1354        1353
         4        1303        1304        1355        1354
         4        1304        1305        1356        1355
         4        1305        1306        1357        1356
         4        1306        1307        1358        1357
         4        1307        1308        1359        1358
         4        1308        1309        1360        1359
         4        1309        1310        1361        1360
         4        1310        1311        1362        1361
         4        1311        1312        1363        1362
         4        1312        1313        1364        1363
         4        1313        1314        1365        1364
         4        1314        1315        1366        1365
         4        1315        1316        1367        1366
         4        1316        1317        1368        1367
         4        1317        1318        1369        1368
         4        1318        1319        1370        1369
         4        1319        1320        1371        1370
         4        1320        1321        1372        1371
         4        1321        1322        1373        1372
         4        1322        1323        1374        1373
         4        1323        1324        1375        1374
         4        1324        1325        1376        1375
         4        1326        1327        1378        1377
         4        1327        1328        1379        1378
         4        1328        1329        1380        1379
         4        1329        1330        1381        1380
         4        1330        1331        1382        1381
         4        1331        1332        1383        1382
         4        1332        1333        1384        1383
         4        1333        1334        1385        1384
         4        1334        1335        1386        1385
         4        1335        1336        1387        1386
         4        1336        1337        1388        1387
         4        1337        1338        1389        1388
         4        1338        1339        1390        1389
         4        1339        1340        1391        1390
         4        1340        1341        1392        1391
         4        1341        1342        1393        1392
         4        1342        1343        1394        1393
         4        1343        1344        1395        1394
         4        1344        1345        1396        1395
         4        1345        1346        1397        1396
         4        1346        1347        1398        1397
         4        1347        1348        1399        1398
         4        1348        1349        1400        1399
         4        1349        1350        1401        1400
         4        1350        1351        1402        1401
         4        1351        1352        1403        1402
         4        1352        1353        1404        1403
         4        1353        1354        1405        1404
         4        1354        1355        1406        1405
         4        1355        1356        1407        1406
         4        1356        1357        1408        1407
         4        1357        1358        1409        1408
         4        1358        1359        1410        1409
         4        1359        1360        1411        1410
         4        1360        1361        1412        1411
         4        1361        1362        1413        1412
         4        1362        1363        1414        1413
         4        1363        1364        1415        1414
         4        1364        1365        1416        1415
         4        1365        1366        1417        1416
         4        1366        1367        1418        1417
         4        1367        1368        1419        1418
         4        1368        1369        1420        1419
         4        1369        1370        1421        1420
         4        1370        1371        1422        1421
         4        1371        1372        1423        1422
         4        1372        1373        1424        1423
         4        1373        1374        1425        1424
         4        1374        1375        1426        1425
         4        1375        1376        1427        1426
         4        1377        1378        1429        1428
         4        1378        1379        1430        1429
         4        1379        1380        1431        1430
         4        1380        1381        1432        1431
         4        1381        1382        1433        1432
         4        1382        1383        1434        1433
         4        1383        1384        1435        1434
         4        1384        1385        1436        1435
         4        1385        1386        1437        1436
         4        1386        1387        1438        1437
         4        1387        1388        1439        1438
         4        1388        1389        1440        1439
         4        1389        1390        1441        1440
         4        1390        1391        1442        1441
         4        1391        1392        1443        1442
         4        1392        1393        1444        1443
         4        1393        1394        1445        1444
         4        1394        1395        1446        1445
         4        1395        1396        1447        1446
         4        1396        1397        1448        1447
         4        1397        1398        1449        1448
         4        1398        1399        1450        1449
         4        1399        1400        1451        1450
         4        1400        1401        1452        1451
         4        1401        1402        1453        1452
         4        1402        1403        1454        1453
         4        1403        1404        1455        1454
         4        1404        1405        1456        1455
         4        1405        1406        1457        1456
         4        1406        1407        1458        1457
         4        1407        1408        1459        1458
         4        1408        1409        1460        1459
         4        1409        1410        1461        1460
         4        1410        1411        1462        1461
         4        1411        1412        1463        1462
         4        1412        1413        1464        1463
         4        1413        1414        1465        1464
         4        1414        1415        1466        1465
         4        1415        1416        1467        1466
         4        1416        1417        1468        1467
         4        1417        1418        1469        1468
         4        1418        1419        1470        1469
         4        1419        1420        1471        1470
         4        1420        1421        1472        1471
         4        1421        1422        1473        1472
         4        1422        1423        1474        1473
         4        1423        1424        1475        1474
         4        1424        1425        1476        1475
         4        1425        1426        1477        1476
         4        1426        1427        1478        1477
         4        1428        1429        1480        1479
         4        1429        1430        1481        1480
         4        1430        1431        1482        1481
         4        1431        1432        1483        1482
         4        1432        1433        1484        1483
         4        1433        1434        1485        1484
         4        1434        1435        1486        1485
         4        1435        1436        1487        1486
         4        1436        1437        1488        1487
         4        1437        1438        1489        1488
         4        1438        1439        1490        1489
         4        1439        1440        1491        1490
         4        1440        1441        1492        1491
         4        1441        1442        1493        1492
         4        1442        1443        1494        1493
         4        1443        1444        1495        1494
         4        1444        1445        1496        1495
         4        1445        1446        1497        1496
         4        1446        1447        1498        1497
         4        1447        1448        1499        1498
         4        1448        1449        1500        1499
         4        1449        1450        1501        1500
         4        1450        1451        1502        1501
         4        1451        1452        1503        1502
         4        1452        1453        1504        1503
         4        1453        1454        1505        1504
         4        1454        1455        1506        1505
         4        1455        1456        1507        1506
         4        1456        1457        1508        1507
         4        1457        1458        1509        1508
         4        1458        1459        1510        1509
         4        1459        1460        1511        1510
         4        1460        1461        1512        1511
         4        1461        1462        1513        1512
         4        1462        1463        1514        1513
         4        1463        1464        1515        1514
         4        1464        1465        1516        1515
         4        1465        1466        1517        1516
         4        1466        1467        1518        1517
         4        1467        1468        1519        1518
         4        1468        1469        1520        1519
         4        1469        1470        1521        1520
         4        1470        1471        1522        1521
         4        1471        1472        1523        1522
         4        1472        1473        1524        1523
         4        1473        1474        1525        1524
         4        1474        1475        1526        1525
         4        1475        1476        1527        1526
         4        1476        1477        1528        1527
         4        1477        1478        1529        1528
         4        1479        1480        1531        1530
         4        1480        1481        1532        1531
         4        1481        1482        1533        1532
         4        1482        1483        1534        1533
         4        1483        1484        1535        1534
         4        1484        1485        1536        1535
         4        1485        1486        1537        1536
         4        1486        1487        1538        1537
         4        1487        1488        1539        1538
         4        1488        1489        1540        1539
         4        1489        1490        1541        1540
         4        1490        1491        1542        1541
         4        1491        1492        1543        1542
         4        1492        1493        1544        1543
         4        1493        1494        1545        1544
         4        1494        1495        1546        1545
         4        1495        1496        1547        1546
         4        1496        1497        1548        1547
         4        1497        1498        1549        1548
         4        1498        1499        1550        1549
         4        1499        1500        1551        1550
         4        1500        1501        1552        1551
         4        1501        1502        1553        1552
         4        1502        1503        1554        1553
         4        1503        1504        1555        1554
         4        1504        1505        1556        1555
         4        1505        1506        1557        1556
         4        1506        1507        1558        1557
         4        1507        1508        1559        1558
         4        1508        1509        1560        1559
         4        1509        1510        1561        1560
         4        1510        1511        1562        1561
         4        1511        1512        1563        1562
         4        1512        1513        1564        1563
         4        1513        1514        1565        1564
         4        1514        1515        1566        1565
         4        1515        1516        1567        1566
         4        1516        1517        1568        1567
         4        1517        1518        1569        1568
         4        1518        1519        1570        1569
         4        1519        1520        1571        1570
         4        1520        1521        1572        1571
         4        1521        1522        1573        1572
         4        1522        1523        1574        1573
         4        1523        1524        1575        1574
         4        1524        1525        1576        1575
         4        1525        1526        1577        1576
         4        1526        1527        1578        1577
         4        1527        1528        1579        1578
         4        1528        1529        1580        1579
         4        1530        1531        1582        1581
         4        1531        1532        1583        1582
         4        1532        1533        1584        1583
         4        1533        1534        1585        1584
         4        1534        1535        1586        1585
         4        1535        1536        1587        1586
         4        1536        1537        1588        1587
         4        1537        1538        1589        1588
         4        1538        1539        1590        1589
         4        1539        1540        1591        1590
         4        1540        1541        1592        1591
         4        1541        1542        1593        1592
         4        1542        1543        1594        1593
         4        1543        1544        1595        1594
         4        1544        1545        1596        1595
         4        1545        1546        1597        1596
         4        1546        1547        1598        1597
         4        1547        1548        1599        1598
         4        1548        1549        1600        1599
         4        1549        1550        1601        1600
         4        1550        1551        1602        1601
         4        1551        1552        1603        1602
         4        1552        1553        1604        1603
         4        1553        1554        1605        1604
         4        1554        1555        1606        1605
         4        1555        1556        1607        1606
         4        1556        1557        1608        1607
         4        1557        1558        1609        1608
         4        1558        1559        1610        1609
         4        1559        1560        1611        1610
         4        1560        1561        1612        1611
         4        1561        1562        1613        1612
         4        1562        1563        1614        1613
         4        1563        1564        1615        1614
         4        1564        1565        1616        1615
         4        1565        1566        1617        1616
         4        1566        1567        1618        1617
         4        1567        1568        1619        1618
         4        1568        1569        1620        1619
         4        1569        1570        1621        1620
         4        1570        1571        1622        1621
         4        1571        1572        1623        1622
         4        1572        1573        1624        1623
         4        1573        1574        1625        1624
         4        1574        1575        1626        1625
         4        1575        1576        1627        1626
         4        1576        1577        1628        1627
         4        1577        1578        1629        1628
         4        1578        1579        1630        1629
         4        1579        1580        1631        1630
         4        1581        1582        1633        1632
         4        1582        1583        1634        1633
         4        1583        1584        1635        1634
         4        1584        1585        1636        1635
         4        1585        1586        1637        1636
         4        1586        1587        1638        1637
         4        1587        1588        1639        1638
         4        1588        1589        1640        1639
         4        1589        1590        1641        1640
         4        1590        1591        1642        1641
         4        1591        1592        1643        1642
         4        1592        1593        1644        1643
         4        1593        1594        1645        1644
         4        1594        1595        1646        1645
         4        1595        1596        1647        1646
         4        1596        1597        1648        1647
         4        1597        1598        1649        1648
         4        1598        1599        1650        1649
         4        1599        1600        1651        1650
         4        1600        1601        1652        1651
         4        1601        1602        1653        1652
         4        1602        1603        1654        1653
         4        1603        1604        1655        1654
         4        1604        1605        1656        1655
         4        1605        1606        1657        1656
         4        1606        1607        1658        1657
         4        1607        1608        1659        1658
         4        1608        1609        1660        1659
         4        1609        1610        1661        1660
         4        1610        1611        1662        1661
         4        1611        1612        1663        1662
         4        1612        1613        1664        1663
         4        1613        1614        1665        1664
         4        1614        1615        1666        1665
         4        1615        1616        1667        1666
         4        1616        1617        1668        1667
         4        1617        1618        1669        1668
         4        1618        1619        1670        1669
         4        1619        1620        1671        1670
         4        1620        1621        1672        1671
         4        1621        1622        1673        1672
         4        1622        1623        1674        1673
         4        1623        1624        1675        1674
         4        1624        1625        1676        1675
         4        1625        1626        1677        1676
         4        1626        1627        1678        1677
         4        1627        1628        1679        1678
         4        1628        1629        1680        1679
         4        1629        1630        1681        1680
         4        1630        1631        1682        1681
         4        1632        1633        1684        1683
         4        1633        1634        1685        1684
         4        1634        1635        1686        1685
         4        1635        1636        1687        1686
         4        1636        1637        1688        1687
         4        1637        1638        1689        1688
         4        1638        1639        1690        1689
         4        1639        1640        1691        1690
         4        1640        1641        1692        1691
         4        1641        1642        1693        1692
         4        1642        1643        1694        1693
         4        1643        1644        1695        1694
         4        1644        1645        1696        1695
         4        1645        1646        1697        1696
         4        1646        1647        1698        1697
         4        1647        1648        1699        1698
         4        1648        1649        1700        1699
         4        1649        1650        1701        1700
         4        1650        1651        1702        1701
         4        1651        1652        1703        1702
         4        1652        1653        1704        1703
         4        1653        1654        1705        1704
         4        1654        1655        1706        1705
         4        1655        1656        1707        1706
         4        1656        1657        1708        1707
         4        1657        1658        1709        1708
         4        1658        1659        1710        1709
         4        1659        1660        1711        1710
         4        1660        1661        1712        1711
         4        1661        1662        1713        1712
         4        1662        1663        1714        1713
         4        1663        1664        1715        1714
         4        1664        1665        1716        1715
         4        1665        1666        1717        1716
         4        1666        1667        1718        1717
         4        1667        1668        1719        1718
         4        1668        1669        1720        1719
         4        1669        1670        1721        1720
         4        1670        1671        1722        1721
         4        1671        1672        1723        1722
         4        1672        1673        1724        1723
         4        1673        1674        1725        1724
         4        1674        1675        1726        1725
         4        1675        1676        1727        1726
         4        1676        1677        1728        1727
         4        1677        1678        1729        1728
         4        1678        1679        1730        1729
         4        1679        1680        1731        1730
         4        1680        1681        1732        1731
         4        1681        1682        1733        1732
         4        1683        1684        1735        1734
         4        1684        1685        1736        1735
         4        1685        1686        1737        1736
         4        1686        1687        1738        1737
         4        1687        1688        1739        1738
         4        1688        1689        1740        1739
         4        1689        1690        1741        1740
         4        1690        1691        1742        1741
         4        1691        1692        1743        1742
         4        1692        1693        1744        1743
         4        1693        1694        1745        1744
         4        1694        1695        1746        1745
         4        1695        1696        1747        1746
         4        1696        1697        1748        1747
         4        1697        1698        1749        1748
         4        1698        1699        1750        1749
         4        1699        1700        1751        1750
         4        1700        1701        1752        1751
         4        1701        1702        1753        1752
         4        1702        1703        1754        1753
         4        1703        1704        1755        1754
         4        1704        1705        1756        1755
         4        1705        1706        1757        1756
         4        1706        1707        1758        1757
         4        1707        1708        1759        1758
         4        1708        1709        1760        1759
         4        1709        1710        1761        1760
         4        1710        1711        1762        1761
         4        1711        1712        1763        1762
         4        1712        1713        1764        1763
         4        1713        1714        1765        1764
         4        1714        1715        1766        1765
         4        1715        1716        1767        1766
         4        1716        1717        1768        1767
         4        1717        1718        1769        1768
         4        1718        1719        1770        1769
         4        1719        1720        1771        1770
         4        1720        1721        1772        1771
         4        1721        1722        1773        1772
         4        1722        1723        1774        1773
         4        1723        1724        1775        1774
         4        1724        1725        1776        1775
         4        1725        1726        1777        1776
         4        1726        1727        1778        1777
         4        1727        1728        1779        1778
         4        1728        1729        1780        1779
         4        1729        1730        1781        1780
         4        1730        1731        1782        1781
         4        1731        1732        1783        1782
         4        1732        1733        1784        1783
         4        1734        1735        1786        1785
         4        1735        1736        1787        1786
         4        1736        1737        1788        1787
         4        1737        1738        1789        1788
         4        1738        1739        1790        1789
         4        1739        1740        1791        1790
         4        1740        1741        1792        1791
         4        1741        1742        1793        1792
         4        1742        1743        1794        1793
         4        1743        1744        1795        1794
         4        1744        1745        1796        1795
         4        1745        1746        1797        1796
         4        1746        1747        1798        1797
         4        1747        1748        1799        1798
         4        1748        1749        1800        1799
         4        1749        1750        1801        1800
         4        1750        1751        1802        1801
         4        1751        1752        1803        1802
         4        1752        1753        1804        1803
         4        1753        1754        1805        1804
         4        1754        1755        1806        1805
         4        1755        1756        1807        1806
         4        1756        1757        1808        1807
         4        1757        1758        1809        1808
         4        1758        1759        1810        1809
         4        1759        1760        1811        1810
         4        1760        1761        1812        1811
         4        1761        1762        1813        1812
         4        1762        1763        1814        1813
         4        1763        1764        1815        1814
         4        1764        1765        1816        1815
         4        1765        1766        1817        1816
         4        1766        1767        1818        1817
         4        1767        1768        1819        1818
         4        1768        1769        1820        1819
         4        1769        1770        1821        1820
         4        1770        1771        1822        1821
         4        1771        1772        1823        1822
         4        1772        1773        1824        1823
         4        1773        1774        1825        1824
         4        1774        1775        1826        1825
         4        1775        1776        1827        1826
         4        1776        1777        1828        1827
         4        1777        1778        1829        1828
         4        1778        1779        1830        1829
         4        1779        1780        1831        1830
         4        1780        1781        1832        1831
         4        1781        1782        1833        1832
         4        1782        1783        1834        1833
         4        1783        1784        1835        1834
         4        1785        1786        1837        1836
         4        1786        1787        1838        1837
         4        1787        1788        1839        1838
         4        1788        1789        1840        1839
         4        1789        1790        1841        1840
         4        1790        1791        1842        1841
         4        1791        1792        1843        1842
         4        1792        1793        1844        1843
         4        1793        1794        1845        1844
         4        1794        1795        1846        1845
         4        1795        1796        1847        1846
         4        1796        1797        1848        1847
         4        1797        1798        1849        1848
         4        1798        1799        1850        1849
         4        1799        1800        1851        1850
         4        1800        1801        1852        1851
         4        1801        1802        1853        1852
         4        1802        1803        1854        1853
         4        1803        1804        1855        1854
         4        1804        1805        1856        1855
         4        1805        1806        1857        1856
         4        1806        1807        1858        1857
         4        1807        1808        1859        1858
         4        1808        1809        1860        1859
         4        1809        1810        1861        1860
         4        1810        1811        1862        1861
         4        1811        1812        1863        1862
         4        1812        1813        1864        1863
         4        1813        1814        1865        1864
         4        1814        1815        1866        1865
         4        1815        1816        1867        1866
         4        1816        1817        1868        1867
         4        1817        1818        1869        1868
         4        1818        1819        1870        1869
         4        1819        1820        1871        1870
         4        1820        1821        1872        1871
         4        1821        1822        1873        1872
         4        1822        1823        1874        1873
         4        1823        1824        1875        1874
         4        1824        1825        1876        1875
         4        1825        1826        1877        1876
         4        1826        1827        1878        1877
         4        1827        1828        1879        1878
         4        1828        1829        1880        1879
         4        1829        1830        1881        1880
         4        1830        1831        1882        1881
         4        1831        1832        1883        1882
         4        1832        1833        1884        1883
         4        1833        1834        1885        1884
         4        1834        1835        1886        1885
         4        1836        1837        1888        1887
         4        1837        1838        1889        1888
         4        1838        1839        1890        1889
         4        1839        1840        1891        1890
         4        1840        1841        1892        1891
         4        1841        1842        1893        1892
         4        1842        1843        1894        1893
         4        1843        1844        1895        1894
         4        1844        1845        1896        1895
         4        1845        1846        1897        1896
         4        1846        1847        1898        1897
         4        1847        1848        1899        1898
         4        1848        1849        1900        1899
         4        1849        1850        1901        1900
         4        1850        1851        1902        1901
         4        1851        1852        1903        1902
         4        1852        1853        1904        1903
         4        1853        1854        1905        1904
         4        1854        1855        1906        1905
         4        1855        1856        1907        1906
         4        1856        1857        1908        1907
         4        1857        1858        1909        1908
         4        1858        1859        1910        1909
         4        1859        1860        1911        1910
         4        1860        1861        1912        1911
         4        1861        1862        1913        1912
         4        1862        1863        1914        1913
         4        1863        1864        1915        1914
         4        1864        1865        1916        1915
         4        1865        1866        1917        1916
         4        1866        1867        1918        1917
         4        1867        1868        1919        1918
         4        1868        1869        1920        1919
         4        1869        1870        1921        1920
         4        1870        1871        1922        1921
         4        1871        1872        1923        1922
         4        1872        1873        1924        1923
         4        1873        1874        1925        1924
         4        1874        1875        1926        1925
         4        1875        1876        1927        1926
         4        1876        1877        1928        1927
         4        1877        1878        1929        1928
         4        1878        1879        1930        1929
         4        1879        1880        1931        1930
         4        1880        1881        1932        1931
         4        1881        1882        1933        1932
         4        1882        1883        1934        1933
         4        1883        1884        1935        1934
         4        1884        1885        1936        1935
         4        1885        1886        1937        1936
         4        1887        1888        1939        1938
         4        1888        1889        1940        1939
         4        1889        1890        1941        1940
         4        1890        1891        1942        1941
         4        1891        1892        1943        1942
         4        1892        1893        1944        1943
         4        1893        1894        1945        1944
         4        1894        1895        1946        1945
         4        1895        1896        1947        1946
         4        1896        1897        1948        1947
         4        1897        1898        1949        1948
         4        1898        1899        1950        1949
         4        1899        1900        1951        1950
         4        1900        1901        1952        1951
         4        1901        1902        1953        1952
         4        1902        1903        1954        1953
         4        1903        1904        1955        1954
         4        1904        1905        1956        1955
         4        1905        1906        1957        1956
         4        1906        1907        1958        1957
         4        1907        1908        1959        1958
         4        1908        1909        1960        1959
         4        1909        1910        1961        1960
         4        1910        1911        1962        1961
         4        1911        1912        1963        1962
         4        1912        1913        1964        1963
         4        1913        1914        1965        1964
         4        1914        1915        1966        1965
         4        1915        1916        1967        1966
         4        1916        1917        1968        1967
         4        1917        1918        1969        1968
         4        1918        1919        1970        1969
         4        1919        1920        1971        1970
         4        1920        1921        1972        1971
         4        1921        1922        1973        1972
         4        1922        1923        1974        1973
         4        1923        1924        1975        1974
         4        1924        1925        1976        1975
         4        1925        1926        1977        1976
         4        1926        1927        1978        1977
         4        1927        1928        1979        1978
         4        1928        1929        1980        1979
         4        1929        1930        1981        1980
         4        1930        1931        1982        1981
         4        1931        1932        1983        1982
         4        1932        1933        1984        1983
         4        1933        1934        1985        1984
         4        1934        1935        1986        1985
         4        1935        1936        1987        1986
         4        1936        1937        1988        1987
         4        1938        1939        1990        1989
         4        1939        1940        1991        1990
         4        1940        1941        1992        1991
         4        1941        1942        1993        1992
         4        1942        1943        1994        1993
         4        1943        1944        1995        1994
         4        1944        1945        1996        1995
         4        1945        1946        1997        1996
         4        1946        1947        1998        1997
         4        1947        1948        1999        1998
         4        1948        1949        2000        1999
         4        1949        1950        2001        2000
         4        1950        1951        2002        2001
         4        1951        1952        2003        2002
         4        1952        1953        2004        2003
         4        1953        1954        2005        2004
         4        1954        1955        2006        2005
         4        1955        1956        2007        2006
         4        1956        1957        2008        2007
         4        1957        1958        2009        2008
         4        1958        1959        2010        2009
         4        1959        1960        2011        2010
         4        1960        1961        2012        2011
         4        1961        1962        2013        2012
         4        1962        1963        2014        2013
         4        1963        1964        2015        2014
         4        1964        1965        2016        2015
         4        1965        1966        2017        2016
         4        1966        1967        2018        2017
         4        1967        1968        2019        2018
         4        1968        1969        2020        2019
         4        1969        1970        2021        2020
         4        1970        1971        2022        2021
         4        1971        1972        2023        2022
         4        1972        1973        2024        2023
         4        1973        1974        2025        2024
         4        1974        1975        2026        2025
         4        1975        1976        2027        2026
         4        1976        1977        2028        2027
         4        1977        1978        2029        2028
         4        1978        1979        2030        2029
         4        1979        1980        2031        2030
         4        1980        1981        2032        2031
         4        1981        1982        2033        2032
         4        1982        1983        2034        2033
         4        1983        1984        2035        2034
         4        1984        1985        2036        2035
         4        1985        1986        2037        2036
         4        1986        1987        2038        2037
         4        1987        1988        2039        2038
         4        1989        1990        2041        2040
         4        1990        1991        2042        2041
         4        1991        1992        2043        2042
         4        1992        1993        2044        2043
         4        1993        1994        2045        2044
         4        1994        1995        2046        2045
         4        1995        1996        2047        2046
         4        1996        1997        2048        2047
         4        1997        1998        2049        2048
         4        1998        1999        2050        2049
         4        1999        2000        2051        2050
         4        2000        2001        2052        2051
         4        2001        2002        2053        2052
         4        2002        2003        2054        2053
         4        2003        2004        2055        2054
         4        2004        2005        2056        2055
         4        2005        2006        2057        2056
         4        2006        2007        2058        2057
         4        2007        2008        2059        2058
         4        2008        2009        2060        2059
         4        2009        2010        2061        2060
         4        2010        2011        2062        2061
         4        2011        2012        2063        2062
         4        2012        2013        2064        2063
         4        2013        2014        2065        2064
         4        2014        2015        2066        2065
         4        2015        2016        2067        2066
         4        2016        2017        2068        2067
         4        2017        2018        2069        2068
         4        2018        2019        2070        2069
         4        2019        2020        2071        2070
         4        2020        2021        2072        2071
         4        2021        2022        2073        2072
         4        2022        2023        2074        2073
         4        2023        2024        2075        2074
         4        2024        2025        2076        2075
         4        2025        2026        2077        2076
         4        2026        2027        2078        2077
         4        2027        2028        2079        2078
         4        2028        2029        2080        2079
         4        2029        2030        2081        2080
         4        2030        2031        2082        2081
         4        2031        2032        2083        2082
         4        2032        2033        2084        2083
         4        2033        2034        2085        2084
         4        2034        2035        2086        2085
         4        2035        2036        2087        2086
         4        2036        2037        2088        2087
         4        2037        2038        2089        2088
         4        2038        2039        2090        2089
         4        2040        2041        2092        2091
         4        2041        2042        2093        2092
         4        2042        2043        2094        2093
         4        2043        2044        2095        2094
         4        2044        2045        2096        2095
         4        2045        2046        2097        2096
         4        2046        2047        2098        2097
         4        2047        2048        2099        2098
         4        2048        2049        2100        2099
         4        2049        2050        2101        2100
         4        2050        2051        2102        2101
         4        2051        2052        2103        2102
         4        2052        2053        2104        2103
         4        2053        2054        2105        2104
         4        2054        2055        2106        2105
         4        2055        2056        2107        2106
         4        2056        2057        2108        2107
         4        2057        2058        2109        2108
         4        2058        2059        2110        2109
         4        2059        2060        2111        2110
         4        2060        2061        2112        2111
         4        2061        2062        2113        2112
         4        2062        2063        2114        2113
         4        2063        2064        2115        2114
         4        2064        2065        2116        2115
         4        2065        2066        2117        2116
         4        2066        2067        2118        2117
         4        2067        2068        2119        2118
         4        2068        2069        2120        2119
         4        2069        2070        2121        2120
         4        2070        2071        2122        2121
         4        2071        2072        2123        2122
         4        2072        2073        2124        2123
         4        2073        2074        2125        2124
         4        2074        2075        2126        2125
         4        2075        2076        2127        2126
         4        2076        2077        2128        2127
         4        2077        2078        2129        2128
         4        2078        2079        2130        2129
         4        2079        2080        2131        2130
         4        2080        2081        2132        2131
         4        2081        2082        2133        2132
         4        2082        2083        2134        2133
         4        2083        2084        2135        2134
         4        2084        2085        2136        2135
         4        2085        2086        2137        2136
         4        2086        2087        2138        2137
         4        2087        2088        2139        2138
         4        2088        2089        2140        2139
         4        2089        2090        2141        2140
         4        2091        2092        2143        2142
         4        2092        2093        2144        2143
         4        2093        2094        2145        2144
         4        2094        2095        2146        2145
         4        2095        2096        2147        2146
         4        2096        2097        2148        2147
         4        2097        2098        2149        2148
         4        2098        2099        2150        2149
         4        2099        2100        2151        2150
         4        2100        2101        2152        2151
         4        2101        2102        2153        2152
         4        2102        2103        2154        2153
         4        2103        2104        2155        2154
         4        2104        2105        2156        2155
         4        2105        2106        2157        2156
         4        2106        2107        2158        2157
         4        2107        2108        2159        2158
         4        2108        2109        2160        2159
         4        2109        2110        2161        2160
         4        2110        2111        2162        2161
         4        2111        2112        2163        2162
         4        2112        2113        2164        2163
         4        2113        2114        2165        2164
         4        2114        2115        2166        2165
         4        2115        2116        2167        2166
         4        2116        2117        2168        2167
         4        2117        2118        2169        2168
         4        2118        2119        2170        2169
         4        2119        2120        2171        2170
         4        2120        2121        2172        2171
         4        2121        2122        2173        2172
         4        2122        2123        2174        2173
         4        2123        2124        2175        2174
         4        2124        2125        2176        2175
         4        2125        2126        2177        2176
         4        2126        2127        2178        2177
         4        2127        2128        2179        2178
         4        2128        2129        2180        2179
         4        2129        2130        2181        2180
         4        2130        2131        2182        2181
         4        2131        2132        2183        2182
         4        2132        2133        2184        2183
         4        2133        2134        2185        2184
         4        2134        2135        2186        2185
         4        2135        2136        2187        2186
         4        2136        2137        2188        2187
         4        2137        2138        2189        2188
         4        2138        2139        2190        2189
         4        2139        2140        2191        2190
         4        2140        2141        2192        2191
         4        2142        2143        2194        2193
         4        2143        2144        2195        2194
         4        2144        2145        2196        2195
         4        2145        2146        2197        2196
         4        2146        2147        2198        2197
         4        2147        2148        2199        2198
         4        2148        2149        2200        2199
         4        2149        2150        2201        2200
         4        2150        2151        2202        2201
         4        2151        2152        2203        2202
         4        2152        2153        2204        2203
         4        2153        2154        2205        2204
         4        2154        2155        2206        2205
         4        2155        2156        2207        2206
         4        2156        2157        2208        2207
         4        2157        2158        2209        2208
         4        2158        2159        2210        2209
         4        2159        2160        2211        2210
         4        2160        2161        2212        2211
         4        2161        2162        2213        2212
         4        2162        2163        2214        2213
         4        2163        2164        2215        2214
         4        2164        2165        2216        2215
         4        2165        2166        2217        2216
         4        2166        2167        2218        2217
         4        2167        2168        2219        2218
         4        2168        2169        2220        2219
         4        2169        2170        2221        2220
         4        2170        2171        2222        2221
         4        2171        2172        2223        2222
         4        2172        2173        2224        2223
         4        2173        2174        2225        2224
         4        2174        2175        2226        2225
         4        2175        2176        2227        2226
         4        2176        2177        2228        2227
         4        2177        2178        2229        2228
         4        2178        2179        2230        2229
         4        2179        2180        2231        2230
         4        2180        2181        2232        2231
         4        2181        2182        2233        2232
         4        2182        2183        2234        2233
         4        2183        2184        2235        2234
         4        2184        2185        2236        2235
         4        2185        2186        2237        2236
         4        2186        2187        2238        2237
         4        2187        2188        2239        2238
         4        2188        2189        2240        2239
         4        2189        2190        2241        2240
         4        2190        2191        2242        2241
         4        2191        2192        2243        2242
         4        2193        2194        2245        2244
         4        2194        2195        2246        2245
         4        2195        2196        2247        2246
         4        2196        2197        2248        2247
         4        2197        2198        2249        2248
         4        2198        2199        2250        2249
         4        2199        2200        2251        2250
         4        2200        2201        2252        2251
         4        2201        2202        2253        2252
         4        2202        2203        2254        2253
         4        2203        2204        2255        2254
         4        2204        2205        2256        2255
         4        2205        2206        2257        2256
         4        2206        2207        2258        2257
         4        2207        2208        2259        2258
         4        2208        2209        2260        2259
         4        2209        2210        2261        2260
         4        2210        2211        2262        2261
         4        2211        2212        2263        2262
         4        2212        2213        2264        2263
         4        2213        2214        2265        2264
         4        2214        2215        2266        2265
         4        2215        2216        2267        2266
         4        2216        2217        2268        2267
         4        2217        2218        2269        2268
         4        2218        2219        2270        2269
         4        2219        2220        2271        2270
         4        2220        2221        2272        2271
         4        2221        2222        2273        2272
         4        2222        2223        2274        2273
         4        2223        2224        2275        2274
         4        2224        2225        2276        2275
         4        2225        2226        2277        2276
         4        2226        2227        2278        2277
         4        2227        2228        2279        2278
         4        2228        2229        2280        2279
         4        2229        2230        2281        2280
         4        2230        2231        2282        2281
         4        2231        2232        2283        2282
         4        2232        2233        2284        2283
         4        2233        2234        2285        2284
         4        2234        2235        2286        2285
         4        2235        2236        2287        2286
         4        2236        2237        2288        2287
         4        2237        2238        2289        2288
         4        2238        2239        2290        2289
         4        2239        2240        2291        2290
         4        2240        2241        2292        2291
         4        2241        2242        2293        2292
         4        2242        2243        2294        2293
         4        2244        2245        2296        2295
         4        2245        2246        2297        2296
         4        2246        2247        2298        2297
         4        2247        2248        2299        2298
         4        2248        2249        2300        2299
         4        2249        2250        2301        2300
         4        2250        2251        2302        2301
         4        2251        2252        2303        2302
         4        2252        2253        2304        2303
         4        2253        2254        2305        2304
         4        2254        2255        2306        2305
         4        2255        2256        2307        2306
         4        2256        2257        2308        2307
         4        2257        2258        2309        2308
         4        2258        2259        2310        2309
         4        2259        2260        2311        2310
         4        2260        2261        2312        2311
         4        2261        2262        2313        2312
         4        2262        2263        2314        2313
         4        2263        2264        2315        2314
         4        2264        2265        2316        2315
         4        2265        2266        2317        2316
         4        2266        2267        2318        2317
         4        2267        2268        2319        2318
         4        2268        2269        2320        2319
         4        2269        2270        2321        2320
         4        2270        2271        2322        2321
         4        2271        2272        2323        2322
         4        2272        2273        2324        2323
         4        2273        2274        2325        2324
         4        2274        2275        2326        2325
         4        2275        2276        2327        2326
         4        2276        2277        2328        2327
         4        2277        2278        2329        2328
         4        2278        2279        2330        2329
         4        2279        2280        2331        2330
         4        2280        2281        2332        2331
         4        2281        2282        2333        2332
         4        2282        2283        2334        2333
         4        2283        2284        2335        2334
         4        2284        2285        2336        2335
         4        2285        2286        2337        2336
         4        2286        2287        2338        2337
         4        2287        2288        2339        2338
         4        2288        2289        2340        2339
         4        2289        2290        2341        2340
         4        2290        2291        2342        2341
         4        2291        2292        2343        2342
         4        2292        2293        2344        2343
         4        2293        2294        2345        2344
         4        2295        2296        2347        2346
         4        2296        2297        2348        2347
         4        2297        2298        2349        2348
         4        2298        2299        2350        2349
         4        2299        2300        2351        2350
         4        2300        2301        2352        2351
         4        2301        2302        2353        2352
         4        2302        2303        2354        2353
         4        2303        2304        2355        2354
         4        2304        2305        2356        2355
         4        2305        2306        2357        2356
         4        2306        2307        2358        2357
         4        2307        2308        2359        2358
         4        2308        2309        2360        2359
         4        2309        2310        2361        2360
         4        2310        2311        2362        2361
         4        2311        2312        2363        2362
         4        2312        2313        2364        2363
         4        2313        2314        2365        2364
         4        2314        2315        2366        2365
         4        2315        2316        2367        2366
         4        2316        2317        2368        2367
         4        2317        2318        2369        2368
         4        2318        2319        2370        2369
         4        2319        2320        2371        2370
         4        2320        2321        2372        2371
         4        2321        2322        2373        2372
         4        2322        2323        2374        2373
         4        2323        2324        2375        2374
         4        2324        2325        2376        2375
         4        2325        2326        2377        2376
         4        2326        2327        2378        2377
         4        2327        2328        2379        2378
         4        2328        2329        2380        2379
         4        2329        2330        2381        2380
         4        2330        2331        2382        2381
         4        2331        2332        2383        2382
         4        2332        2333        2384        2383
         4        2333        2334        2385        2384
         4        2334        2335        2386        2385
         4        2335        2336        2387        2386
         4        2336        2337        2388        2387
         4        2337        2338        2389        2388
         4        2338        2339        2390        2389
         4        2339        2340        2391        2390
         4        2340        2341        2392        2391
         4        2341        2342        2393        2392
         4        2342        2343        2394        2393
         4        2343        2344        2395        2394
         4        2344        2345        2396        2395
         4        2346        2347        2398        2397
         4        2347        2348        2399        2398
         4        2348        2349        2400        2399
         4        2349        2350        2401        2400
         4        2350        2351        2402        2401
         4        2351        2352        2403        2402
         4        2352        2353        2404        2403
         4        2353        2354        2405        2404
         4        2354        2355        2406        2405
         4        2355        2356        2407        2406
         4        2356        2357        2408        2407
         4        2357        2358        2409        2408
         4        2358        2359        2410        2409
         4        2359        2360        2411        2410
         4        2360        2361        2412        2411
         4        2361        2362        2413        2412
         4        2362        2363        2414        2413
         4        2363        2364        2415        2414
         4        2364        2365        2416        2415
         4        2365        2366        2417        2416
         4        2366        2367        2418        2417
         4        2367        2368        2419        2418
         4        2368        2369        2420        2419
         4        2369        2370        2421        2420
         4        2370        2371        2422        2421
         4        2371        2372        2423        2422
         4        2372        2373        2424        2423
         4        2373        2374        2425        2424
         4        2374        2375        2426        2425
         4        2375        2376        2427        2426
         4        2376        2377        2428        2427
         4        2377        2378        2429        2428
         4        2378        2379        2430        2429
         4        2379        2380        2431        2430
         4        2380        2381        2432        2431
         4        2381        2382        2433        2432
         4        2382        2383        2434        2433
         4        2383        2384        2435        2434
         4        2384        2385        2436        2435
         4        2385        2386        2437        2436
         4        2386        2387        2438        2437
         4        2387        2388        2439        2438
         4        2388        2389        2440        2439
         4        2389        2390        2441        2440
         4        2390        2391        2442        2441
         4        2391        2392        2443        2442
         4        2392        2393        2444        2443
         4        2393        2394        2445        2444
         4        2394        2395        2446        2445
         4        2395        2396        2447        2446
         4        2397        2398        2449        2448
         4        2398        2399        2450        2449
         4        2399        2400        2451        2450
         4        2400        2401        2452        2451
         4        2401        2402        2453        2452
         4        2402        2403        2454        2453
         4        2403        2404        2455        2454
         4        2404        2405        2456        2455
         4        2405        2406        2457        2456
         4        2406        2407        2458        2457
         4        2407        2408        2459        2458
         4        2408        2409        2460        2459
         4        2409        2410        2461        2460
         4        2410        2411        2462        2461
         4        2411        2412        2463        2462
         4        2412        2413        2464        2463
         4        2413        2414        2465        2464
         4        2414        2415        2466        2465
         4        2415        2416        2467        2466
         4        2416        2417        2468        2467
         4        2417        2418        2469        2468
         4        2418        2419        2470        2469
         4        2419        2420        2471        2470
         4        2420        2421        2472        2471
         4        2421        2422        2473        2472
         4        2422        2423        2474        2473
         4        2423        2424        2475        2474
         4        2424        2425        2476        2475
         4        2425        2426        2477        2476
         4        2426        2427        2478        2477
         4        2427        2428        2479        2478
         4        2428        2429        2480        2479
         4        2429        2430        2481        2480
         4        2430        2431        2482        2481
         4        2431        2432        2483        2482
         4        2432        2433        2484        2483
         4        2433        2434        2485        2484
         4        2434        2435        2486        2485
         4        2435        2436        2487        2486
         4        2436        2437        2488        2487
         4        2437        2438        2489        2488
         4        2438        2439        2490        2489
         4        2439        2440        2491        2490
         4        2440        2441        2492        2491
         4        2441        2442        2493        2492
         4        2442        2443        2494        2493
         4        2443        2444        2495        2494
         4        2444        2445        2496        2495
         4        2445        2446        2497        2496
         4        2446        2447        2498        2497
         4        2448        2449        2500        2499
         4        2449        2450        2501        2500
         4        2450        2451        2502        2501
         4        2451        2452        2503        2502
         4        2452        2453        2504        2503
         4        2453        2454        2505        2504
         4        2454        2455        2506        2505
         4        2455        2456        2507        2506
         4        2456        2457        2508        2507
         4        2457        2458        2509        2508
         4        2458        2459        2510        2509
         4        2459        2460        2511        2510
         4        2460        2461        2512        2511
         4        2461        2462        2513        2512
         4        2462        2463        2514        2513
         4        2463        2464        2515        2514
         4        2464        2465        2516        2515
         4        2465        2466        2517        2516
         4        2466        2467        2518        2517
         4        2467        2468        2519        2518
         4        2468        2469        2520        2519
         4        2469        2470        2521        2520
         4        2470        2471        2522        2521
         4        2471        2472        2523        2522
         4        2472        2473        2524        2523
         4        2473        2474        2525        2524
         4        2474        2475        2526        2525
         4        2475        2476        2527        2526
         4        2476        2477        2528        2527
         4        2477        2478        2529        2528
         4        2478        2479        2530        2529
         4        2479        2480        2531        2530
         4        2480        2481        2532        2531
         4        2481        2482        2533        2532
         4        2482        2483        2534        2533
         4        2483        2484        2535        2534
         4        2484        2485        2536        2535
         4        2485        2486        2537        2536
         4        2486        2487        2538        2537
         4        2487        2488        2539        2538
         4        2488        2489        2540        2539
         4        2489        2490        2541        2540
         4        2490        2491        2542        2541
         4        2491        2492        2543        2542
         4        2492        2493        2544        2543
         4        2493        2494        2545        2544
         4        2494        2495        2546        2545
         4        2495        2496        2547        2546
         4        2496        2497        2548        2547
         4        2497        2498        2549        2548
         4        2499        2500        2551        2550
         4        2500        2501        2552        2551
         4        2501        2502        2553        2552
         4        2502        2503        2554        2553
         4        2503        2504        2555        2554
         4        2504        2505        2556        2555
         4        2505        2506        2557        2556
         4        2506        2507        2558        2557
         4        2507        2508        2559        2558
         4        2508        2509        2560        2559
         4        2509        2510        2561        2560
         4        2510        2511        2562        2561
         4        2511        2512        2563        2562
         4        2512        2513        2564        2563
         4        2513        2514        2565        2564
         4        2514        2515        2566        2565
         4        2515        2516        2567        2566
         4        2516        2517        2568        2567
         4        2517        2518        2569        2568
         4        2518        2519        2570        2569
         4        2519        2520        2571        2570
         4        2520        2521        2572        2571
         4        2521        2522        2573        2572
         4        2522        2523        2574        2573
         4        2523        2524        2575        2574
         4        2524        2525        2576        2575
         4        2525        2526        2577        2576
         4        2526        2527        2578        2577
         4        2527        2528        2579        2578
         4        2528        2529        2580        2579
         4        2529        2530        2581        2580
         4        2530        2531        2582        2581
         4        2531        2532        2583        2582
         4        2532        2533        2584        2583
         4        2533        2534        2585        2584
         4        2534        2535        2586        2585
         4        2535        2536        2587        2586
         4        2536        2537        2588        2587
         4        2537        2538        2589        2588
         4        2538        2539        2590        2589
         4        2539        2540        2591        2590
         4        2540        2541        2592        2591
         4        2541        2542        2593        2592
         4        2542        2543        2594        2593
         4        2543        2544        2595        2594
         4        2544        2545        2596        2595
         4        2545        2546        2597        2596
         4        2546        2547        2598        2597
         4        2547        2548        2599        2598
         4        2548        2549        2600        2599
         4        2550        2551        2602        2601
         4        2551        2552        2603        2602
         4        2552        2553        2604        2603
         4        2553        2554        2605        2604
         4        2554        2555        2606        2605
         4        2555        2556        2607        2606
         4        2556        2557        2608        2607
         4        2557        2558        2609        2608
         4        2558        2559        2610        2609
         4        2559        2560        2611        2610
         4        2560        2561        2612        2611
         4        2561        2562        2613        2612
         4        2562        2563        2614        2613
         4        2563        2564        2615        2614
         4        2564        2565        2616        2615
         4        2565        2566        2617        2616
         4        2566        2567        2618        2617
         4        2567        2568        2619        2618
         4        2568        2569        2620        2619
         4        2569        2570        2621        2620
         4        2570        2571        2622        2621
         4        2571        2572        2623        2622
         4        2572        2573        2624        2623
         4        2573        2574        2625        2624
         4        2574        2575        2626        2625
         4        2575        2576        2627        2626
         4        2576        2577        2628        2627
         4        2577        2578        2629        2628
         4        2578        2579        2630        2629
         4        2579        2580        2631        2630
         4        2580        2581        2632        2631
         4        2581        2582        2633        2632
         4        2582        2583        2634        2633
         4        2583        2584        2635        2634
         4        2584        2585        2636        2635
         4        2585        2586        2637        2636
         4        2586        2587        2638        2637
         4        2587        2588        2639        2638
         4        2588        2589        2640        2639
         4        2589        2590        2641        2640
         4        2590        2591        2642        2641
         4        2591        2592        2643        2642
         4        2592        2593        2644        2643
         4        2593        2594        2645        2644
         4        2594        2595        2646        2645
         4        2595        2596        2647        2646
         4        2596        2597        2648        2647
         4        2597        2598        2649        2648
         4        2598        2599        2650        2649
         4        2599        2600        2651        2650
         4        2601        2602        2653        2652
         4        2602        2603        2654        2653
         4        2603        2604        2655        2654
         4        2604        2605        2656        2655
         4        2605        2606        2657        2656
         4        2606        2607        2658        2657
         4        2607        2608        2659        2658
         4        2608        2609        2660        2659
         4        2609        2610        2661        2660
         4        2610        2611        2662        2661
         4        2611        2612        2663        2662
         4        2612        2613        2664        2663
         4        2613        2614        2665        2664
         4        2614        2615        2666        2665
         4        2615        2616        2667        2666
         4        2616        2617        2668        2667
         4        2617        2618        2669        2668
         4        2618        2619        2670        2669
         4        2619        2620        2671        2670
         4        2620        2621        2672        2671
         4        2621        2622        2673        2672
         4        2622        2623        2674        2673
         4        2623        2624        2675        2674
         4        2624        2625        2676        2675
         4        2625        2626        2677        2676
         4        2626        2627        2678        2677
         4        2627        2628        2679        2678
         4        2628        2629        2680        2679
         4        2629        2630        2681        2680
         4        2630        2631        2682        2681
         4        2631        2632        2683        2682
         4        2632        2633        2684        2683
         4        2633        2634        2685        2684
         4        2634        2635        2686        2685
         4        2635        2636        2687        2686
         4        2636        2637        2688        2687
         4        2637        2638        2689        2688
         4        2638        2639        2690        2689
         4        2639        2640        2691        2690
         4        2640        2641        2692        2691
         4        2641        2642        2693        2692
         4        2642        2643        2694        2693
         4        2643        2644        2695        2694
         4        2644        2645        2696        2695
         4        2645        2646        2697        2696
         4        2646        2647        2698        2697
         4        2647        2648        2699        2698
         4        2648        2649        2700        2699
         4        2649        2650        2701        2700
         4        2650        2651        2702        2701
         4        2652        2653        2704        2703
         4        2653        2654        2705        2704
         4        2654        2655        2706        2705
         4        2655        2656        2707        2706
         4        2656        2657        2708        2707
         4        2657        2658        2709        2708
         4        2658        2659        2710        2709
         4        2659        2660        2711        2710
         4        2660        2661        2712        2711
         4        2661        2662        2713        2712
         4        2662        2663        2714        2713
         4        2663        2664        2715        2714
         4        2664        2665        2716        2715
         4        2665        2666        2717        2716
         4        2666        2667        2718        2717
         4        2667        2668        2719        2718
         4        2668        2669        2720        2719
         4        2669        2670        2721        2720
         4        2670        2671        2722        2721
         4        2671        2672        2723        2722
         4        2672        2673        2724        2723
         4        2673        2674        2725        2724
         4        2674        2675        2726        2725
         4        2675        2676        2727        2726
         4        2676        2677        2728        2727
         4        2677        2678        2729        2728
         4        2678        2679        2730        2729
         4        2679        2680        2731        2730
         4        2680        2681        2732        2731
         4        2681        2682        2733        2732
         4        2682        2683        2734        2733
         4        2683        2684        2735        2734
         4        2684        2685        2736        2735
         4        2685        2686        2737        2736
         4        2686        2687        2738        2737
         4        2687        2688        2739        2738
         4        2688        2689        2740        2739
         4        2689        2690        2741        2740
         4        2690        2691        2742        2741
         4        2691        2692        2743        2742
         4        2692        2693        2744        2743
         4        2693        2694        2745        2744
         4        2694        2695        2746        2745
         4        2695        2696        2747        2746
         4        2696        2697        2748        2747
         4        2697        2698        2749        2748
         4        2698        2699        2750        2749
         4        2699        2700        2751        2750
         4        2700        2701        2752        2751
         4        2701        2702        2753        2752
         4        2703        2704        2755        2754
         4        2704        2705        2756        2755
         4        2705        2706        2757        2756
         4        2706        2707        2758        2757
         4        2707        2708        2759        2758
         4        2708        2709        2760        2759
         4        2709        2710        2761        2760
         4        2710        2711        2762        2761
         4        2711        2712        2763        2762
         4        2712        2713        2764        2763
         4        2713        2714        2765        2764
         4        2714        2715        2766        2765
         4        2715        2716        2767        2766
         4        2716        2717        2768        2767
         4        2717        2718        2769        2768
         4        2718        2719        2770        2769
         4        2719        2720        2771        2770
         4        2720        2721        2772        2771
         4        2721        2722        2773        2772
         4        2722        2723        2774        2773
         4        2723        2724        2775        2774
         4        2724        2725        2776        2775
         4        2725        2726        2777        2776
         4        2726        2727        2778        2777
         4        2727        2728        2779        2778
         4        2728        2729        2780        2779
         4        2729        2730        2781        2780
         4        2730        2731        2782        2781
         4        2731        2732        2783        2782
         4        2732        2733        2784        2783
         4        2733        2734        2785        2784
         4        2734        2735        2786        2785
         4        2735        2736        2787        2786
         4        2736        2737        2788        2787
         4        2737        2738        2789        2788
         4        2738        2739        2790        2789
         4        2739        2740        2791        2790
         4        2740        2741        2792        2791
         4        2741        2742        2793        2792
         4        2742        2743        2794        2793
         4        2743        2744        2795        2794
         4        2744        2745        2796        2795
         4        2745        2746        2797        2796
         4        2746        2747        2798        2797
         4        2747        2748        2799        2798
         4        2748        2749        2800        2799
         4        2749        2750        2801        2800
         4        2750        2751        2802        2801
         4        2751        2752        2803        2802
         4        2752        2753        2804        2803
         4        2754        2755        2806        2805
         4        2755        2756        2807        2806
         4        2756        2757        2808        2807
         4        2757        2758        2809        2808
         4        2758        2759        2810        2809
         4        2759        2760        2811        2810
         4        2760        2761        2812        2811
         4        2761        2762        2813        2812
         4        2762        2763        2814        2813
         4        2763        2764        2815        2814
         4        2764        2765        2816        2815
         4        2765        2766        2817        2816
         4        2766        2767        2818        2817
         4        2767        2768        2819        2818
         4        2768        2769        2820        2819
         4        2769        2770        2821        2820
         4        2770        2771        2822        2821
         4        2771        2772        2823        2822
         4        2772        2773        2824        2823
         4        2773        2774        2825        2824
         4        2774        2775        2826        2825
         4        2775        2776        2827        2826
         4        2776        2777        2828        2827
         4        2777        2778        2829        2828
         4        2778        2779        2830        2829
         4        2779        2780        2831        2830
         4        2780        2781        2832        2831
         4        2781        2782        2833        2832
         4        2782        2783        2834        2833
         4        2783        2784        2835        2834
         4        2784        2785        2836        2835
         4        2785        2786        2837        2836
         4        2786        2787        2838        2837
         4        2787        2788        2839        2838
         4        2788        2789        2840        2839
         4        2789        2790        2841        2840
         4        2790        2791        2842        2841
         4        2791        2792        2843        2842
         4        2792        2793        2844        2843
         4        2793        2794        2845        2844
         4        2794        2795        2846        2845
         4        2795        2796        2847        2846
         4        2796        2797        2848        2847
         4        2797        2798        2849        2848
         4        2798        2799        2850        2849
         4        2799        2800        2851        2850
         4        2800        2801        2852        2851
         4        2801        2802        2853        2852
         4        2802        2803        2854        2853
         4        2803        2804        2855        2854
         4        2805        2806        2857        2856
         4        2806        2807        2858        2857
         4        2807        2808        2859        2858
         4        2808        2809        2860        2859
         4        2809        2810        2861        2860
         4        2810        2811        2862        2861
         4        2811        2812        2863        2862
         4        2812        2813        2864        2863
         4        2813        2814        2865        2864
         4        2814        2815        2866        2865
         4        2815        2816        2867        2866
         4        2816        2817        2868        2867
         4        2817        2818        2869        2868
         4        2818        2819        2870        2869
         4        2819        2820        2871        2870
         4        2820        2821        2872        2871
         4        2821        2822        2873        2872
         4        2822        2823        2874        2873
         4        2823        2824        2875        2874
         4        2824        2825        2876        2875
         4        2825        2826        2877        2876
         4        2826        2827        2878        2877
         4        2827        2828        2879        2878
         4        2828        2829        2880        2879
         4        2829        2830        2881        2880
         4        2830        2831        2882        2881
         4        2831        2832        2883        2882
         4        2832        2833        2884        2883
         4        2833        2834        2885        2884
         4        2834        2835        2886        2885
         4        2835        2836        2887        2886
         4        2836        2837        2888        2887
         4        2837        2838        2889        2888
         4        2838        2839        2890        2889
         4        2839        2840        2891        2890
         4        2840        2841        2892        2891
         4        2841        2842        2893        2892
         4        2842        2843        2894        2893
         4        2843        2844        2895        2894
         4        2844        2845        2896        2895
         4        2845        2846        2897        2896
         4        2846        2847        2898        2897
         4        2847        2848        2899        2898
         4        2848        2849        2900        2899
         4        2849        2850        2901        2900
         4        2850        2851        2902        2901
         4        2851        2852        2903        2902
         4        2852        2853        2904        2903
         4        2853        2854        2905        2904
         4        2854        2855        2906        2905
         4        2856        2857        2908        2907
         4        2857        2858        2909        2908
         4        2858        2859        2910        2909
         4        2859        2860        2911        2910
         4        2860        2861        2912        2911
         4        2861        2862        2913        2912
         4        2862        2863        2914        2913
         4        2863        2864        2915        2914
         4        2864        2865        2916        2915
         4        2865        2866        2917        2916
         4        2866        2867        2918        2917
         4        2867        2868        2919        2918
         4        2868        2869        2920        2919
         4        2869        2870        2921        2920
         4        2870        2871        2922        2921
         4        2871        2872        2923        2922
         4        2872        2873        2924        2923
         4        2873        2874        2925        2924
         4        2874        2875        2926        2925
         4        2875        2876        2927        2926
         4        2876        2877        2928        2927
         4        2877        2878        2929        2928
         4        2878        2879        2930        2929
         4        2879        2880        2931        2930
         4        2880        2881        2932        2931
         4        2881        2882        2933        2932
         4        2882        2883        2934        2933
         4        2883        2884        2935        2934
         4        2884        2885        2936        2935
         4        2885        2886        2937        2936
         4        2886        2887        2938        2937
         4        2887        2888        2939        2938
         4        2888        2889        2940        2939
         4        2889        2890        2941        2940
         4        2890        2891        2942        2941
         4        2891        2892        2943        2942
         4        2892        2893        2944        2943
         4        2893        2894        2945        2944
         4        2894        2895        2946        2945
         4        2895        2896        2947        2946
         4        2896        2897        2948        2947
         4        2897        2898        2949        2948
         4        2898        2899        2950        2949
         4        2899        2900        2951        2950
         4        2900        2901        2952        2951
         4        2901        2902        2953        2952
         4        2902        2903        2954        2953
         4        2903        2904        2955        2954
         4        2904        2905        2956        2955
         4        2905        2906        2957        2956
         4        2907        2908        2959        2958
         4        2908        2909        2960        2959
         4        2909        2910        2961        2960
         4        2910        2911        2962        2961
         4        2911        2912        2963        2962
         4        2912        2913        2964        2963
         4        2913        2914        2965        2964
         4        2914        2915        2966        2965
         4        2915        2916        2967        2966
         4        2916        2917        2968        2967
         4        2917        2918        2969        2968
         4        2918        2919        2970        2969
         4        2919        2920        2971        2970
         4        2920        2921        2972        2971
         4        2921        2922        2973        2972
         4        2922        2923        2974        2973
         4        2923        2924        2975        2974
         4        2924        2925        2976        2975
         4        2925        2926        2977        2976
         4        2926        2927        2978        2977
         4        2927        2928        2979        2978
         4        2928        2929        2980        2979
         4        2929        2930        2981        2980
         4        2930        2931        2982        2981
         4        2931        2932        2983        2982
         4        2932        2933        2984        2983
         4        2933        2934        2985        2984
         4        2934        2935        2986        2985
         4        2935        2936        2987        2986
         4        2936        2937        2988        2987
         4        2937        2938        2989        2988
         4        2938        2939        2990        2989
         4        2939        2940        2991        2990
         4        2940        2941        2992        2991
         4        2941        2942        2993        2992
         4        2942        2943        2994        2993
         4        2943        2944        2995        2994
         4        2944        2945        2996        2995
         4        2945        2946        2997        2996
         4        2946        2947        2998        2997
         4        2947        2948        2999        2998
         4        2948        2949        3000        2999
         4        2949        2950        3001        3000
         4        2950        2951        3002        3001
         4        2951        2952        3003        3002
         4        2952        2953        3004        3003
         4        2953        2954        3005        3004
         4        2954        2955        3006        3005
         4        2955        2956        3007        3006
         4        2956        2957        3008        3007
         4        2958        2959        3010        3009
         4        2959        2960        3011        3010
         4        2960        2961        3012        3011
         4        2961        2962        3013        3012
         4        2962        2963        3014        3013
         4        2963        2964        3015        3014
         4        2964        2965        3016        3015
         4        2965        2966        3017        3016
         4        2966        2967        3018        3017
         4        2967        2968        3019        3018
         4        2968        2969        3020        3019
         4        2969        2970        3021        3020
         4        2970        2971        3022        3021
         4        2971        2972        3023        3022
         4        2972        2973        3024        3023
         4        2973        2974        3025        3024
         4        2974        2975        3026        3025
         4        2975        2976        3027        3026
         4        2976        2977        3028        3027
         4        2977        2978        3029        3028
         4        2978        2979        3030        3029
         4        2979        2980        3031        3030
         4        2980        2981        3032        3031
         4        2981        2982        3033        3032
         4        2982        2983        3034        3033
         4        2983        2984        3035        3034
         4        2984        2985        3036        3035
         4        2985        2986        3037        3036
         4        2986        2987        3038        3037
         4        2987        2988        3039        3038
         4        2988        2989        3040        3039
         4        2989        2990        3041        3040
         4        2990        2991        3042        3041
         4        2991        2992        3043        3042
         4        2992        2993        3044        3043
         4        2993        2994        3045        3044
         4        2994        2995        3046        3045
         4        2995        2996        3047        3046
         4        2996        2997        3048        3047
         4        2997        2998        3049        3048
         4        2998        2999        3050        3049
         4        2999        3000        3051        3050
         4        3000        3001        3052        3051
         4        3001        3002        3053        3052
         4        3002        3003        3054        3053
         4        3003        3004        3055        3054
         4        3004        3005        3056        3055
         4        3005        3006        3057        3056
         4        3006        3007        3058        3057
         4        3007        3008        3059        3058
         4        3009        3010        3061        3060
         4        3010        3011        3062        3061
         4        3011        3012        3063        3062
         4        3012        3013        3064        3063
         4        3013        3014        3065        3064
         4        3014        3015        3066        3065
         4        3015        3016        3067        3066
         4        3016        3017        3068        3067
         4        3017        3018        3069        3068
         4        3018        3019        3070        3069
         4        3019        3020        3071        3070
         4        3020        3021        3072        3071
         4        3021        3022        3073        3072
         4        3022        3023        3074        3073
         4        3023        3024        3075        3074
         4        3024        3025        3076        3075
         4        3025        3026        3077        3076
         4        3026        3027        3078        3077
         4        3027        3028        3079        3078
         4        3028        3029        3080        3079
         4        3029        3030        3081        3080
         4        3030        3031        3082        3081
         4        3031        3032        3083        3082
         4        3032        3033        3084        3083
         4        3033        3034        3085        3084
         4        3034        3035        3086        3085
         4        3035        3036        3087        3086
         4        3036        3037        3088        3087
         4        3037        3038        3089        3088
         4        3038        3039        3090        3089
         4        3039        3040        3091        3090
         4        3040        3041        3092        3091
         4        3041        3042        3093        3092
         4        3042        3043        3094        3093
         4        3043        3044        3095        3094
         4        3044        3045        3096        3095
         4        3045        3046        3097        3096
         4        3046        3047        3098        3097
         4        3047        3048        3099        3098
         4        3048        3049        3100        3099
         4        3049        3050        3101        3100
         4        3050        3051        3102        3101
         4        3051        3052        3103        3102
         4        3052        3053        3104        3103
         4        3053        3054        3105        3104
         4        3054        3055        3106        3105
         4        3055        3056        3107        3106
         4        3056        3057        3108        3107
         4        3057        3058        3109        3108
         4        3058        3059        3110        3109
         4        3060        3061        3112        3111
         4        3061        3062        3113        3112
         4        3062        3063        3114        3113
         4        3063        3064        3115        3114
         4        3064        3065        3116        3115
         4        3065        3066        3117        3116
         4        3066        3067        3118        3117
         4        3067        3068        3119        3118
         4        3068        3069        3120        3119
         4        3069        3070        3121        3120
         4        3070        3071        3122        3121
         4        3071        3072        3123        3122
         4        3072        3073        3124        3123
         4        3073        3074        3125        3124
         4        3074        3075        3126        3125
         4        3075        3076        3127        3126
         4        3076        3077        3128        3127
         4        3077        3078        3129        3128
         4        3078        3079        3130        3129
         4        3079        3080        3131        3130
         4        3080        3081        3132        3131
         4        3081        3082        3133        3132
         4        3082        3083        3134        3133
         4        3083        3084        3135        3134
         4        3084        3085        3136        3135
         4        3085        3086        3137        3136
         4        3086        3087        3138        3137
         4        3087        3088        3139        3138
         4        3088        3089        3140        3139
         4        3089        3090        3141        3140
         4        3090        3091        3142        3141
         4        3091        3092        3143        3142
         4        3092        3093        3144        3143
         4        3093        3094        3145        3144
         4        3094        3095        3146        3145
         4        3095        3096        3147        3146
         4        3096        3097        3148        3147
         4        3097        3098        3149        3148
         4        3098        3099        3150        3149
         4        3099        3100        3151        3150
         4        3100        3101        3152        3151
         4        3101        3102        3153        3152
         4        3102        3103        3154        3153
         4        3103        3104        3155        3154
         4        3104        3105        3156        3155
         4        3105        3106        3157        3156
         4        3106        3107        3158        3157
         4        3107        3108        3159        3158
         4        3108        3109        3160        3159
         4        3109        3110        3161        3160
         4        3111        3112        3163        3162
         4        3112        3113        3164        3163
         4        3113        3114        3165        3164
         4        3114        3115        3166        3165
         4        3115        3116        3167        3166
         4        3116        3117        3168        3167
         4        3117        3118        3169        3168
         4        3118        3119        3170        3169
         4        3119        3120        3171        3170
         4        3120        3121        3172        3171
         4        3121        3122        3173        3172
         4        3122        3123        3174        3173
         4        3123        3124        3175        3174
         4        3124        3125        3176        3175
         4        3125        3126        3177        3176
         4        3126        3127        3178        3177
         4        3127        3128        3179        3178
         4        3128        3129        3180        3179
         4        3129        3130        3181        3180
         4        3130        3131        3182        3181
         4        3131        3132        3183        3182
         4        3132        3133        3184        3183
         4        3133        3134        3185        3184
         4        3134        3135        3186        3185
         4        3135        3136        3187        3186
         4        3136        3137        3188        3187
         4        3137        3138        3189        3188
         4        3138        3139        3190        3189
         4        3139        3140        3191        3190
         4        3140        3141        3192        3191
         4        3141        3142        3193        3192
         4        3142        3143        3194        3193
         4        3143        3144        3195        3194
         4        3144        3145        3196        3195
         4        3145        3146        3197        3196
         4        3146        3147        3198        3197
         4        3147        3148        3199        3198
         4        3148        3149        3200        3199
         4        3149        3150        3201        3200
         4        3150        3151        3202        3201
         4        3151        3152        3203        3202
         4        3152        3153        3204        3203
         4        3153        3154        3205        3204
         4        3154        3155        3206        3205
         4        3155        3156        3207        3206
         4        3156        3157        3208        3207
         4        3157        3158        3209        3208
         4        3158        3159        3210        3209
         4        3159        3160        3211        3210
         4        3160        3161        3212        3211
         4        3162        3163        3214        3213
         4        3163        3164        3215        3214
         4        3164        3165        3216        3215
         4        3165        3166        3217        3216
         4        3166        3167        3218        3217
         4        3167        3168        3219        3218
         4        3168        3169        3220        3219
         4        3169        3170        3221        3220
         4        3170        3171        3222        3221
         4        3171        3172        3223        3222
         4        3172        3173        3224        3223
         4        3173        3174        3225        3224
         4        3174        3175        3226        3225
         4        3175        3176        3227        3226
         4        3176        3177        3228        3227
         4        3177        3178        3229        3228
         4        3178        3179        3230        3229
         4        3179        3180        3231        3230
         4        3180        3181        3232        3231
         4        3181        3182        3233        3232
         4        3182        3183        3234        3233
         4        3183        3184        3235        3234
         4        3184        3185        3236        3235
         4        3185        3186        3237        3236
         4        3186        3187        3238        3237
         4        3187        3188        3239        3238
         4        3188        3189        3240        3239
         4        3189        3190        3241        3240
         4        3190        3191        3242        3241
         4        3191        3192        3243        3242
         4        3192        3193        3244        3243
         4        3193        3194        3245        3244
         4        3194        3195        3246        3245
         4        3195        3196        3247        3246
         4        3196        3197        3248        3247
         4        3197        3198        3249        3248
         4        3198        3199        3250        3249
         4        3199        3200        3251        3250
         4        3200        3201        3252        3251
         4        3201        3202        3253        3252
         4        3202        3203        3254        3253
         4        3203        3204        3255        3254
         4        3204        3205        3256        3255
         4        3205        3206        3257        3256
         4        3206        3207        3258        3257
         4        3207        3208        3259        3258
         4        3208        3209        3260        3259
         4        3209        3210        3261        3260
         4        3210        3211        3262        3261
         4        3211        3212        3263        3262
         4        3213        3214        3265        3264
         4        3214        3215        3266        3265
         4        3215        3216        3267        3266
         4        3216        3217        3268        3267
         4        3217        3218        3269        3268
         4        3218        3219        3270        3269
         4        3219        3220        3271        3270
         4        3220        3221        3272        3271
         4        3221        3222        3273        3272
         4        3222        3223        3274        3273
         4        3223        3224        3275        3274
         4        3224        3225        3276        3275
         4        3225        3226        3277        3276
         4        3226        3227        3278        3277
         4        3227        3228        3279        3278
         4        3228        3229        3280        3279
         4        3229        3230        3281        3280
         4        3230        3231        3282        3281
         4        3231        3232        3283        3282
         4        3232        3233        3284        3283
         4        3233        3234        3285        3284
         4        3234        3235        3286        3285
         4        3235        3236        3287        3286
         4        3236        3237        3288        3287
         4        3237        3238        3289        3288
         4        3238        3239        3290        3289
         4        3239        3240        3291        3290
         4        3240        3241        3292        3291
         4        3241        3242        3293        3292
         4        3242        3243        3294        3293
         4        3243        3244        3295        3294
         4        3244        3245        3296        3295
         4        3245        3246        3297        3296
         4        3246        3247        3298        3297
         4        3247        3248        3299        3298
         4        3248        3249        3300        3299
         4        3249        3250        3301        3300
         4        3250        3251        3302        3301
         4        3251        3252        3303        3302
         4        3252        3253        3304        3303
         4        3253        3254        3305        3304
         4        3254        3255        3306        3305
         4        3255        3256        3307        3306
         4        3256        3257        3308        3307
         4        3257        3258        3309        3308
         4        3258        3259        3310        3309
         4        3259        3260        3311        3310
         4        3260        3261        3312        3311
         4        3261        3262        3313        3312
         4        3262        3263        3314        3313
         4        3264        3265        3316        3315
         4        3265        3266        3317        3316
         4        3266        3267        3318        3317
         4        3267        3268        3319        3318
         4        3268        3269        3320        3319
         4        3269        3270        3321        3320
         4        3270        3271        3322        3321
         4        3271        3272        3323        3322
         4        3272        3273        3324        3323
         4        3273        3274        3325        3324
         4        3274        3275        3326        3325
         4        3275        3276        3327        3326
         4        3276        3277        3328        3327
         4        3277        3278        3329        3328
         4        3278        3279        3330        3329
         4        3279        3280        3331        3330
         4        3280        3281        3332        3331
         4        3281        3282        3333        3332
         4        3282        3283        3334        3333
         4        3283        3284        3335        3334
         4        3284        3285        3336        3335
         4        3285        3286        3337        3336
         4        3286        3287        3338        3337
         4        3287        3288        3339        3338
         4        3288        3289        3340        3339
         4        3289        3290        3341        3340
         4        3290        3291        3342        3341
         4        3291        3292        3343        3342
         4        3292        3293        3344        3343
         4        3293        3294        3345        3344
         4        3294        3295        3346        3345
         4        3295        3296        3347        3346
         4        3296        3297        3348        3347
         4        3297        3298        3349        3348
         4        3298        3299        3350        3349
         4        3299        3300        3351        3350
         4        3300        3301        3352        3351
         4        3301        3302        3353        3352
         4        3302        3303        3354        3353
         4        3303        3304        3355        3354
         4        3304        3305        3356        3355
         4        3305        3306        3357        3356
         4        3306        3307        3358        3357
         4        3307        3308        3359        3358
         4        3308        3309        3360        3359
         4        3309        3310        3361        3360
         4        3310        3311        3362        3361
         4        3311        3312        3363        3362
         4        3312        3313        3364        3363
         4        3313        3314        3365        3364
         4        3315        3316        3367        3366
         4        3316        3317        3368        3367
         4        3317        3318        3369        3368
         4        3318        3319        3370        3369
         4        3319        3320        3371        3370
         4        3320        3321        3372        3371
         4        3321        3322        3373        3372
         4        3322        3323        3374        3373
         4        3323        3324        3375        3374
         4        3324        3325        3376        3375
         4        3325        3326        3377        3376
         4        3326        3327        3378        3377
         4        3327        3328        3379        3378
         4        3328        3329        3380        3379
         4        3329        3330        3381        3380
         4        3330        3331        3382        3381
         4        3331        3332        3383        3382
         4        3332        3333        3384        3383
         4        3333        3334        3385        3384
         4        3334        3335        3386        3385
         4        3335        3336        3387        3386
         4        3336        3337        3388        3387
         4        3337        3338        3389        3388
         4        3338        3339        3390        3389
         4        3339        3340        3391        3390
         4        3340        3341        3392        3391
         4        3341        3342        3393        3392
         4        3342        3343        3394        3393
         4        3343        3344        3395        3394
         4        3344        3345        3396        3395
         4        3345        3346        3397        3396
         4        3346        3347        3398        3397
         4        3347        3348        3399        3398
         4        3348        3349        3400        3399
         4        3349        3350        3401        3400
         4        3350        3351        3402        3401
         4        3351        3352        3403        3402
         4        3352        3353        3404        3403
         4        3353        3354        3405        3404
         4        3354        3355        3406        3405
         4        3355        3356        3407        3406
         4        3356        3357        3408        3407
         4        3357        3358        3409        3408
         4        3358        3359        3410        3409
         4        3359        3360        3411        3410
         4        3360        3361        3412        3411
         4        3361        3362        3413        3412
         4        3362        3363        3414        3413
         4        3363        3364        3415        3414
         4        3364        3365        3416        3415
         4        3366        3367        3418        3417
         4        3367        3368        3419        3418
         4        3368        3369        3420        3419
         4        3369        3370        3421        3420
         4        3370        3371        3422        3421
         4        3371        3372        3423        3422
         4        3372        3373        3424        3423
         4        3373        3374        3425        3424
         4        3374        3375        3426        3425
         4        3375        3376        3427        3426
         4        3376        3377        3428        3427
         4        3377        3378        3429        3428
         4        3378        3379        3430        3429
         4        3379        3380        3431        3430
         4        3380        3381        3432        3431
         4        3381        3382        3433        3432
         4        3382        3383        3434        3433
         4        3383        3384        3435        3434
         4        3384        3385        3436        3435
         4        3385        3386        3437        3436
         4        3386        3387        3438        3437
         4        3387        3388        3439        3438
         4        3388        3389        3440        3439
         4        3389        3390        3441        3440
         4        3390        3391        3442        3441
         4        3391        3392        3443        3442
         4        3392        3393        3444        3443
         4        3393        3394        3445        3444
         4        3394        3395        3446        3445
         4        3395        3396        3447        3446
         4        3396        3397        3448        3447
         4        3397        3398        3449        3448
         4        3398        3399        3450        3449
         4        3399        3400        3451        3450
         4        3400        3401        3452        3451
         4        3401        3402        3453        3452
         4        3402        3403        3454        3453
         4        3403        3404        3455        3454
         4        3404        3405        3456        3455
         4        3405        3406        3457        3456
         4        3406        3407        3458        3457
         4        3407        3408        3459        3458
         4        3408        3409        3460        3459
         4        3409        3410        3461        3460
         4        3410        3411        3462        3461
         4        3411        3412        3463        3462
         4        3412        3413        3464        3463
         4        3413        3414        3465        3464
         4        3414        3415        3466        3465
         4        3415        3416        3467        3466
         4        3417        3418        3469        3468
         4        3418        3419        3470        3469
         4        3419        3420        3471        3470
         4        3420        3421        3472        3471
         4        3421        3422        3473        3472
         4        3422        3423        3474        3473
         4        3423        3424        3475        3474
         4        3424        3425        3476        3475
         4        3425        3426        3477        3476
         4        3426        3427        3478        3477
         4        3427        3428        3479        3478
         4        3428        3429        3480        3479
         4        3429        3430        3481        3480
         4        3430        3431        3482        3481
         4        3431        3432        3483        3482
         4        3432        3433        3484        3483
         4        3433        3434        3485        3484
         4        3434        3435        3486        3485
         4        3435        3436        3487        3486
         4        3436        3437        3488        3487
         4        3437        3438        3489        3488
         4        3438        3439        3490        3489
         4        3439        3440        3491        3490
         4        3440        3441        3492        3491
         4        3441        3442        3493        3492
         4        3442        3443        3494        3493
         4        3443        3444        3495        3494
         4        3444        3445        3496        3495
         4        3445        3446        3497        3496
         4        3446        3447        3498        3497
         4        3447        3448        3499        3498
         4        3448        3449        3500        3499
         4        3449        3450        3501        3500
         4        3450        3451        3502        3501
         4        3451        3452        3503        3502
         4        3452        3453        3504        3503
         4        3453        3454        3505        3504
         4        3454        3455        3506        3505
         4        3455        3456        3507        3506
         4        3456        3457        3508        3507
         4        3457        3458        3509        3508
         4        3458        3459        3510        3509
         4        3459        3460        3511        3510
         4        3460        3461        3512        3511
         4        3461        3462        3513        3512
         4        3462        3463        3514        3513
         4        3463        3464        3515        3514
         4        3464        3465        3516        3515
         4        3465        3466        3517        3516
         4        3466        3467        3518        3517
         4        3468        3469        3520        3519
         4        3469        3470        3521        3520
         4        3470        3471        3522        3521
         4        3471        3472        3523        3522
         4        3472        3473        3524        3523
         4        3473        3474        3525        3524
         4        3474        3475        3526        3525
         4        3475        3476        3527        3526
         4        3476        3477        3528        3527
         4        3477        3478        3529        3528
         4        3478        3479        3530        3529
         4        3479        3480        3531        3530
         4        3480        3481        3532        3531
         4        3481        3482        3533        3532
         4        3482        3483        3534        3533
         4        3483        3484        3535        3534
         4        3484        3485        3536        3535
         4        3485        3486        3537        3536
         4        3486        3487        3538        3537
         4        3487        3488        3539        3538
         4        3488        3489        3540        3539
         4        3489        3490        3541        3540
         4        3490        3491        3542        3541
         4        3491        3492        3543        3542
         4        3492        3493        3544        3543
         4        3493        3494        3545        3544
         4        3494        3495        3546        3545
         4        3495        3496        3547        3546
         4        3496        3497        3548        3547
         4        3497        3498        3549        3548
         4        3498        3499        3550        3549
         4        3499        3500        3551        3550
         4        3500        3501        3552        3551
         4        3501        3502        3553        3552
         4        3502        3503        3554        3553
         4        3503        3504        3555        3554
         4        3504        3505        3556        3555
         4        3505        3506        3557        3556
         4        3506        3507        3558        3557
         4        3507        3508        3559        3558
         4        3508        3509        3560        3559
         4        3509        3510        3561        3560
         4        3510        3511        3562        3561
         4        3511        3512        3563        3562
         4        3512        3513        3564        3563
         4        3513        3514        3565        3564
         4        3514        3515        3566        3565
         4        3515        3516        3567        3566
         4        3516        3517        3568        3567
         4        3517        3518        3569        3568
         4        3519        3520        3571        3570
         4        3520        3521        3572        3571
         4        3521        3522        3573        3572
         4        3522        3523        3574        3573
         4        3523        3524        3575        3574
         4        3524        3525        3576        3575
         4        3525        3526        3577        3576
         4        3526        3527        3578        3577
         4        3527        3528        3579        3578
         4        3528        3529        3580        3579
         4        3529        3530        3581        3580
         4        3530        3531        3582        3581
         4        3531        3532        3583        3582
         4        3532        3533        3584        3583
         4        3533        3534        3585        3584
         4        3534        3535        3586        3585
         4        3535        3536        3587        3586
         4        3536        3537        3588        3587
         4        3537        3538        3589        3588
         4        3538        3539        3590        3589
         4        3539        3540        3591        3590
         4        3540        3541        3592        3591
         4        3541        3542        3593        3592
         4        3542        3543        3594        3593
         4        3543        3544        3595        3594
         4        3544        3545        3596        3595
         4        3545        3546        3597        3596
         4        3546        3547        3598        3597
         4        3547        3548        3599        3598
         4        3548        3549        3600        3599
         4        3549        3550        3601        3600
         4        3550        3551        3602        3601
         4        3551        3552        3603        3602
         4        3552        3553        3604        3603
         4        3553        3554        3605        3604
         4        3554        3555        3606        3605
         4        3555        3556        3607        3606
         4        3556        3557        3608        3607
         4        3557        3558        3609        3608
         4        3558        3559        3610        3609
         4        3559        3560        3611        3610
         4        3560        3561        3612        3611
         4        3561        3562        3613        3612
         4        3562        3563        3614        3613
         4        3563        3564        3615        3614
         4        3564        3565        3616        3615
         4        3565        3566        3617        3616
         4        3566        3567        3618        3617
         4        3567        3568        3619        3618
         4        3568        3569        3620        3619
         4        3570        3571        3622        3621
         4        3571        3572        3623        3622
         4        3572        3573        3624        3623
         4        3573        3574        3625        3624
         4        3574        3575        3626        3625
         4        3575        3576        3627        3626
         4        3576        3577        3628        3627
         4        3577        3578        3629        3628
         4        3578        3579        3630        3629
         4        3579        3580        3631        3630
         4        3580        3581        3632        3631
         4        3581        3582        3633        3632
         4        3582        3583        3634        3633
         4        3583        3584        3635        3634
         4        3584        3585        3636        3635
         4        3585        3586        3637        3636
         4        3586        3587        3638        3637
         4        3587        3588        3639        3638
         4        3588        3589        3640        3639
         4        3589        3590        3641        3640
         4        3590        3591        3642        3641
         4        3591        3592        3643        3642
         4        3592        3593        3644        3643
         4        3593        3594        3645        3644
         4        3594        3595        3646        3645
         4        3595        3596        3647        3646
         4        3596        3597        3648        3647
         4        3597        3598        3649        3648
         4        3598        3599        3650        3649
         4        3599        3600        3651        3650
         4        3600        3601        3652        3651
         4        3601        3602        3653        3652
         4        3602        3603        3654        3653
         4        3603        3604        3655        3654
         4        3604        3605        3656        3655
         4        3605        3606        3657        3656
         4        3606        3607        3658        3657
         4        3607        3608        3659        3658
         4        3608        3609        3660        3659
         4        3609        3610        3661        3660
         4        3610        3611        3662        3661
         4        3611        3612        3663        3662
         4        3612        3613        3664        3663
         4        3613        3614        3665        3664
         4        3614        3615        3666        3665
         4        3615        3616        3667        3666
         4        3616        3617        3668        3667
         4        3617        3618        3669        3668
         4        3618        3619        3670        3669
         4        3619        3620        3671        3670
         4        3621        3622        3673        3672
         4        3622        3623        3674        3673
         4        3623        3624        3675        3674
         4        3624        3625        3676        3675
         4        3625        3626        3677        3676
         4        3626        3627        3678        3677
         4        3627        3628        3679        3678
         4        3628        3629        3680        3679
         4        3629        3630        3681        3680
         4        3630        3631        3682        3681
         4        3631        3632        3683        3682
         4        3632        3633        3684        3683
         4        3633        3634        3685        3684
         4        3634        3635        3686        3685
         4        3635        3636        3687        3686
         4        3636        3637        3688        3687
         4        3637        3638        3689        3688
         4        3638        3639        3690        3689
         4        3639        3640        3691        3690
         4        3640        3641        3692        3691
         4        3641        3642        3693        3692
         4        3642        3643        3694        3693
         4        3643        3644        3695        3694
         4        3644        3645        3696        3695
         4        3645        3646        3697        3696
         4        3646        3647        3698        3697
         4        3647        3648        3699        3698
         4        3648        3649        3700        3699
         4        3649        3650        3701        3700
         4        3650        3651        3702        3701
         4        3651        3652        3703        3702
         4        3652        3653        3704        3703
         4        3653        3654        3705        3704
         4        3654        3655        3706        3705
         4        3655        3656        3707        3706
         4        3656        3657        3708        3707
         4        3657        3658        3709        3708
         4        3658        3659        3710        3709
         4        3659        3660        3711        3710
         4        3660        3661        3712        3711
         4        3661        3662        3713        3712
         4        3662        3663        3714        3713
         4        3663        3664        3715        3714
         4        3664        3665        3716        3715
         4        3665        3666        3717        3716
         4        3666        3667        3718        3717
         4        3667        3668        3719        3718
         4        3668        3669        3720        3719
         4        3669        3670        3721        3720
         4        3670        3671        3722        3721
         4        3672        3673        3724        3723
         4        3673        3674        3725        3724
         4        3674        3675        3726        3725
         4        3675        3676        3727        3726
         4        3676        3677        3728        3727
         4        3677        3678        3729        3728
         4        3678        3679        3730        3729
         4        3679        3680        3731        3730
         4        3680        3681        3732        3731
         4        3681        3682        3733        3732
         4        3682        3683        3734        3733
         4        3683        3684        3735        3734
         4        3684        3685        3736        3735
         4        3685        3686        3737        3736
         4        3686        3687        3738        3737
         4        3687        3688        3739        3738
         4        3688        3689        3740        3739
         4        3689        3690        3741        3740
         4        3690        3691        3742        3741
         4        3691        3692        3743        3742
         4        3692        3693        3744        3743
         4        3693        3694        3745        3744
         4        3694        3695        3746        3745
         4        3695        3696        3747        3746
         4        3696        3697        3748        3747
         4        3697        3698        3749        3748
         4        3698        3699        3750        3749
         4        3699        3700        3751        3750
         4        3700        3701        3752        3751
         4        3701        3702        3753        3752
         4        3702        3703        3754        3753
         4        3703        3704        3755        3754
         4        3704        3705        3756        3755
         4        3705        3706        3757        3756
         4        3706        3707        3758        3757
         4        3707        3708        3759        3758
         4        3708        3709        3760        3759
         4        3709        3710        3761        3760
         4        3710        3711        3762        3761
         4        3711        3712        3763        3762
         4        3712        3713        3764        3763
         4        3713        3714        3765        3764
         4        3714        3715        3766        3765
         4        3715        3716        3767        3766
         4        3716        3717        3768        3767
         4        3717        3718        3769        3768
         4        3718        3719        3770        3769
         4        3719        3720        3771        3770
         4        3720        3721        3772        3771
         4        3721        3722        3773        3772
         4        3723        3724        3775        3774
         4        3724        3725        3776        3775
         4        3725        3726        3777        3776
         4        3726        3727        3778        3777
         4        3727        3728        3779        3778
         4        3728        3729        3780        3779
         4        3729        3730        3781        3780
         4        3730        3731        3782        3781
         4        3731        3732        3783        3782
         4        3732        3733        3784        3783
         4        3733        3734        3785        3784
         4        3734        3735        3786        3785
         4        3735        3736        3787        3786
         4        3736        3737        3788        3787
         4        3737        3738        3789        3788
         4        3738        3739        3790        3789
         4        3739        3740        3791        3790
         4        3740        3741        3792        3791
         4        3741        3742        3793        3792
         4        3742        3743        3794        3793
         4        3743        3744        3795        3794
         4        3744        3745        3796        3795
         4        3745        3746        3797        3796
         4        3746        3747        3798        3797
         4        3747        3748        3799        3798
         4        3748        3749        3800        3799
         4        3749        3750        3801        3800
         4        3750        3751        3802        3801
         4        3751        3752        3803        3802
         4        3752        3753        3804        3803
         4        3753        3754        3805        3804
         4        3754        3755        3806        3805
         4        3755        3756        3807        3806
         4        3756        3757        3808        3807
         4        3757        3758        3809        3808
         4        3758        3759        3810        3809
         4        3759        3760        3811        3810
         4        3760        3761        3812        3811
         4        3761        3762        3813        3812
         4        3762        3763        3814        3813
         4        3763        3764        3815        3814
         4        3764        3765        3816        3815
         4        3765        3766        3817        3816
         4        3766        3767        3818        3817
         4        3767        3768        3819        3818
         4        3768        3769        3820        3819
         4        3769        3770        3821        3820
         4        3770        3771        3822        3821
         4        3771        3772        3823        3822
         4        3772        3773        3824        3823
         4        3774        3775        3826        3825
         4        3775        3776        3827        3826
         4        3776        3777        3828        3827
         4        3777        3778        3829        3828
         4        3778        3779        3830        3829
         4        3779        3780        3831        3830
         4        3780        3781        3832        3831
         4        3781        3782        3833        3832
         4        3782        3783        3834        3833
         4        3783        3784        3835        3834
         4        3784        3785        3836        3835
         4        3785        3786        3837        3836
         4        3786        3787        3838        3837
         4        3787        3788        3839        3838
         4        3788        3789        3840        3839
         4        3789        3790        3841        3840
         4        3790        3791        3842        3841
         4        3791        3792        3843        3842
         4        3792        3793        3844        3843
         4        3793        3794        3845        3844
         4        3794        3795        3846        3845
         4        3795        3796        3847        3846
         4        3796        3797        3848        3847
         4        3797        3798        3849        3848
         4        3798        3799        3850        3849
         4        3799        3800        3851        3850
         4        3800        3801        3852        3851
         4        3801        3802        3853        3852
         4        3802        3803        3854        3853
         4        3803        3804        3855        3854
         4        3804        3805        3856        3855
         4        3805        3806        3857        3856
         4        3806        3807        3858        3857
         4        3807        3808        3859        3858
         4        3808        3809        3860        3859
         4        3809        3810        3861        3860
         4        3810        3811        3862        3861
         4        3811        3812        3863        3862
         4        3812        3813        3864        3863
         4        3813        3814        3865        3864
         4        3814        3815        3866        3865
         4        3815        3816        3867        3866
         4        3816        3817        3868        3867
         4        3817        3818        3869        3868
         4        3818        3819        3870        3869
         4        3819        3820        3871        3870
         4        3820        3821        3872        3871
         4        3821        3822        3873        3872
         4        3822        3823        3874        3873
         4        3823        3824        3875        3874
         4        3825        3826        3877        3876
         4        3826        3827        3878        3877
         4        3827        3828        3879        3878
         4        3828        3829        3880        3879
         4        3829        3830        3881        3880
         4        3830        3831        3882        3881
         4        3831        3832        3883        3882
         4        3832        3833        3884        3883
         4        3833        3834        3885        3884
         4        3834        3835        3886        3885
         4        3835        3836        3887        3886
         4        3836        3837        3888        3887
         4        3837        3838        3889        3888
         4        3838        3839        3890        3889
         4        3839        3840        3891        3890
         4        3840        3841        3892        3891
         4        3841        3842        3893        3892
         4        3842        3843        3894        3893
         4        3843        3844        3895        3894
         4        3844        3845        3896        3895
         4        3845        3846        3897        3896
         4        3846        3847        3898        3897
         4        3847        3848        3899        3898
         4        3848        3849        3900        3899
         4        3849        3850        3901        3900
         4        3850        3851        3902        3901
         4        3851        3852        3903        3902
         4        3852        3853        3904        3903
         4        3853        3854        3905        3904
         4        3854        3855        3906        3905
         4        3855        3856        3907        3906
         4        3856        3857        3908        3907
         4        3857        3858        3909        3908
         4        3858        3859        3910        3909
         4        3859        3860        3911        3910
         4        3860        3861        3912        3911
         4        3861        3862        3913        3912
         4        3862        3863        3914        3913
         4        3863        3864        3915        3914
         4        3864        3865        3916        3915
         4        3865        3866        3917        3916
         4        3866        3867        3918        3917
         4        3867        3868        3919        3918
         4        3868        3869        3920        3919
         4        3869        3870        3921        3920
         4        3870        3871        3922        3921
         4        3871        3872        3923        3922
         4        3872        3873        3924        3923
         4        3873        3874        3925        3924
         4        3874        3875        3926        3925
         4        3876        3877        3928        3927
         4        3877        3878        3929        3928
         4        3878        3879        3930        3929
         4        3879        3880        3931        3930
         4        3880        3881        3932        3931
         4        3881        3882        3933        3932
         4        3882        3883        3934        3933
         4        3883        3884        3935        3934
         4        3884        3885        3936        3935
         4        3885        3886        3937        3936
         4        3886        3887        3938        3937
         4        3887        3888        3939        3938
         4        3888        3889        3940        3939
         4        3889        3890        3941        3940
         4        3890        3891        3942        3941
         4        3891        3892        3943        3942
         4        3892        3893        3944        3943
         4        3893        3894        3945        3944
         4        3894        3895        3946        3945
         4        3895        3896        3947        3946
         4        3896        3897        3948        3947
         4        3897        3898        3949        3948
         4        3898        3899        3950        3949
         4        3899        3900        3951        3950
         4        3900        3901        3952        3951
         4        3901        3902        3953        3952
         4        3902        3903        3954        3953
         4        3903        3904        3955        3954
         4        3904        3905        3956        3955
         4        3905        3906        3957        3956
         4        3906        3907        3958        3957
         4        3907        3908        3959        3958
         4        3908        3909        3960        3959
         4        3909        3910        3961        3960
         4        3910        3911        3962        3961
         4        3911        3912        3963        3962
         4        3912        3913        3964        3963
         4        3913        3914        3965        3964
         4        3914        3915        3966        3965
         4        3915        3916        3967        3966
         4        3916        3917        3968        3967
         4        3917        3918        3969        3968
         4        3918        3919        3970        3969
         4        3919        3920        3971        3970
         4        3920        3921        3972        3971
         4        3921        3922        3973        3972
         4        3922        3923        3974        3973
         4        3923        3924        3975        3974
         4        3924        3925        3976        3975
         4        3925        3926        3977        3976
         4        3927        3928        3979        3978
         4        3928        3929        3980        3979
         4        3929        3930        3981        3980
         4        3930        3931        3982        3981
         4        3931        3932        3983        3982
         4        3932        3933        3984        3983
         4        3933        3934        3985        3984
         4        3934        3935        3986        3985
         4        3935        3936        3987        3986
         4        3936        3937        3988        3987
         4        3937        3938        3989        3988
         4        3938        3939        3990        3989
         4        3939        3940        3991        3990
         4        3940        3941        3992        3991
         4        3941        3942        3993        3992
         4        3942        3943        3994        3993
         4        3943        3944        3995        3994
         4        3944        3945        3996        3995
         4        3945        3946        3997        3996
         4        3946        3947        3998        3997
         4        3947        3948        3999        3998
         4        3948        3949        4000        3999
         4        3949        3950        4001        4000
         4        3950        3951        4002        4001
         4        3951        3952        4003        4002
         4        3952        3953        4004        4003
         4        3953        3954        4005        4004
         4        3954        3955        4006        4005
         4        3955        3956        4007        4006
         4        3956        3957        4008        4007
         4        3957        3958        4009        4008
         4        3958        3959        4010        4009
         4        3959        3960        4011        4010
         4        3960        3961        4012        4011
         4        3961        3962        4013        4012
         4        3962        3963        4014        4013
         4        3963        3964        4015        4014
         4        3964        3965        4016        4015
         4        3965        3966        4017        4016
         4        3966        3967        4018        4017
         4        3967        3968        4019        4018
         4        3968        3969        4020        4019
         4        3969        3970        4021        4020
         4        3970        3971        4022        4021
         4        3971        3972        4023        4022
         4        3972        3973        4024        4023
         4        3973        3974        4025        4024
         4        3974        3975        4026        4025
         4        3975        3976        4027        4026
         4        3976        3977        4028        4027
         4        3978        3979        4030        4029
         4        3979        3980        4031        4030
         4        3980        3981        4032        4031
         4        3981        3982        4033        4032
         4        3982        3983        4034        4033
         4        3983        3984        4035        4034
         4        3984        3985        4036        4035
         4        3985        3986        4037        4036
         4        3986        3987        4038        4037
         4        3987        3988        4039        4038
         4        3988        3989        4040        4039
         4        3989        3990        4041        4040
         4        3990        3991        4042        4041
         4        3991        3992        4043        4042
         4        3992        3993        4044        4043
         4        3993        3994        4045        4044
         4        3994        3995        4046        4045
         4        3995        3996        4047        4046
         4        3996        3997        4048        4047
         4        3997        3998        4049        4048
         4        3998        3999        4050        4049
         4        3999        4000        4051        4050
         4        4000        4001        4052        4051
         4        4001        4002        4053        4052
         4        4002        4003        4054        4053
         4        4003        4004        4055        4054
         4        4004        4005        4056        4055
         4        4005        4006        4057        4056
         4        4006        4007        4058        4057
         4        4007        4008        4059        4058
         4        4008        4009        4060        4059
         4        4009        4010        4061        4060
         4        4010        4011        4062        4061
         4        4011        4012        4063        4062
         4        4012        4013        4064        4063
         4        4013        4014        4065        4064
         4        4014        4015        4066        4065
         4        4015        4016        4067        4066
         4        4016        4017        4068        4067
         4        4017        4018        4069        4068
         4        4018        4019        4070        4069
         4        4019        4020        4071        4070
         4        4020        4021        4072        4071
         4        4021        4022        4073        4072
         4        4022        4023        4074        4073
         4        4023        4024        4075        4074
         4        4024        4025        4076        4075
         4        4025        4026        4077        4076
         4        4026        4027        4078        4077
         4        4027        4028        4079        4078
         4        4029        4030        4081        4080
         4        4030        4031        4082        4081
         4        4031        4032        4083        4082
         4        4032        4033        4084        4083
         4        4033        4034        4085        4084
         4        4034        4035        4086        4085
         4        4035        4036        4087        4086
         4        4036        4037        4088        4087
         4        4037        4038        4089        4088
         4        4038        4039        4090        4089
         4        4039        4040        4091        4090
         4        4040        4041        4092        4091
         4        4041        4042        4093        4092
         4        4042        4043        4094        4093
         4        4043        4044        4095        4094
         4        4044        4045        4096        4095
         4        4045        4046        4097        4096
         4        4046        4047        4098        4097
         4        4047        4048        4099        4098
         4        4048        4049        4100        4099
         4        4049        4050        4101        4100
         4        4050        4051        4102        4101
         4        4051        4052        4103        4102
         4        4052        4053        4104        4103
         4        4053        4054        4105        4104
         4        4054        4055        4106        4105
         4        4055        4056        4107        4106
         4        4056        4057        4108        4107
         4        4057        4058        4109        4108
         4        4058        4059        4110        4109
         4        4059        4060        4111        4110
         4        4060        4061        4112        4111
         4        4061        4062        4113        4112
         4        4062        4063        4114        4113
         4        4063        4064        4115        4114
         4        4064        4065        4116        4115
         4        4065        4066        4117        4116
         4        4066        4067        4118        4117
         4        4067        4068        4119        4118
         4        4068        4069        4120        4119
         4        4069        4070        4121        4120
         4        4070        4071        4122        4121
         4        4071        4072        4123        4122
         4        4072        4073        4124        4123
         4        4073        4074        4125        4124
         4        4074        4075        4126        4125
         4        4075        4076        4127        4126
         4        4076        4077        4128        4127
         4        4077        4078        4129        4128
         4        4078        4079        4130        4129
         4        4080        4081        4132        4131
         4        4081        4082        4133        4132
         4        4082        4083        4134        4133
         4        4083        4084        4135        4134
         4        4084        4085        4136        4135
         4        4085        4086        4137        4136
         4        4086        4087        4138        4137
         4        4087        4088        4139        4138
         4        4088        4089        4140        4139
         4        4089        4090        4141        4140
         4        4090        4091        4142        4141
         4        4091        4092        4143        4142
         4        4092        4093        4144        4143
         4        4093        4094        4145        4144
         4        4094        4095        4146        4145
         4        4095        4096        4147        4146
         4        4096        4097        4148        4147
         4        4097        4098        4149        4148
         4        4098        4099        4150        4149
         4        4099        4100        4151        4150
         4        4100        4101        4152        4151
         4        4101        4102        4153        4152
         4        4102        4103        4154        4153
         4        4103        4104        4155        4154
         4        4104        4105        4156        4155
         4        4105        4106        4157        4156
         4        4106        4107        4158        4157
         4        4107        4108        4159        4158
         4        4108        4109        4160        4159
         4        4109        4110        4161        4160
         4        4110        4111        4162        4161
         4        4111        4112        4163        4162
         4        4112        4113        4164        4163
         4        4113        4114        4165        4164
         4        4114        4115        4166        4165
         4        4115        4116        4167        4166
         4        4116        4117        4168        4167
         4        4117        4118        4169        4168
         4        4118        4119        4170        4169
         4        4119        4120        4171        4170
         4        4120        4121        4172        4171
         4        4121        4122        4173        4172
         4        4122        4123        4174        4173
         4        4123        4124        4175        4174
         4        4124        4125        4176        4175
         4        4125        4126        4177        4176
         4        4126        4127        4178        4177
         4        4127        4128        4179        4178
         4        4128        4129        4180        4179
         4        4129        4130        4181        4180
         4        4131        4132        4183        4182
         4        4132        4133        4184        4183
         4        4133        4134        4185        4184
         4        4134        4135        4186        4185
         4        4135        4136        4187        4186
         4        4136        4137        4188        4187
         4        4137        4138        4189        4188
         4        4138        4139        4190        4189
         4        4139        4140        4191        4190
         4        4140        4141        4192        4191
         4        4141        4142        4193        4192
         4        4142        4143        4194        4193
         4        4143        4144        4195        4194
         4        4144        4145        4196        4195
         4        4145        4146        4197        4196
         4        4146        4147        4198        4197
         4        4147        4148        4199        4198
         4        4148        4149        4200        4199
         4        4149        4150        4201        4200
         4        4150        4151        4202        4201
         4        4151        4152        4203        4202
         4        4152        4153        4204        4203
         4        4153        4154        4205        4204
         4        4154        4155        4206        4205
         4        4155        4156        4207        4206
         4        4156        4157        4208        4207
         4        4157        4158        4209        4208
         4        4158        4159        4210        4209
         4        4159        4160        4211        4210
         4        4160        4161        4212        4211
         4        4161        4162        4213        4212
         4        4162        4163        4214        4213
         4        4163        4164        4215        4214
         4        4164        4165        4216        4215
         4        4165        4166        4217        4216
         4        4166        4167        4218        4217
         4        4167        4168        4219        4218
         4        4168        4169        4220        4219
         4        4169        4170        4221        4220
         4        4170        4171        4222        4221
         4        4171        4172        4223        4222
         4        4172        4173        4224        4223
         4        4173        4174        4225        4224
         4        4174        4175        4226        4225
         4        4175        4176        4227        4226
         4        4176        4177        4228        4227
         4        4177        4178        4229        4228
         4        4178        4179        4230        4229
         4        4179        4180        4231        4230
         4        4180        4181        4232        4231
         4        4182        4183        4234        4233
         4        4183        4184        4235        4234
         4        4184        4185        4236        4235
         4        4185        4186        4237        4236
         4        4186        4187        4238        4237
         4        4187        4188        4239        4238
         4        4188        4189        4240        4239
         4        4189        4190        4241        4240
         4        4190        4191        4242        4241
         4        4191        4192        4243        4242
         4        4192        4193        4244        4243
         4        4193        4194        4245        4244
         4        4194        4195        4246        4245
         4        4195        4196        4247        4246
         4        4196        4197        4248        4247
         4        4197        4198        4249        4248
         4        4198        4199        4250        4249
         4        4199        4200        4251        4250
         4        4200        4201        4252        4251
         4        4201        4202        4253        4252
         4        4202        4203        4254        4253
         4        4203        4204        4255        4254
         4        4204        4205        4256        4255
         4        4205        4206        4257        4256
         4        4206        4207        4258        4257
         4        4207        4208        4259        4258
         4        4208        4209        4260        4259
         4        4209        4210        4261        4260
         4        4210        4211        4262        4261
         4        4211        4212        4263        4262
         4        4212        4213        4264        4263
         4        4213        4214        4265        4264
         4        4214        4215        4266        4265
         4        4215        4216        4267        4266
         4        4216        4217        4268        4267
         4        4217        4218        4269        4268
         4        4218        4219        4270        4269
         4        4219        4220        4271        4270
         4        4220        4221        4272        4271
         4        4221        4222        4273        4272
         4        4222        4223        4274        4273
         4        4223        4224        4275        4274
         4        4224        4225        4276        4275
         4        4225        4226        4277        4276
         4        4226        4227        4278        4277
         4        4227        4228        4279        4278
         4        4228        4229        4280        4279
         4        4229        4230        4281        4280
         4        4230        4231        4282        4281
         4        4231        4232        4283        4282
         4        4233        4234        4285        4284
         4        4234        4235        4286        4285
         4        4235        4236        4287        4286
         4        4236        4237        4288        4287
         4        4237        4238        4289        4288
         4        4238        4239        4290        4289
         4        4239        4240        4291        4290
         4        4240        4241        4292        4291
         4        4241        4242        4293        4292
         4        4242        4243        4294        4293
         4        4243        4244        4295        4294
         4        4244        4245        4296        4295
         4        4245        4246        4297        4296
         4        4246        4247        4298        4297
         4        4247        4248        4299        4298
         4        4248        4249        4300        4299
         4        4249        4250        4301        4300
         4        4250        4251        4302        4301
         4        4251        4252        4303        4302
         4        4252        4253        4304        4303
         4        4253        4254        4305        4304
         4        4254        4255        4306        4305
         4        4255        4256        4307        4306
         4        4256        4257        4308        4307
         4        4257        4258        4309        4308
         4        4258        4259        4310        4309
         4        4259        4260        4311        4310
         4        4260        4261        4312        4311
         4        4261        4262        4313        4312
         4        4262        4263        4314        4313
         4        4263        4264        4315        4314
         4        4264        4265        4316        4315
         4        4265        4266        4317        4316
         4        4266        4267        4318        4317
         4        4267        4268        4319        4318
         4        4268        4269        4320        4319
         4        4269        4270        4321        4320
         4        4270        4271        4322        4321
         4        4271        4272        4323        4322
         4        4272        4273        4324        4323
         4        4273        4274        4325        4324
         4        4274        4275        4326        4325
         4        4275        4276        4327        4326
         4        4276        4277        4328        4327
         4        4277        4278        4329        4328
         4        4278        4279        4330        4329
         4        4279        4280        4331        4330
         4        4280        4281        4332        4331
         4        4281        4282        4333        4332
         4        4282        4283        4334        4333
         4        4284        4285        4336        4335
         4        4285        4286        4337        4336
         4        4286        4287        4338        4337
         4        4287        4288        4339        4338
         4        4288        4289        4340        4339
         4        4289        4290        4341        4340
         4        4290        4291        4342        4341
         4        4291        4292        4343        4342
         4        4292        4293        4344        4343
         4        4293        4294        4345        4344
         4        4294        4295        4346        4345
         4        4295        4296        4347        4346
         4        4296        4297        4348        4347
         4        4297        4298        4349        4348
         4        4298        4299        4350        4349
         4        4299        4300        4351        4350
         4        4300        4301        4352        4351
         4        4301        4302        4353        4352
         4        4302        4303        4354        4353
         4        4303        4304        4355        4354
         4        4304        4305        4356        4355
         4        4305        4306        4357        4356
         4        4306        4307        4358        4357
         4        4307        4308        4359        4358
         4        4308        4309        4360        4359
         4        4309        4310        4361        4360
         4        4310        4311        4362        4361
         4        4311        4312        4363        4362
         4        4312        4313        4364        4363
         4        4313        4314        4365        4364
         4        4314        4315        4366        4365
         4        4315        4316        4367        4366
         4        4316        4317        4368        4367
         4        4317        4318        4369        4368
         4        4318        4319        4370        4369
         4        4319        4320        4371        4370
         4        4320        4321        4372        4371
         4        4321        4322        4373        4372
         4        4322        4323        4374        4373
         4        4323        4324        4375        4374
         4        4324        4325        4376        4375
         4        4325        4326        4377        4376
         4        4326        4327        4378        4377
         4        4327        4328        4379        4378
         4        4328        4329        4380        4379
         4        4329        4330        4381        4380
         4        4330        4331        4382        4381
         4        4331        4332        4383        4382
         4        4332        4333        4384        4383
         4        4333        4334        4385        4384
         4        4335        4336        4387        4386
         4        4336        4337        4388        4387
         4        4337        4338        4389        4388
         4        4338        4339        4390        4389
         4        4339        4340        4391        4390
         4        4340        4341        4392        4391
         4        4341        4342        4393        4392
         4        4342        4343        4394        4393
         4        4343        4344        4395        4394
         4        4344        4345        4396        4395
         4        4345        4346        4397        4396
         4        4346        4347        4398        4397
         4        4347        4348        4399        4398
         4        4348        4349        4400        4399
         4        4349        4350        4401        4400
         4        4350        4351        4402        4401
         4        4351        4352        4403        4402
         4        4352        4353        4404        4403
         4        4353        4354        4405        4404
         4        4354        4355        4406        4405
         4        4355        4356        4407        4406
         4        4356        4357        4408        4407
         4        4357        4358        4409        4408
         4        4358        4359        4410        4409
         4        4359        4360        4411        4410
         4        4360        4361        4412        4411
         4        4361        4362        4413        4412
         4        4362        4363        4414        4413
         4        4363        4364        4415        4414
         4        4364        4365        4416        4415
         4        4365        4366        4417        4416
         4        4366        4367        4418        4417
         4        4367        4368        4419        4418
         4        4368        4369        4420        4419
         4        4369        4370        4421        4420
         4        4370        4371        4422        4421
         4        4371        4372        4423        4422
         4        4372        4373        4424        4423
         4        4373        4374        4425        4424
         4        4374        4375        4426        4425
         4        4375        4376        4427        4426
         4        4376        4377        4428        4427
         4        4377        4378        4429        4428
         4        4378        4379        4430        4429
         4        4379        4380        4431        4430
         4        4380        4381        4432        4431
         4        4381        4382        4433        4432
         4        4382        4383        4434        4433
         4        4383        4384        4435        4434
         4        4384        4385        4436        4435
         4        4386        4387        4438        4437
         4        4387        4388        4439        4438
         4        4388        4389        4440        4439
         4        4389        4390        4441        4440
         4        4390        4391        4442        4441
         4        4391        4392        4443        4442
         4        4392        4393        4444        4443
         4        4393        4394        4445        4444
         4        4394        4395        4446        4445
         4        4395        4396        4447        4446
         4        4396        4397        4448        4447
         4        4397        4398        4449        4448
         4        4398        4399        4450        4449
         4        4399        4400        4451        4450
         4        4400        4401        4452        4451
         4        4401        4402        4453        4452
         4        4402        4403        4454        4453
         4        4403        4404        4455        4454
         4        4404        4405        4456        4455
         4        4405        4406        4457        4456
         4        4406        4407        4458        4457
         4        4407        4408        4459        4458
         4        4408        4409        4460        4459
         4        4409        4410        4461        4460
         4        4410        4411        4462        4461
         4        4411        4412        4463        4462
         4        4412        4413        4464        4463
         4        4413        4414        4465        4464
         4        4414        4415        4466        4465
         4        4415        4416        4467        4466
         4        4416        4417        4468        4467
         4        4417        4418        4469        4468
         4        4418        4419        4470        4469
         4        4419        4420        4471        4470
         4        4420        4421        4472        4471
         4        4421        4422        4473        4472
         4        4422        4423        4474        4473
         4        4423        4424        4475        4474
         4        4424        4425        4476        4475
         4        4425        4426        4477        4476
         4        4426        4427        4478        4477
         4        4427        4428        4479        4478
         4        4428        4429        4480        4479
         4        4429        4430        4481        4480
         4        4430        4431        4482        4481
         4        4431        4432        4483        4482
         4        4432        4433        4484        4483
         4        4433        4434        4485        4484
         4        4434        4435        4486        4485
         4        4435        4436        4487        4486
         4        4437        4438        4489        4488
         4        4438        4439        4490        4489
         4        4439        4440        4491        4490
         4        4440        4441        4492        4491
         4        4441        4442        4493        4492
         4        4442        4443        4494        4493
         4        4443        4444        4495        4494
         4        4444        4445        4496        4495
         4        4445        4446        4497        4496
         4        4446        4447        4498        4497
         4        4447        4448        4499        4498
         4        4448        4449        4500        4499
         4        4449        4450        4501        4500
         4        4450        4451        4502        4501
         4        4451        4452        4503        4502
         4        4452        4453        4504        4503
         4        4453        4454        4505        4504
         4        4454        4455        4506        4505
         4        4455        4456        4507        4506
         4        4456        4457        4508        4507
         4        4457        4458        4509        4508
         4        4458        4459        4510        4509
         4        4459        4460        4511        4510
         4        4460        4461        4512        4511
         4        4461        4462        4513        4512
         4        4462        4463        4514        4513
         4        4463        4464        4515        4514
         4        4464        4465        4516        4515
         4        4465        4466        4517        4516
         4        4466        4467        4518        4517
         4        4467        4468        4519        4518
         4        4468        4469        4520        4519
         4        4469        4470        4521        4520
         4        4470        4471        4522        4521
         4        4471        4472        4523        4522
         4        4472        4473        4524        4523
         4        4473        4474        4525        4524
         4        4474        4475        4526        4525
         4        4475        4476        4527        4526
         4        4476        4477        4528        4527
         4        4477        4478        4529        4528
         4        4478        4479        4530        4529
         4        4479        4480        4531        4530
         4        4480        4481        4532        4531
         4        4481        4482        4533        4532
         4        4482        4483        4534        4533
         4        4483        4484        4535        4534
         4        4484        4485        4536        4535
         4        4485        4486        4537        4536
         4        4486        4487        4538        4537
         4        4488        4489        4540        4539
         4        4489        4490        4541        4540
         4        4490        4491        4542        4541
         4        4491        4492        4543        4542
         4        4492        4493        4544        4543
         4        4493        4494        4545        4544
         4        4494        4495        4546        4545
         4        4495        4496        4547        4546
         4        4496        4497        4548        4547
         4        4497        4498        4549        4548
         4        4498        4499        4550        4549
         4        4499        4500        4551        4550
         4        4500        4501        4552        4551
         4        4501        4502        4553        4552
         4        4502        4503        4554        4553
         4        4503        4504        4555        4554
         4        4504        4505        4556        4555
         4        4505        4506        4557        4556
         4        4506        4507        4558        4557
         4        4507        4508        4559        4558
         4        4508        4509        4560        4559
         4        4509        4510        4561        4560
         4        4510        4511        4562        4561
         4        4511        4512        4563        4562
         4        4512        4513        4564        4563
         4        4513        4514        4565        4564
         4        4514        4515        4566        4565
         4        4515        4516        4567        4566
         4        4516        4517        4568        4567
         4        4517        4518        4569        4568
         4        4518        4519        4570        4569
         4        4519        4520        4571        4570
         4        4520        4521        4572        4571
         4        4521        4522        4573        4572
         4        4522        4523        4574        4573
         4        4523        4524        4575        4574
         4        4524        4525        4576        4575
         4        4525        4526        4577        4576
         4        4526        4527        4578        4577
         4        4527        4528        4579        4578
         4        4528        4529        4580        4579
         4        4529        4530        4581        4580
         4        4530        4531        4582        4581
         4        4531        4532        4583        4582
         4        4532        4533        4584        4583
         4        4533        4534        4585        4584
         4        4534        4535        4586        4585
         4        4535        4536        4587        4586
         4        4536        4537        4588        4587
         4        4537        4538        4589        4588
         4        4539        4540        4591        4590
         4        4540        4541        4592        4591
         4        4541        4542        4593        4592
         4        4542        4543        4594        4593
         4        4543        4544        4595        4594
         4        4544        4545        4596        4595
         4        4545        4546        4597        4596
         4        4546        4547        4598        4597
         4        4547        4548        4599        4598
         4        4548        4549        4600        4599
         4        4549        4550        4601        4600
         4        4550        4551        4602        4601
         4        4551        4552        4603        4602
         4        4552        4553        4604        4603
         4        4553        4554        4605        4604
         4        4554        4555        4606        4605
         4        4555        4556        4607        4606
         4        4556        4557        4608        4607
         4        4557        4558        4609        4608
         4        4558        4559        4610        4609
         4        4559        4560        4611        4610
         4        4560        4561        4612        4611
         4        4561        4562        4613        4612
         4        4562        4563        4614        4613
         4        4563        4564        4615        4614
         4        4564        4565        4616        4615
         4        4565        4566        4617        4616
         4        4566        4567        4618        4617
         4        4567        4568        4619        4618
         4        4568        4569        4620        4619
         4        4569        4570        4621        4620
         4        4570        4571        4622        4621
         4        4571        4572        4623        4622
         4        4572        4573        4624        4623
         4        4573        4574        4625        4624
         4        4574        4575        4626        4625
         4        4575        4576        4627        4626
         4        4576        4577        4628        4627
         4        4577        4578        4629        4628
         4        4578        4579        4630        4629
         4        4579        4580        4631        4630
         4        4580        4581        4632        4631
         4        4581        4582        4633        4632
         4        4582        4583        4634        4633
         4        4583        4584        4635        4634
         4        4584        4585        4636        4635
         4        4585        4586        4637        4636
         4        4586        4587        4638        4637
         4        4587        4588        4639        4638
         4        4588        4589        4640        4639
         4        4590        4591        4642        4641
         4        4591        4592        4643        4642
         4        4592        4593        4644        4643
         4        4593        4594        4645        4644
         4        4594        4595        4646        4645
         4        4595        4596        4647        4646
         4        4596        4597        4648        4647
         4        4597        4598        4649        4648
         4        4598        4599        4650        4649
         4        4599        4600        4651        4650
         4        4600        4601        4652        4651
         4        4601        4602        4653        4652
         4        4602        4603        4654        4653
         4        4603        4604        4655        4654
         4        4604        4605        4656        4655
         4        4605        4606        4657        4656
         4        4606        4607        4658        4657
         4        4607        4608        4659        4658
         4        4608        4609        4660        4659
         4        4609        4610        4661        4660
         4        4610        4611        4662        4661
         4        4611        4612        4663        4662
         4        4612        4613        4664        4663
         4        4613        4614        4665        4664
         4        4614        4615        4666        4665
         4        4615        4616        4667        4666
         4        4616        4617        4668        4667
         4        4617        4618        4669        4668
         4        4618        4619        4670        4669
         4        4619        4620        4671        4670
         4        4620        4621        4672        4671
         4        4621        4622        4673        4672
         4        4622        4623        4674        4673
         4        4623        4624        4675        4674
         4        4624        4625        4676        4675
         4        4625        4626        4677        4676
         4        4626        4627        4678        4677
         4        4627        4628        4679        4678
         4        4628        4629        4680        4679
         4        4629        4630        4681        4680
         4        4630        4631        4682        4681
         4        4631        4632        4683        4682
         4        4632        4633        4684        4683
         4        4633        4634        4685        4684
         4        4634        4635        4686        4685
         4        4635        4636        4687        4686
         4        4636        4637        4688        4687
         4        4637        4638        4689        4688
         4        4638        4639        4690        4689
         4        4639        4640        4691        4690
         4        4641        4642        4693        4692
         4        4642        4643        4694        4693
         4        4643        4644        4695        4694
         4        4644        4645        4696        4695
         4        4645        4646        4697        4696
         4        4646        4647        4698        4697
         4        4647        4648        4699        4698
         4        4648        4649        4700        4699
         4        4649        4650        4701        4700
         4        4650        4651        4702        4701
         4        4651        4652        4703        4702
         4        4652        4653        4704        4703
         4        4653        4654        4705        4704
         4        4654        4655        4706        4705
         4        4655        4656        4707        4706
         4        4656        4657        4708        4707
         4        4657        4658        4709        4708
         4        4658        4659        4710        4709
         4        4659        4660        4711        4710
         4        4660        4661        4712        4711
         4        4661        4662        4713        4712
         4        4662        4663        4714        4713
         4        4663        4664        4715        4714
         4        4664        4665        4716        4715
         4        4665        4666        4717        4716
         4        4666        4667        4718        4717
         4        4667        4668        4719        4718
         4        4668        4669        4720        4719
         4        4669        4670        4721        4720
         4        4670        4671        4722        4721
         4        4671        4672        4723        4722
         4        4672        4673        4724        4723
         4        4673        4674        4725        4724
         4        4674        4675        4726        4725
         4        4675        4676        4727        4726
         4        4676        4677        4728        4727
         4        4677        4678        4729        4728
         4        4678        4679        4730        4729
         4        4679        4680        4731        4730
         4        4680        4681        4732        4731
         4        4681        4682        4733        4732
         4        4682        4683        4734        4733
         4        4683        4684        4735        4734
         4        4684        4685        4736        4735
         4        4685        4686        4737        4736
         4        4686        4687        4738        4737
         4        4687        4688        4739        4738
         4        4688        4689        4740        4739
         4        4689        4690        4741        4740
         4        4690        4691        4742        4741
         4        4692        4693        4744        4743
         4        4693        4694        4745        4744
         4        4694        4695        4746        4745
         4        4695        4696        4747        4746
         4        4696        4697        4748        4747
         4        4697        4698        4749        4748
         4        4698        4699        4750        4749
         4        4699        4700        4751        4750
         4        4700        4701        4752        4751
         4        4701        4702        4753        4752
         4        4702        4703        4754        4753
         4        4703        4704        4755        4754
         4        4704        4705        4756        4755
         4        4705        4706        4757        4756
         4        4706        4707        4758        4757
         4        4707        4708        4759        4758
         4        4708        4709        4760        4759
         4        4709        4710        4761        4760
         4        4710        4711        4762        4761
         4        4711        4712        4763        4762
         4        4712        4713        4764        4763
         4        4713        4714        4765        4764
         4        4714        4715        4766        4765
         4        4715        4716        4767        4766
         4        4716        4717        4768        4767
         4        4717        4718        4769        4768
         4        4718        4719        4770        4769
         4        4719        4720        4771        4770
         4        4720        4721        4772        4771
         4        4721        4722        4773        4772
         4        4722        4723        4774        4773
         4        4723        4724        4775        4774
         4        4724        4725        4776        4775
         4        4725        4726        4777        4776
         4        4726        4727        4778        4777
         4        4727        4728        4779        4778
         4        4728        4729        4780        4779
         4        4729        4730        4781        4780
         4        4730        4731        4782        4781
         4        4731        4732        4783        4782
         4        4732        4733        4784        4783
         4        4733        4734        4785        4784
         4        4734        4735        4786        4785
         4        4735        4736        4787        4786
         4        4736        4737        4788        4787
         4        4737        4738        4789        4788
         4        4738        4739        4790        4789
         4        4739        4740        4791        4790
         4        4740        4741        4792        4791
         4        4741        4742        4793        4792
         4        4743        4744        4795        4794
         4        4744        4745        4796        4795
         4        4745        4746        4797        4796
         4        4746        4747        4798        4797
         4        4747        4748        4799        4798
         4        4748        4749        4800        4799
         4        4749        4750        4801        4800
         4        4750        4751        4802        4801
         4        4751        4752        4803        4802
         4        4752        4753        4804        4803
         4        4753        4754        4805        4804
         4        4754        4755        4806        4805
         4        4755        4756        4807        4806
         4        4756        4757        4808        4807
         4        4757        4758        4809        4808
         4        4758        4759        4810        4809
         4        4759        4760        4811        4810
         4        4760        4761        4812        4811
         4        4761        4762        4813        4812
         4        4762        4763        4814        4813
         4        4763        4764        4815        4814
         4        4764        4765        4816        4815
         4        4765        4766        4817        4816
         4        4766        4767        4818        4817
         4        4767        4768        4819        4818
         4        4768        4769        4820        4819
         4        4769        4770        4821        4820
         4        4770        4771        4822        4821
         4        4771        4772        4823        4822
         4        4772        4773        4824        4823
         4        4773        4774        4825        4824
         4        4774        4775        4826        4825
         4        4775        4776        4827        4826
         4        4776        4777        4828        4827
         4        4777        4778        4829        4828
         4        4778        4779        4830        4829
         4        4779        4780        4831        4830
         4        4780        4781        4832        4831
         4        4781        4782        4833        4832
         4        4782        4783        4834        4833
         4        4783        4784        4835        4834
         4        4784        4785        4836        4835
         4        4785        4786        4837        4836
         4        4786        4787        4838        4837
         4        4787        4788        4839        4838
         4        4788        4789        4840        4839
         4        4789        4790        4841        4840
         4        4790        4791        4842        4841
         4        4791        4792        4843        4842
         4        4792        4793        4844        4843
         4        4794        4795        4846        4845
         4        4795        4796        4847        4846
         4        4796        4797        4848        4847
         4        4797        4798        4849        4848
         4        4798        4799        4850        4849
         4        4799        4800        4851        4850
         4        4800        4801        4852        4851
         4        4801        4802        4853        4852
         4        4802        4803        4854        4853
         4        4803        4804        4855        4854
         4        4804        4805        4856        4855
         4        4805        4806        4857        4856
         4        4806        4807        4858        4857
         4        4807        4808        4859        4858
         4        4808        4809        4860        4859
         4        4809        4810        4861        4860
         4        4810        4811        4862        4861
         4        4811        4812        4863        4862
         4        4812        4813        4864        4863
         4        4813        4814        4865        4864
         4        4814        4815        4866        4865
         4        4815        4816        4867        4866
         4        4816        4817        4868        4867
         4        4817        4818        4869        4868
         4        4818        4819        4870        4869
         4        4819        4820        4871        4870
         4        4820        4821        4872        4871
         4        4821        4822        4873        4872
         4        4822        4823        4874        4873
         4        4823        4824        4875        4874
         4        4824        4825        4876        4875
         4        4825        4826        4877        4876
         4        4826        4827        4878        4877
         4        4827        4828        4879        4878
         4        4828        4829        4880        4879
         4        4829        4830        4881        4880
         4        4830        4831        4882        4881
         4        4831        4832        4883        4882
         4        4832        4833        4884        4883
         4        4833        4834        4885        4884
         4        4834        4835        4886        4885
         4        4835        4836        4887        4886
         4        4836        4837        4888        4887
         4        4837        4838        4889        4888
         4        4838        4839        4890        4889
         4        4839        4840        4891        4890
         4        4840        4841        4892        4891
         4        4841        4842        4893        4892
         4        4842        4843        4894        4893
         4        4843        4844        4895        4894
         4        4845        4846        4897        4896
         4        4846        4847        4898        4897
         4        4847        4848        4899        4898
         4        4848        4849        4900        4899
         4        4849        4850        4901        4900
         4        4850        4851        4902        4901
         4        4851        4852        4903        4902
         4        4852        4853        4904        4903
         4        4853        4854        4905        4904
         4        4854        4855        4906        4905
         4        4855        4856        4907        4906
         4        4856        4857        4908        4907
         4        4857        4858        4909        4908
         4        4858        4859        4910        4909
         4        4859        4860        4911        4910
         4        4860        4861        4912        4911
         4        4861        4862        4913        4912
         4        4862        4863        4914        4913
         4        4863        4864        4915        4914
         4        4864        4865        4916        4915
         4        4865        4866        4917        4916
         4        4866        4867        4918        4917
         4        4867        4868        4919        4918
         4        4868        4869        4920        4919
         4        4869        4870        4921        4920
         4        4870        4871        4922        4921
         4        4871        4872        4923        4922
         4        4872        4873        4924        4923
         4        4873        4874        4925        4924
         4        4874        4875        4926        4925
         4        4875        4876        4927        4926
         4        4876        4877        4928        4927
         4        4877        4878        4929        4928
         4        4878        4879        4930        4929
         4        4879        4880        4931        4930
         4        4880        4881        4932        4931
         4        4881        4882        4933        4932
         4        4882        4883        4934        4933
         4        4883        4884        4935        4934
         4        4884        4885        4936        4935
         4        4885        4886        4937        4936
         4        4886        4887        4938        4937
         4        4887        4888        4939        4938
         4        4888        4889        4940        4939
         4        4889        4890        4941        4940
         4        4890        4891        4942        4941
         4        4891        4892        4943        4942
         4        4892        4893        4944        4943
         4        4893        4894        4945        4944
         4        4894        4895        4946        4945
         4        4896        4897        4948        4947
         4        4897        4898        4949        4948
         4        4898        4899        4950        4949
         4        4899        4900        4951        4950
         4        4900        4901        4952        4951
         4        4901        4902        4953        4952
         4        4902        4903        4954        4953
         4        4903        4904        4955        4954
         4        4904        4905        4956        4955
         4        4905        4906        4957        4956
         4        4906        4907        4958        4957
         4        4907        4908        4959        4958
         4        4908        4909        4960        4959
         4        4909        4910        4961        4960
         4        4910        4911        4962        4961
         4        4911        4912        4963        4962
         4        4912        4913        4964        4963
         4        4913        4914        4965        4964
         4        4914        4915        4966        4965
         4        4915        4916        4967        4966
         4        4916        4917        4968        4967
         4        4917        4918        4969        4968
         4        4918        4919        4970        4969
         4        4919        4920        4971        4970
         4        4920        4921        4972        4971
         4        4921        4922        4973        4972
         4        4922        4923        4974        4973
         4        4923        4924        4975        4974
         4        4924        4925        4976        4975
         4        4925        4926        4977        4976
         4        4926        4927        4978        4977
         4        4927        4928        4979        4978
         4        4928        4929        4980        4979
         4        4929        4930        4981        4980
         4        4930        4931        4982        4981
         4        4931        4932        4983        4982
         4        4932        4933        4984        4983
         4        4933        4934        4985        4984
         4        4934        4935        4986        4985
         4        4935        4936        4987        4986
         4        4936        4937        4988        4987
         4        4937        4938        4989        4988
         4        4938        4939        4990        4989
         4        4939        4940        4991        4990
         4        4940        4941        4992        4991
         4        4941        4942        4993        4992
         4        4942        4943        4994        4993
         4        4943        4944        4995        4994
         4        4944        4945        4996        4995
         4        4945        4946        4997        4996
         4        4947        4948        4999        4998
         4        4948        4949        5000        4999
         4        4949        4950        5001        5000
         4        4950        4951        5002        5001
         4        4951        4952        5003        5002
         4        4952        4953        5004        5003
         4        4953        4954        5005        5004
         4        4954        4955        5006        5005
         4        4955        4956        5007        5006
         4        4956        4957        5008        5007
         4        4957        4958        5009        5008
         4        4958        4959        5010        5009
         4        4959        4960        5011        5010
         4        4960        4961        5012        5011
         4        4961        4962        5013        5012
         4        4962        4963        5014        5013
         4        4963        4964        5015        5014
         4        4964        4965        5016        5015
         4        4965        4966        5017        5016
         4        4966        4967        5018        5017
         4        4967        4968        5019        5018
         4        4968        4969        5020        5019
         4        4969        4970        5021        5020
         4        4970        4971        5022        5021
         4        4971        4972        5023        5022
         4        4972        4973        5024        5023
         4        4973        4974        5025        5024
         4        4974        4975        5026        5025
         4        4975        4976        5027        5026
         4        4976        4977        5028        5027
         4        4977        4978        5029        5028
         4        4978        4979        5030        5029
         4        4979        4980        5031        5030
         4        4980        4981        5032        5031
         4        4981        4982        5033        5032
         4        4982        4983        5034        5033
         4        4983        4984        5035        5034
         4        4984        4985        5036        5035
         4        4985        4986        5037        5036
         4        4986        4987        5038        5037
         4        4987        4988        5039        5038
         4        4988        4989        5040        5039
         4        4989        4990        5041        5040
         4        4990        4991        5042        5041
         4        4991        4992        5043        5042
         4        4992        4993        5044        5043
         4        4993        4994        5045        5044
         4        4994        4995        5046        5045
         4        4995        4996        5047        5046
         4        4996        4997        5048        5047
         4        4998        4999        5050        5049
         4        4999        5000        5051        5050
         4        5000        5001        5052        5051
         4        5001        5002        5053        5052
         4        5002        5003        5054        5053
         4        5003        5004        5055        5054
         4        5004        5005        5056        5055
         4        5005        5006        5057        5056
         4        5006        5007        5058        5057
         4        5007        5008        5059        5058
         4        5008        5009        5060        5059
         4        5009        5010        5061        5060
         4        5010        5011        5062        5061
         4        5011        5012        5063        5062
         4        5012        5013        5064        5063
         4        5013        5014        5065        5064
         4        5014        5015        5066        5065
         4        5015        5016        5067        5066
         4        5016        5017        5068        5067
         4        5017        5018        5069        5068
         4        5018        5019        5070        5069
         4        5019        5020        5071        5070
         4        5020        5021        5072        5071
         4        5021        5022        5073        5072
         4        5022        5023        5074        5073
         4        5023        5024        5075        5074
         4        5024        5025        5076        5075
         4        5025        5026        5077        5076
         4        5026        5027        5078        5077
         4        5027        5028        5079        5078
         4        5028        5029        5080        5079
         4        5029        5030        5081        5080
         4        5030        5031        5082        5081
         4        5031        5032        5083        5082
         4        5032        5033        5084        5083
         4        5033        5034        5085        5084
         4        5034        5035        5086        5085
         4        5035        5036        5087        5086
         4        5036        5037        5088        5087
         4        5037        5038        5089        5088
         4        5038        5039        5090        5089
         4        5039        5040        5091        5090
         4        5040        5041        5092        5091
         4        5041        5042        5093        5092
         4        5042        5043        5094        5093
         4        5043        5044        5095        5094
         4        5044        5045        5096        5095
         4        5045        5046        5097        5096
         4        5046        5047        5098        5097
         4        5047        5048        5099        5098
         4        5049        5050        5101        5100
         4        5050        5051        5102        5101
         4        5051        5052        5103        5102
         4        5052        5053        5104        5103
         4        5053        5054        5105        5104
         4        5054        5055        5106        5105
         4        5055        5056        5107        5106
         4        5056        5057        5108        5107
         4        5057        5058        5109        5108
         4        5058        5059        5110        5109
         4        5059        5060        5111        5110
         4        5060        5061        5112        5111
         4        5061        5062        5113        5112
         4        5062        5063        5114        5113
         4        5063        5064        5115        5114
         4        5064        5065        5116        5115
         4        5065        5066        5117        5116
         4        5066        5067        5118        5117
         4        5067        5068        5119        5118
         4        5068        5069        5120        5119
         4        5069        5070        5121        5120
         4        5070        5071        5122        5121
         4        5071        5072        5123        5122
         4        5072        5073        5124        5123
         4        5073        5074        5125        5124
         4        5074        5075        5126        5125
         4        5075        5076        5127        5126
         4        5076        5077        5128        5127
         4        5077        5078        5129        5128
         4        5078        5079        5130        5129
         4        5079        5080        5131        5130
         4        5080        5081        5132        5131
         4        5081        5082        5133        5132
         4        5082        5083        5134        5133
         4        5083        5084        5135        5134
         4        5084        5085        5136        5135
         4        5085        5086        5137        5136
         4        5086        5087        5138        5137
         4        5087        5088        5139        5138
         4        5088        5089        5140        5139
         4        5089        5090        5141        5140
         4        5090        5091        5142        5141
         4        5091        5092        5143        5142
         4        5092        5093        5144        5143
         4        5093        5094        5145        5144
         4        5094        5095        5146        5145
         4        5095        5096        5147        5146
         4        5096        5097        5148        5147
         4        5097        5098        5149        5148
         4        5098        5099        5150        5149
CELL_TYPES       5000
9
9
9
9
9
9
9
9
9
9
9
9
9
9
9
9
9
9
9
9
9
9
9
9
9
9
9
9
9
9
9
9
9
9
9
9
9
9
9
9
9
9
9
9
9
9
9
9
9
9
9
9
9
9
9
9
9
9
9
9
9
9
9
9
9
9
9
9
9
9
9
9
9
9
9
9
9
9
9
9
9
9
9
9
9
9
9
9
9
9
9
9
9
9
9
9
9
9
9
9
9
9
9
9
9
9
9
9
9
9
9
9
9
9
9
9
9
9
9
9
9
9
9
9
9
9
9
9
9
9
9
9
9
9
9
9
9
9
9
9
9
9
9
9
9
9
9
9
9
9
9
9
9
9
9
9
9
9
9
9
9
9
9
9
9
9
9
9
9
9
9
9
9
9
9
9
9
9
9
9
9
9
9
9
9
9
9
9
9
9
9
9
9
9
9
9
9
9
9
9
9
9
9
9
9
9
9
9
9
9
9
9
9
9
9
9
9
9
9
9
9
9
9
9
9
9
9
9
9
9
9
9
9
9
9
9
9
9
9
9
9
9
9
9
9
9
9
9
9
9
9
9
9
9
9
9
9
9
9
9
9
9
9
9
9
9
9
9
9
9
9
9
9
9
9
9
9
9
9
9
9
9
9
9
9
9
9
9
9
9
9
9
9
9
9
9
9
9
9
9
9
9
9
9
9
9
9
9
9
9
9
9
9
9
9
9
9
9
9
9
9
9
9
9
9
9
9
9
9
9
9
9
9
9
9
9
9
9
9
9
9
9
9
9
9
9
9
9
9
9
9
9
9
9
9
9
9
9
9
9
9
9
9
9
9
9
9
9
9
9
9
9
9
9
9
9
9
9
9
9
9
9
9
9
9
9
9
9
9
9
9
9
9
9
9
9
9
9
9
9
9
9
9
9
9
9
9
9
9
9
9
9
9
9
9
9
9
9
9
9
9
9
9
9
9
9
9
9
9
9
9
9
9
9
9
9
9
9
9
9
9
9
9
9
9
9
9
9
9
9
9
9
9
9
9
9
9
9
9
9
9
9
9
9
9
9
9
9
9
9
9
9
9
9
9
9
9
9
9
9
9
9
9
9
9
9
9
9
9
9
9
9
9
9
9
9
9
9
9
9
9
9
9
9
9
9
9
9
9
9
9
9
9
9
9
9
9
9
9
9
9
9
9
9
9
9
9
9
9
9
9
9
9
9
9
9
9
9
9
9
9
9
9
9
9
9
9
9
9
9
9
9
9
9
9
9
9
9
9
9
9
9
9
9
9
9
9
9
9
9
9
9
9
9
9
9
9
9
9
9
9
9
9
9
9
9
9
9
9
9
9
9
9
9
9
9
9
9
9
9
9
9
9
9
9
9
9
9
9
9
9
9
9
9
9
9
9
9
9
9
9
9
9
9
9
9
9
9
9
9
9
9
9
9
9
9
9
9
9
9
9
9
9
9
9
9
9
9
9
9
9
9
9
9
9
9
9
9
9
9
9
9
9
9
9
9
9
9
9
9
9
9
9
9
9
9
9
9
9
9
9
9
9
9
9
9
9
9
9
9
9
9
9
9
9
9
9
9
9
9
9
9
9
9
9
9
9
9
9
9
9
9
9
9
9
9
9
9
9
9
9
9
9
9
9
9
9
9
9
9
9
9
9
9
9
9
9
9
9
9
9
9
9
9
9
9
9
9
9
9
9
9
9
9
9
9
9
9
9
9
9
9
9
9
9
9
9
9
9
9
9
9
9
9
9
9
9
9
9
9
9
9
9
9
9
9
9
9
9
9
9
9
9
9
9
9
9
9
9
9
9
9
9
9
9
9
9
9
9
9
9
9
9
9
9
9
9
9
9
9
9
9
9
9
9
9
9
9
9
9
9
9
9
9
9
9
9
9
9
9
9
9
9
9
9
9
9
9
9
9
9
9
9
9
9
9
9
9
9
9
9
9
9
9
9
9
9
9
9
9
9
9
9
9
9
9
9
9
9
9
9
9
9
9
9
9
9
9
9
9
9
9
9
9
9
9
9
9
9
9
9
9
9
9
9
9
9
9
9
9
9
9
9
9
9
9
9
9
9
9
9
9
9
9
9
9
9
9
9
9
9
9
9
9
9
9
9
9
9
9
9
9
9
9
9
9
9
9
9
9
9
9
9
9
9
9
9
9
9
9
9
9
9
9
9
9
9
9
9
9
9
9
9
9
9
9
9
9
9
9
9
9
9
9
9
9
9
9
9
9
9
9
9
9
9
9
9
9
9
9
9
9
9
9
9
9
9
9
9
9
9
9
9
9
9
9
9
9
9
9
9
9
9
9
9
9
9
9
9
9
9
9
9
9
9
9
9
9
9
9
9
9
9
9
9
9
9
9
9
9
9
9
9
9
9
9
9
9
9
9
9
9
9
9
9
9
9
9
9
9
9
9
9
9
9
9
9
9
9
9
9
9
9
9
9
9
9
9
9
9
9
9
9
9
9
9
9
9
9
9
9
9
9
9
9
9
9
9
9
9
9
9
9
9
9
9
9
9
9
9
9
9
9
9
9
9
9
9
9
9
9
9
9
9
9
9
9
9
9
9
9
9
9
9
9
9
9
9
9
9
9
9
9
9
9
9
9
9
9
9
9
9
9
9
9
9
9
9
9
9
9
9
9
9
9
9
9
9
9
9
9
9
9
9
9
9
9
9
9
9
9
9
9
9
9
9
9
9
9
9
9
9
9
9
9
9
9
9
9
9
9
9
9
9
9
9
9
9
9
9
9
9
9
9
9
9
9
9
9
9
9
9
9
9
9
9
9
9
9
9
9
9
9
9
9
9
9
9
9
9
9
9
9
9
9
9
9
9
9
9
9
9
9
9
9
9
9
9
9
9
9
9
9
9
9
9
9
9
9
9
9
9
9
9
9
9
9
9
9
9
9
9
9
9
9
9
9
9
9
9
9
9
9
9
9
9
9
9
9
9
9
9
9
9
9
9
9
9
9
9
9
9
9
9
9
9
9
9
9
9
9
9
9
9
9
9
9
9
9
9
9
9
9
9
9
9
9
9
9
9
9
9
9
9
9
9
9
9
9
9
9
9
9
9
9
9
9
9
9
9
9
9
9
9
9
9
9
9
9
9
9
9
9
9
9
9
9
9
9
9
9
9
9
9
9
9
9
9
9
9
9
9
9
9
9
9
9
9
9
9
9
9
9
9
9
9
9
9
9
9
9
9
9
9
9
9
9
9
9
9
9
9
9
9
9
9
9
9
9
9
9
9
9
9
9
9
9
9
9
9
9
9
9
9
9
9
9
9
9
9
9
9
9
9
9
9
9
9
9
9
9
9
9
9
9
9
9
9
9
9
9
9
9
9
9
9
9
9
9
9
9
9
9
9
9
9
9
9
9
9
9
9
9
9
9
9
9
9
9
9
9
9
9
9
9
9
9
9
9
9
9
9
9
9
9
9
9
9
9
9
9
9
9
9
9
9
9
9
9
9
9
9
9
9
9
9
9
9
9
9
9
9
9
9
9
9
9
9
9
9
9
9
9
9
9
9
9
9
9
9
9
9
9
9
9
9
9
9
9
9
9
9
9
9
9
9
9
9
9
9
9
9
9
9
9
9
9
9
9
9
9
9
9
9
9
9
9
9
9
9
9
9
9
9
9
9
9
9
9
9
9
9
9
9
9
9
9
9
9
9
9
9
9
9
9
9
9
9
9
9
9
9
9
9
9
9
9
9
9
9
9
9
9
9
9
9
9
9
9
9
9
9
9
9
9
9
9
9
9
9
9
9
9
9
9
9
9
9
9
9
9
9
9
9
9
9
9
9
9
9
9
9
9
9
9
9
9
9
9
9
9
9
9
9
9
9
9
9
9
9
9
9
9
9
9
9
9
9
9
9
9
9
9
9
9
9
9
9
9
9
9
9
9
9
9
9
9
9
9
9
9
9
9
9
9
9
9
9
9
9
9
9
9
9
9
9
9
9
9
9
9
9
9
9
9
9
9
9
9
9
9
9
9
9
9
9
9
9
9
9
9
9
9
9
9
9
9
9
9
9
9
9
9
9
9
9
9
9
9
9
9
9
9
9
9
9
9
9
9
9
9
9
9
9
9
9
9
9
9
9
9
9
9
9
9
9
9
9
9
9
9
9
9
9
9
9
9
9
9
9
9
9
9
9
9
9
9
9
9
9
9
9
9
9
9
9
9
9
9
9
9
9
9
9
9
9
9
9
9
9
9
9
9
9
9
9
9
9
9
9
9
9
9
9
9
9
9
9
9
9
9
9
9
9
9
9
9
9
9
9
9
9
9
9
9
9
9
9
9
9
9
9
9
9
9
9
9
9
9
9
9
9
9
9
9
9
9
9
9
9
9
9
9
9
9
9
9
9
9
9
9
9
9
9
9
9
9
9
9
9
9
9
9
9
9
9
9
9
9
9
9
9
9
9
9
9
9
9
9
9
9
9
9
9
9
9
9
9
9
9
9
9
9
9
9
9
9
9
9
9
9
9
9
9
9
9
9
9
9
9
9
9
9
9
9
9
9
9
9
9
9
9
9
9
9
9
9
9
9
9
9
9
9
9
9
9
9
9
9
9
9
9
9
9
9
9
9
9
9
9
9
9
9
9
9
9
9
9
9
9
9
9
9
9
9
9
9
9
9
9
9
9
9
9
9
9
9
9
9
9
9
9
9
9
9
9
9
9
9
9
9
9
9
9
9
9
9
9
9
9
9
9
9
9
9
9
9
9
9
9
9
9
9
9
9
9
9
9
9
9
9
9
9
9
9
9
9
9
9
9
9
9
9
9
9
9
9
9
9
9
9
9
9
9
9
9
9
9
9
9
9
9
9
9
9
9
9
9
9
9
9
9
9
9
9
9
9
9
9
9
9
9
9
9
9
9
9
9
9
9
9
9
9
9
9
9
9
9
9
9
9
9
9
9
9
9
9
9
9
9
9
9
9
9
9
9
9
9
9
9
9
9
9
9
9
9
9
9
9
9
9
9
9
9
9
9
9
9
9
9
9
9
9
9
9
9
9
9
9
9
9
9
9
9
9
9
9
9
9
9
9
9
9
9
9
9
9
9
9
9
9
9
9
9
9
9
9
9
9
9
9
9
9
9
9
9
9
9
9
9
9
9
9
9
9
9
9
9
9
9
9
9
9
9
9
9
9
9
9
9
9
9
9
9
9
9
9
9
9
9
9
9
9
9
9
9
9
9
9
9
9
9
9
9
9
9
9
9
9
9
9
9
9
9
9
9
9
9
9
9
9
9
9
9
9
9
9
9
9
9
9
9
9
9
9
9
9
9
9
9
9
9
9
9
9
9
9
9
9
9
9
9
9
9
9
9
9
9
9
9
9
9
9
9
9
9
9
9
9
9
9
9
9
9
9
9
9
9
9
9
9
9
9
9
9
9
9
9
9
9
9
9
9
9
9
9
9
9
9
9
9
9
9
9
9
9
9
9
9
9
9
9
9
9
9
9
9
9
9
9
9
9
9
9
9
9
9
9
9
9
9
9
9
9
9
9
9
9
9
9
9
9
9
9
9
9
9
9
9
9
9
9
9
9
9
9
9
9
9
9
9
9
9
9
9
9
9
9
9
9
9
9
9
9
9
9
9
9
9
9
9
9
9
9
9
9
9
9
9
9
9
9
9
9
9
9
9
9
9
9
9
9
9
9
9
9
9
9
9
9
9
9
9
9
9
9
9
9
9
9
9
9
9
9
9
9
9
9
9
9
9
9
9
9
9
9
9
9
9
9
9
9
9
9
9
9
9
9
9
9
9
9
9
9
9
9
9
9
9
9
9
9
9
9
9
9
9
9
9
9
9
9
9
9
9
9
9
9
9
9
9
9
9
9
9
9
9
9
9
9
9
9
9
9
9
9
9
9
9
9
9
9
9
9
9
9
9
9
9
9
9
9
9
9
9
9
9
9
9
9
9
9
9
9
9
9
9
9
9
9
9
9
9
9
9
9
9
9
9
9
9
9
9
9
9
9
9
9
9
9
9
9
9
9
9
9
9
9
9
9
9
9
9
9
9
9
9
9
9
9
9
9
9
9
9
9
9
9
9
9
9
9
9
9
9
9
9
9
9
9
9
9
9
9
9
9
9
9
9
9
9
9
9
9
9
9
9
9
9
9
9
9
9
9
9
9
9
9
9
9
9
9
9
9
9
9
9
9
9
9
9
9
9
9
9
9
9
9
9
9
9
9
9
9
9
9
9
9
9
9
9
9
9
9
9
9
9
9
9
9
9
9
9
9
9
9
9
9
9
9
9
9
9
9
9
9
9
9
9
9
9
9
9
9
9
9
9
9
9
9
9
9
9
9
9
9
9
9
9
9
9
9
9
9
9
9
9
9
9
9
9
9
9
9
9
9
9
9
9
9
9
9
9
9
9
9
9
9
9
9
9
9
9
9
9
9
9
9
9
9
9
9
9
9
9
9
9
9
9
9
9
9
9
9
9
9
9
9
9
9
9
9
9
9
9
9
9
9
9
9
9
9
9
9
9
9
9
9
9
9
9
9
9
9
9
9
9
9
9
9
9
9
9
9
9
9
9
9
9
9
9
9
9
9
9
9
9
9
9
9
9
9
9
9
9
9
9
9
9
9
9
9
9
9
9
9
9
9
9
9
9
9
9
9
9
9
9
9
9
9
9
9
9
9
9
9
9
9
9
9
9
9
9
9
9
9
9
9
9
9
9
9
9
9
9
9
9
9
9
9
9
9
9
9
9
9
9
9
9
9
9
9
9
9
9
9
9
9
9
9
9
9
9
9
9
9
9
9
9
9
9
9
9
9
9
9
9
9
9
9
9
9
9
9
9
9
9
9
9
9
9
9
9
9
9
9
9
9
9
9
9
9
9
9
9
9
9
9
9
9
9
9
9
9
9
9
9
9
9
9
9
9
9
9
9
9
9
9
9
9
9
9
9
9
9
9
9
9
9
9
9
9
9
9
9
9
9
9
9
9
9
9
9
9
9
9
9
9
9
9
9
9
9
9
9
9
9
9
9
9
9
9
9
9
9
9
9
9
9
9
9
9
9
9
9
9
9
9
9
9
9
9
9
9
9
9
9
9
9
9
9
9
9
9
9
9
9
9
9
9
9
9
9
9
9
9
9
9
9
9
9
9
9
9
9
9
9
9
9
9
9
9
9
9
9
9
9
9
9
9
9
9
9
9
9
9
9
9
9
9
9
9
9
9
9
9
9
9
9
9
9
9
9
9
9
9
9
9
9
9
9
9
9
9
9
9
9
9
9
9
9
9
9
9
9
9
9
9
9
9
9
9
9
9
9
9
9
9
9
9
9
9
9
9
9
9
9
9
9
9
9
9
9
9
9
9
9
9
9
9
9
9
9
9
9
9
9
9
9
9
9
9
9
9
9
9
9
9
9
9
9
9
9
9
9
9
9
9
9
9
9
9
9
9
9
9
9
9
9
9
9
9
9
9
9
9
9
9
9
9
9
9
9
9
9
9
9
9
9
9
9
9
9
9
9
9
9
9
9
9
9
9
9
9
9
9
9
9
9
9
9
9
9
9
9
9
9
9
9
9
9
9
9
9
9
9
9
9
9
9
9
9
9
9
9
9
9
9
9
9
9
9
9
9
9
9
9
9
9
9
9
9
9
9
9
9
9
9
9
9
9
9
9
9
9
9
9
9
9
9
9
9
9
9
9
9
9
9
9
9
9
9
9
9
9
9
9
9
9
9
9
9
9
9
9
9
9
9
9
9
9
9
9
9
9
9
9
9
9
9
9
9
9
9
9
9
9
9
9
9
9
9
9
9
9
9
9
9
9
9
9
9
9
9
9
9
9
9
9
9
9
9
9
9
9
9
9
9
9
9
9
9
9
9
9
9
9
9
9
9
9
9
9
9
9
9
9
9
9
9
9
9
9
9
9
9
9
9
9
9
9
9
9
9
9
9
9
9
9
9
9
9
9
9
9
9
9
9
9
9
9
9
9
9
9
9
9
9
9
9
9
9
9
9
9
9
9
9
9
9
9
9
9
9
9
9
9
9
9
9
9
9
9
9
9
9
9
9
9
9
9
9
9
9
9
9
9
9
9
9
9
9
9
9
9
9
9
9
9
9
9
9
9
9
9
9
9
9
9
9
9
9
9
9
9
9
9
9
9
9
9
9
9
9
9
9
9
9
9
9
9
9
9
9
9
9
9
9
9
9
9
9
9
9
9
9
9
9
9
9
9
9
9
9
9
9
9
9
9
9
9
9
9
9
9
9
9
9
9
9
9
9
9
9
9
9
9
9
9
9
9
9
9
9
9
9
9
9
9
9
9
9
9
9
9
9
9
9
9
9
9
9
9
9
9
9
9
9
9
9
9
9
9
9
9
9
9
9
9
9
9
9
9
9
9
9
9
9
9
9
9
9
9
9
9
9
9
9
9
9
9
9
9
9
9
9
9
9
9
9
9
9
9
9
9
9
9
9
9
9
9
9
9
9
9
9
9
9
9
9
9
9
9
9
9
9
9
9
9
9
9
9
9
9
9
9
9
9
9
9
9
9
9
9
9
9
9
9
9
9
9
9
9
9
9
9
9
9
9
9
9
9
9
9
9
9
9
9
9
9
9
9
9
9
9
9
9
9
9
9
9
9
9
9
9
9
9
9
9
9
9
9
9
9
9
9
9
9
9
9
9
9
9
9
9
9
9
9
9
9
9
9
9
9
9
9
9
9
9
9
9
9
9
9
9
9
9
9
9
9
9
9
9
9
9
9
9
9
9
9
9
9
9
9
9
9
9
9
9
9
9
9
9
9
9
9
9
9
9
9
9
9
9
9
9
9
9
9
9
9
9
9
9
9
9
9
9
9
9
9
9
9
9
9
9
9
9
9
9
9
9
9
9
9
9
9
9
9
9
9
9
9
9
9
9
9
9
9
9
9
9
9
9
9
9
9
9
9
9
9
9
9
9
9
9
9
9
9
9
9
9
9
9
9
9
9
9
9
9
9
9
9
9
9
9
9
9
9
9
9
9
9
9
9
9
9
9
9
9
9
9
9
9
9
9
9
9
9
9
9
9
9
9
9
9
9
9
9
9
9
9
9
9
9
9
9
9
9
9
9
9
9
9
9
9
9
9
9
9
9
9
9
9
9
9
9
9
9
9
9
9
9
9
9
9
9
9
9
9
9
9
9
9
9
9
9
9
9
9
9
9
9
9
9
9
9
9
9
9
9
9
9
9
9
9
9
9
9
9
9
9
9
9
9
9
9
9
9
9
9
9
9
9
9
9
9
9
9
9
9
9
9
9
9
9
9
9
9
9
9
9
9
9
9
9
9
9
9
9
9
9
9
9
9
9
9
9
9
9
9
9
9
9
9
9
9
9
9
9
9
9
9
9
9
9
9
9
9
9
9
9
9
9
9
9
9
9
9
9
9
9
9
9
9
9
9
9
9
9
9
9
9
9
9
9
9
9
9
9
9
9
9
9
9
9
9
9
9
9
9
9
9
9
9
9
9
9
9
9
9
9
9
9
9
9
9
9
9
9
9
9
9
9
9
9
9
9
9
9
9
9
9
9
9
9
9
9
9
9
9
9
9
9
9
9
9
9
9
9
9
9
9
9
9
9
9
9
9
9
9
9
9
9
9
9
9
9
9
9
9
9
9
9
9
9
9
9
9
9
9
9
9
9
9
9
9
9
9
9
9
9
9
9
9
9
9
9
9
9
9
9
9
9
9
9
9
9
9
9
9
9
9
9
9
9
9
9
9
9
9
9
9
9
9
9
9
9
9
9
9
9
9
9
9
9
9
9
9
9
9
9
9
9
9
9
9
9
9
9
9
9
9
9
9
9
9
9
9
9
9
9
9
9
9
9
9
9
9
9
9
9
9
9
9
9
9
9
9
9
9
9
9
9
9
9
9
9
9
9
9
9
9
9
9
9
9
9
9
9
9
9
9
9
9
9
9
9
9
9
9
9
9
9
9
9
9
9
9
9
9
9
9
9
9
9
9
9
9
9
9
9
9
9
9
9
9
9
9
9
9
9
9
9
9
9
9
9
9
9
9
9
9
9
9
9
9
9
9
9
9
9
9
9
9
9
9
9
9
9
9
9
9
9
9
9
9
9
9
9
9
9
9
9
9
9
9
9
9
9
9
9
9
9
9
9
9
9
9
9
9
9
9
9
9
9
9
9
9
9
9
9
9
9
9
9
9
9
9
9
9
9
9
9
9
9
9
9
9
9
9
9
9
9
9
9
9
9
9
9
9
9
9
9
9
9
9
9
9
9
9
9
9
9
9
9
9
9
9
9
9
9
9
9
9
9
9
9
9
9
9
9
9
9
9
9
9
9
9
9
9
9
9
9
9
9
9
9
9
9
9
9
9
9
9
9
9
9
9
9
9
9
9
9
9
9
9
9
9
9
9
9
9
9
9
9
9
9
9
9
9
9
9
9
9
9
9
9
9
9
9
9
9
9
9
9
9
9
9
9
9
9
9
9
9
9
9
9
9
9
9
9
9
9
9
9
9
9
9
9
9
9
9
9
9
9
9
9
9
9
9
9
9
9
9
9
9
9
9
9
9
9
9
9
9
9
9
9
9
9
9
9
9
9
9
9
9
9
9
9
9
9
9
9
9
9
9
9
9
9
9
9
9
9
9
9
9
9
9
9
9
9
9
9
9
9
9
9
9
9
9
9
9
9
9
9
9
9
9
9
9
9
9
9
9
9
9
9
9
9
9
9
9
9
9
9
9
9
9
9
9
9
9
9
9
9
9
9
9
9
9
9
9
9
9
9
9
9
9
9
9
9
9
9
9
9
9
9
9
9
9
9
9
9
9
9
9
9
9
9
9
9
9
9
9
9
9
9
9
9
9
9
9
9
9
9
9
9
9
9
9
9
9
9
9
9
9
9
9
9
9
9
9
9
9
9
9
9
9
9
9
9
9
9
9
9
9
9
9
9
9
9
9
9
9
9
9
9
9
9
9
9
9
9
9
9
9
9
9
9
9
9
9
9
9
9
9
9
9
9
9
9
9
9
9
9
9
9
9
9
9
9
9
9
9
9
9
9
9
9
9
9
9
9
9
9
9
9
9
9
9
9
9
9
9
9
9
9
9
9
9
9
9
9
9
9
9
9
9
9
9
9
9
9
9
9
9
9
9
9
9
9
9
9
9
9
9
9
9
9
9
9
9
9
9
9
9
9
9
9
9
9
9
9
9
9
9
9
9
9
9
9
9
9
9
9
9
9
9
9
9
9
9
9
9
9
9
9
9
9
9
9
9
9
9
9
9
9
9
9
9
POINT_DATA      5151
SCALARS p double 
LOOKUP_TABLE default
   70000000.0000000     
   70000000.0000000     
   70000000.0000000     
   70000000.0000000     
   70000000.0000000     
   70000000.0000000     
   70000000.0000000     
   70000000.0000000     
   70000000.0000000     
   70000000.0000000     
   70000000.0000000     
   70000000.0000000     
   70000000.0000000     
   70000000.0000000     
   70000000.0000000     
   70000000.0000000     
   70000000.0000000     
   70000000.0000000     
   70000000.0000000     
   70000000.0000000     
   70000000.0000000     
   70000000.0000000     
   70000000.0000000     
   70000000.0000000     
   70000000.0000000     
   70000000.0000000     
   70000000.0000000     
   70000000.0000000     
   70000000.0000000     
   70000000.0000000     
   70000000.0000000     
   70000000.0000000     
   70000000.0000000     
   70000000.0000000     
   70000000.0000000     
   70000000.0000000     
   70000000.0000000     
   70000000.0000000     
   70000000.0000000     
   70000000.0000000     
   70000000.0000000     
   70000000.0000000     
   70000000.0000000     
   70000000.0000000     
   70000000.0000000     
   70000000.0000000     
   70000000.0000000     
   70000000.0000000     
   70000000.0000000     
   70000000.0000000     
   70000000.0000000     
   68536152.0238568     
   68536000.9409130     
   68535649.0622279     
   68535142.4623759     
   68534481.5144629     
   68533712.0256675     
   68532932.2708081     
   68532239.2393569     
   68531683.5555616     
   68531285.4846127     
   68531056.7030710     
   68531004.4575227     
   68531127.9966793     
   68531417.2672129     
   68531859.5267659     
   68532436.9743155     
   68533125.4539477     
   68533901.0135749     
   68534741.1394224     
   68535620.4314625     
   68536509.1191738     
   68537381.6581445     
   68538218.6082366     
   68538977.6574600     
   68539601.0170265     
   68540047.1507481     
   68540283.3334861     
   68540255.7293127     
   68539893.9218490     
   68539139.0477583     
   68537943.4905223     
   68536270.0253598     
   68534091.7561063     
   68531392.6713436     
   68528168.1700819     
   68524425.4415703     
   68520183.9698030     
   68515476.2987635     
   68510349.1833999     
   68504865.7748791     
   68499109.3992358     
   68493189.4906736     
   68487250.4083088     
   68481483.6454815     
   68476145.0206352     
   68471579.4704546     
   68468217.2169521     
   68466199.4342926     
   68465303.8744740     
   68465181.6916892     
   68465257.2473957     
   67100337.2221458     
   67100939.1621454     
   67102321.9203427     
   67104013.4742444     
   67105771.3679272     
   67107480.3119064     
   67109094.6604918     
   67110609.1427000     
   67112047.2830447     
   67113441.4232417     
   67114822.8544661     
   67116220.5205482     
   67117663.1109268     
   67119180.8286731     
   67120779.9792351     
   67122440.9232914     
   67124143.1619663     
   67125868.3641067     
   67127602.5856873     
   67129319.1851777     
   67130969.7153464     
   67132501.6864531     
   67133863.3746024     
   67135000.7417590     
   67135856.7293237     
   67136370.4101042     
   67136477.8420744     
   67136118.6481200     
   67135235.9944794     
   67133772.4152783     
   67131673.0512574     
   67128888.6512895     
   67125379.0725666     
   67121117.2928682     
   67116093.2175920     
   67110317.1084743     
   67103822.0158497     
   67096665.5332997     
   67088931.2241832     
   67080729.6619263     
   67072201.5596931     
   67063522.7494288     
   67054910.0821057     
   67046630.6597075     
   67039013.8594370     
   67032463.9235501     
   67027469.0679354     
   67024171.9529025     
   67022278.7186760     
   67021418.4558977     
   67021198.9441506     
   65757031.1736195     
   65757365.9924519     
   65758269.4095667     
   65759599.2606580     
   65761225.9800348     
   65763050.6456460     
   65765004.4949918     
   65767043.3749371     
   65769139.9100763     
   65771278.9262497     
   65773453.4140642     
   65775660.0985674     
   65777895.6344699     
   65780153.0692379     
   65782421.0264576     
   65784683.8781122     
   65786920.7498651     
   65789106.5314512     
   65791210.5683330     
   65793198.5563528     
   65795034.5367819     
   65796677.6154574     
   65798082.1001446     
   65799198.9879202     
   65799976.6835533     
   65800361.9095362     
   65800300.3263813     
   65799735.7290111     
   65798610.7175417     
   65796868.4652398     
   65794452.9537928     
   65791310.0426086     
   65787389.6633862     
   65782649.3013590     
   65777059.2137686     
   65770609.7592964     
   65763319.7526854     
   65755241.6586709     
   65746464.7904004     
   65737119.3559011     
   65727373.7881537     
   65717432.7585089     
   65707541.1753248     
   65697985.4478008     
   65689096.1668050     
   65681253.4054350     
   65674893.1019493     
   65670390.6559397     
   65667671.0330534     
   65666313.2414802     
   65665925.0852177     
   64505884.8505775     
   64505893.2906993     
   64506016.9610803     
   64506349.2540069     
   64506935.2792021     
   64507789.8480742     
   64508900.9123035     
   64510243.2104662     
   64511786.5450577     
   64513499.4947561     
   64515350.9777367     
   64517310.5789355     
   64519348.1907837     
   64521433.5675125     
   64523534.7582954     
   64525621.9855783     
   64527671.9503145     
   64529660.5655162     
   64531558.4267875     
   64533332.2853729     
   64534945.5852737     
   64536359.8884990     
   64537535.2450659     
   64538430.2274298     
   64539002.1465456     
   64539207.1020162     
   64539000.0289362     
   64538335.1235123     
   64537165.9229113     
   64535445.1374271     
   64533124.9408982     
   64530157.1981206     
   64526493.7267333     
   64522086.8042963     
   64516890.2059082     
   64510861.4713968     
   64503969.3784361     
   64496218.5291278     
   64487667.0406845     
   64478416.6623461     
   64468623.2296051     
   64458502.9457172     
   64448312.7606378     
   64438343.5388016     
   64428908.4120957     
   64420331.3404189     
   64412941.2306105     
   64407076.6466032     
   64403046.3964369     
   64400872.0581102     
   64400222.6745935     
   63332108.2271089     
   63332163.8748523     
   63332344.9158693     
   63332670.8264255     
   63333159.0026270     
   63333819.3379186     
   63334654.9199220     
   63335661.2420914     
   63336827.0022174     
   63338135.6197475     
   63339566.6617438     
   63341096.9933539     
   63342701.6761432     
   63344354.6184153     
   63346029.4303335     
   63347699.7731856     
   63349338.8077223     
   63350918.9949478     
   63352411.8247215     
   63353787.6665386     
   63355015.9277280     
   63356064.9673823     
   63356902.2609699     
   63357494.6148641     
   63357808.3193508     
   63357809.3237495     
   63357463.3841222     
   63356736.1148516     
   63355593.1246515     
   63354000.1956219     
   63351923.3195657     
   63349328.6906069     
   63346182.5500075     
   63342450.7081670     
   63338097.4123248     
   63333082.8632226     
   63327361.8886600     
   63320898.2753845     
   63313655.2943865     
   63305659.3324441     
   63297010.1515529     
   63287849.8980019     
   63278400.1657196     
   63268924.4144298     
   63259720.6244654     
   63251117.6593447     
   63243439.4771076     
   63236988.1690241     
   63232040.7013699     
   63228876.3307618     
   63227775.2378604     
   62238340.5011326     
   62238441.5379656     
   62238724.0111392     
   62239165.8431245     
   62239751.2651879     
   62240468.4037990     
   62241306.6114253     
   62242255.2583187     
   62243302.8703666     
   62244436.6001707     
   62245642.0302682     
   62246903.1999987     
   62248202.7459132     
   62249522.0986357     
   62250841.5762688     
   62252140.5184488     
   62253397.5471029     
   62254590.6164645     
   62255697.0550252     
   62256693.6272450     
   62257556.5602829     
   62258261.6785342     
   62258784.4949402     
   62259100.3043608     
   62259184.2998073     
   62259011.6869771     
   62258557.8091120     
   62257798.2938513     
   62256709.1720786     
   62255266.9779909     
   62253448.8741370     
   62251232.7702053     
   62248597.4688422     
   62245522.9103848     
   62241990.6836786     
   62237985.1941130     
   62233495.1798956     
   62228511.4598409     
   62223029.9329041     
   62217047.5647147     
   62210553.0642196     
   62203560.5930583     
   62196100.7038516     
   62188316.3863122     
   62180461.9298958     
   62172828.9867032     
   62165772.4614523     
   62159656.2632795     
   62154854.8841666     
   62151736.4945502     
   62150639.3041454     
   61226959.2806559     
   61227064.0599715     
   61227358.3156920     
   61227813.4469709     
   61228404.5942256     
   61229110.2129332     
   61229911.5885309     
   61230792.0516844     
   61231736.2993497     
   61232729.8459193     
   61233758.5897632     
   61234808.4904345     
   61235865.3464123     
   61236914.6493990     
   61237941.5265869     
   61238930.7114990     
   61239866.5086591     
   61240732.8410728     
   61241513.3093583     
   61242191.2475138     
   61242749.7989351     
   61243171.9762138     
   61243440.7485422     
   61243539.1428743     
   61243450.3525566     
   61243157.8593200     
   61242645.5651266     
   61241897.9326850     
   61240900.1502950     
   61239638.3226619     
   61238099.6838439     
   61236272.8527510     
   61234148.1380733     
   61231717.8930498     
   61228976.8918432     
   61225922.6143433     
   61222555.4625226     
   61218880.0294438     
   61214905.3116873     
   61210647.3521346     
   61206133.4171234     
   61201395.1344716     
   61196471.0430930     
   61191400.9939446     
   61186220.3743675     
   61181012.5650936     
   61175912.5108392     
   61171195.7507192     
   61167256.6841490     
   61164539.2122988     
   61163549.8225325     
   60297291.4713640     
   60297382.7350177     
   60297636.8821595     
   60298027.5570068     
   60298531.4174980     
   60299127.6377060     
   60299797.4981438     
   60300524.0849516     
   60301291.9869443     
   60302087.0002688     
   60302895.8581776     
   60303705.9942760     
   60304505.3429216     
   60305282.1800817     
   60306024.9955867     
   60306722.4060062     
   60307363.1099702     
   60307935.8535064     
   60308429.4218239     
   60308832.6575795     
   60309134.4938231     
   60309324.0097967     
   60309390.4961895     
   60309323.5337750     
   60309113.0871740     
   60308749.6125022     
   60308224.1809106     
   60307528.6198347     
   60306655.6702262     
   60305599.1626070     
   60304354.2167553     
   60302917.4636793     
   60301287.2924271     
   60299464.1255134     
   60297450.7344879     
   60295252.6342215     
   60292878.5695514     
   60290340.8052752     
   60287655.7580222     
   60284843.9517117     
   60281929.6264039     
   60278943.2857611     
   60275922.0797881     
   60272913.6976405     
   60269980.1886650     
   60267186.3660830     
   60264603.6526008     
   60262307.3267660     
   60260385.0931685     
   60258999.8263690     
   60258471.9558590     
   59446516.5204263     
   59446582.3334585     
   59446765.7623807     
   59447046.9351616     
   59447407.7129879     
   59447831.5875897     
   59448303.5360242     
   59448809.8499950     
   59449337.9770145     
   59449876.3729035     
   59450414.3638122     
   59450942.0190443     
   59451450.0369265     
   59451929.6451148     
   59452372.5190342     
   59452770.7158704     
   59453116.6229135     
   59453402.9282232     
   59453622.6069813     
   59453768.9220576     
   59453835.4409686     
   59453816.0653881     
   59453705.0757937     
   59453497.1891856     
   59453187.6289470     
   59452772.2070733     
   59452247.4182825     
   59451610.5458024     
   59450859.7796834     
   59449994.3473467     
   59449014.6555939     
   59447922.4449045     
   59446720.9555760     
   59445415.1047431     
   59444011.6708189     
   59442519.4732796     
   59440949.5394461     
   59439315.3308723     
   59437632.8793658     
   59435921.1321249     
   59434202.3949125     
   59432501.9950162     
   59430848.5051178     
   59429272.6872721     
   59427806.3469788     
   59426485.0251743     
   59425346.4964163     
   59424431.9924674     
   59423781.8746276     
   59423413.6734735     
   59423303.0084592     
   58670370.9050799     
   58670407.7551896     
   58670509.3805658     
   58670663.1782466     
   58670857.4618927     
   58671081.4297938     
   58671325.1283453     
   58671579.4092613     
   58671835.8763059     
   58672086.8272226     
   58672325.1953135     
   58672544.4932248     
   58672738.7606354     
   58672902.5173703     
   58673030.7224215     
   58673118.7408019     
   58673162.3193696     
   58673157.5698192     
   58673100.9609490     
   58672989.3204322     
   58672819.8451105     
   58672590.1205405     
   58672298.1485713     
   58671942.3829907     
   58671521.7728558     
   58671035.8127470     
   58670484.5993424     
   58669868.8935290     
   58669190.1868338     
   58668450.7710345     
   58667653.8096178     
   58666803.4089026     
   58665904.6864587     
   58664963.8338886     
   58663988.1708442     
   58662986.1885220     
   58661967.5787602     
   58660943.2210211     
   58659925.1588698     
   58658926.4604260     
   58657960.9748521     
   58657043.1954216     
   58656187.8196923     
   58655409.5394524     
   58654722.6286037     
   58654139.2156814     
   58653668.3234610     
   58653313.3295861     
   58653070.6078883     
   58652932.4865288     
   58652890.3626680     
   57963760.9781188     
   57963769.1122878     
   57963789.3288563     
   57963815.6165362     
   57963842.3486874     
   57963864.3003291     
   57963876.6547881     
   57963875.0028948     
   57963855.3376938     
   57963814.0450708     
   57963747.8912288     
   57963654.0083597     
   57963529.8798275     
   57963373.3259523     
   57963182.4915215     
   57962955.8354952     
   57962692.1233731     
   57962390.4233124     
   57962050.1057584     
   57961670.8467482     
   57961252.6351802     
   57960795.7836564     
   57960300.9429061     
   57959769.1192732     
   57959201.6947156     
   57958600.4486931     
   57957967.5810707     
   57957305.7350002     
   57956618.0186119     
   57955908.0240401     
   57955179.8420271     
   57954438.0701899     
   57953687.8126191     
   57952934.6680934     
   57952184.7035992     
   57951444.4086683     
   57950720.6257337     
   57950020.4572926     
   57949351.1326519     
   57948719.8574464     
   57948133.6342147     
   57947598.9874606     
   57947121.7036569     
   57946706.4154398     
   57946356.1584047     
   57946072.2175906     
   57945853.7104465     
   57945697.7111699     
   57945599.1414811     
   57945549.7475360     
   57945537.2941776     
   57321203.1733116     
   57321185.1005757     
   57321130.5008392     
   57321038.8463010     
   57320909.6664734     
   57320742.5778941     
   57320537.3081261     
   57320293.7145531     
   57320011.7984785     
   57319691.7155872     
   57319333.7835557     
   57318938.4874264     
   57318506.4833186     
   57318038.6010326     
   57317535.8459813     
   57316999.4009598     
   57316430.6281279     
   57315831.0712836     
   57315202.4587418     
   57314546.7068787     
   57313865.9242295     
   57313162.4160977     
   57312438.6893659     
   57311697.4572123     
   57310941.6432893     
   57310174.3847955     
   57309399.0337813     
   57308619.1559145     
   57307838.5257951     
   57307061.1178186     
   57306291.0914808     
   57305532.7698813     
   57304790.6101190     
   57304069.1642215     
   57303373.0292978     
   57302706.7858985     
   57302074.9237194     
   57301481.7524505     
   57300931.3013029     
   57300427.1992267     
   57299972.5388205     
   57299569.7441328     
   57299220.4134255     
   57298925.1955569     
   57298683.6731811     
   57298494.1756025     
   57298353.6939907     
   57298257.6611524     
   57298199.8363619     
   57298172.4666322     
   57298166.3843798     
   56737134.9940050     
   56737094.1085686     
   56736974.0376520     
   56736778.5532181     
   56736511.2959000     
   56736175.8029382     
   56735775.5330951     
   56735313.8886554     
   56734794.2347201     
   56734219.9159351     
   56733594.2708965     
   56732920.6445132     
   56732202.3985888     
   56731442.9208582     
   56730645.6327026     
   56729813.9956987     
   56728951.5171288     
   56728061.7545995     
   56727148.3197717     
   56726214.8812035     
   56725265.1662711     
   56724302.9620287     
   56723332.1148603     
   56722356.5286852     
   56721380.1614399     
   56720407.0195102     
   56719441.1497316     
   56718486.6285420     
   56717547.5478383     
   56716627.9970690     
   56715732.0410864     
   56714863.6933125     
   56714026.8838107     
   56713225.4219316     
   56712462.9532985     
   56711742.9109768     
   56711068.4608624     
   56710442.4420080     
   56709867.3012862     
   56709345.0257490     
   56708877.0735553     
   56708464.2999171     
   56708106.8894767     
   56707804.2806122     
   56707555.0919778     
   56707357.0765260     
   56707207.0552552     
   56707100.9056376     
   56707033.5357602     
   56706998.7984147     
   56706989.4537468     
   56206122.9472180     
   56206062.8929458     
   56205887.5355098     
   56205603.8974678     
   56205218.7594324     
   56204738.6835332     
   56204170.0351034     
   56203519.0026188     
   56202791.6159072     
   56201993.7626806     
   56201131.2034381     
   56200209.5847916     
   56199234.4512750     
   56198211.2557034     
   56197145.3681359     
   56196042.0834962     
   56194906.6278870     
   56193744.1636008     
   56192559.7928369     
   56191358.5600954     
   56190145.4531958     
   56188925.4028563     
   56187703.2807367     
   56186483.8958333     
   56185271.9890975     
   56184072.2261321     
   56182889.1878144     
   56181727.3586926     
   56180591.1130044     
   56179484.6981876     
   56178412.2157723     
   56177377.5995827     
   56176384.5912223     
   56175436.7128782     
   56174537.2375546     
   56173689.1569508     
   56172895.1472948     
   56172157.5334147     
   56171478.2519176     
   56170858.8133456     
   56170300.2640047     
   56169803.1496010     
   56169367.4784932     
   56168992.6901610     
   56168677.6275311     
   56168420.5071427     
   56168218.9025283     
   56168069.7195537     
   56167969.1850488     
   56167912.8645240     
   56167895.6770228     
   55722994.6182405     
   55722918.9639124     
   55722698.4169444     
   55722342.3691558     
   55721859.9075061     
   55721259.8326435     
   55720550.6765138     
   55719740.7189328     
   55718838.0030655     
   55717850.3497708     
   55716785.3707884     
   55715650.4807544     
   55714452.9080364     
   55713199.7043834     
   55711897.7533876     
   55710553.7777510     
   55709174.3453519     
   55707765.8741024     
   55706334.6355795     
   55704886.7574081     
   55703428.2243737     
   55701964.8782287     
   55700502.4161608     
   55699046.3878829     
   55697602.1913081     
   55696175.0667718     
   55694770.0897719     
   55693392.1622034     
   55692046.0020809     
   55690736.1317550     
   55689466.8646544     
   55688242.2906103     
   55687066.2598507     
   55685942.3657862     
   55684873.9267497     
   55683863.9668791     
   55682915.1963762     
   55682029.9914460     
   55681210.3741065     
   55680457.9924078     
   55679774.1014353     
   55679159.5450822     
   55678614.7398997     
   55678139.6600504     
   55677733.8243164     
   55677396.2875935     
   55677125.6330013     
   55676919.9715865     
   55676776.9441100     
   55676693.7199875     
   55676667.0027698     
   55282916.2713470     
   55282828.3813511     
   55282572.2429277     
   55282158.8969529     
   55281599.0458521     
   55280903.0685632     
   55280081.0348101     
   55279142.7186457     
   55278097.6112207     
   55276954.9327408     
   55275723.6435786     
   55274412.4545127     
   55273029.8360702     
   55271584.0269541     
   55270083.0415371     
   55268534.6764100     
   55266946.5159689     
   55265325.9370320     
   55263680.1124737     
   55262016.0138691     
   55260340.4131383     
   55258659.8831868     
   55256980.7975376     
   55255309.3289549     
   55253651.4470646     
   55252012.9149828     
   55250399.2849692     
   55248815.8931340     
   55247267.8532352     
   55245760.0496183     
   55244297.1293604     
   55242883.4937008     
   55241523.2888510     
   55240220.3962984     
   55238978.4227329     
   55237800.6897439     
   55236690.2234532     
   55235649.7442534     
   55234681.6568830     
   55233788.0409882     
   55232970.6423826     
   55232230.8653433     
   55231569.7658978     
   55230988.0467203     
   55230486.0537359     
   55230063.7740398     
   55229720.8365622     
   55229456.5136623     
   55229269.7253533     
   55229159.0480343     
   55229122.7253813     
   54881432.4593130     
   54881335.4405427     
   54881052.6306397     
   54880596.1334624     
   54879977.7015832     
   54879208.7485947     
   54878300.3608551     
   54877263.3086450     
   54876108.0567163     
   54874844.7742118     
   54873483.3439367     
   54872033.3709662     
   54870504.1905739     
   54868904.8754666     
   54867244.2423168     
   54865530.8575822     
   54863773.0426060     
   54861978.8779939     
   54860156.2072655     
   54858312.6397814     
   54856455.5529490     
   54854592.0937144     
   54852729.1793515     
   54850873.4975623     
   54849031.5059102     
   54847209.4306096     
   54845413.2647034     
   54843648.7656674     
   54841921.4524845     
   54840236.6022433     
   54838599.2463191     
   54837014.1662074     
   54835485.8890865     
   54834018.6831949     
   54832616.5531155     
   54831283.2350690     
   54830022.1923236     
   54828836.6108369     
   54827729.3952395     
   54826703.1652957     
   54825760.2529683     
   54824902.7001770     
   54824132.2574544     
   54823450.3835026     
   54822858.2457891     
   54822356.7224579     
   54821946.4052852     
   54821627.6043546     
   54821400.3541255     
   54821264.4203807     
   54821219.3086876     
   54514479.6392778     
   54514376.3159726     
   54514074.9819862     
   54513588.3279755     
   54512928.6963246     
   54512108.0913928     
   54511138.1892584     
   54510030.3469587     
   54508795.6112262     
   54507444.7267179     
   54505988.1437352     
   54504436.0254299     
   54502798.2544939     
   54501084.4393303     
   54499303.9197027     
   54497465.7718638     
   54495578.8131638     
   54493651.6061404     
   54491692.4620967     
   54489709.4441723     
   54487710.3699183     
   54485702.8133881     
   54483694.1067586     
   54481691.3415011     
   54479701.3691234     
   54477730.8015095     
   54475786.0108854     
   54473873.1294457     
   54471998.0486798     
   54470166.4184376     
   54468383.6457847     
   54466654.8936950     
   54464985.0796386     
   54463378.8741219     
   54461840.6992440     
   54460374.7273346     
   54458984.8797419     
   54457674.8258397     
   54456447.9823287     
   54455307.5129006     
   54454256.3283338     
   54453297.0871029     
   54452432.1965434     
   54451663.8146686     
   54450993.8526934     
   54450423.9782701     
   54449955.6195913     
   54449589.9702267     
   54449327.9948218     
   54449170.4358545     
   54449117.8213340     
   54178382.3385110     
   54178275.2350630     
   54177962.6871845     
   54177457.5872405     
   54176772.4948673     
   54175919.6453930     
   54174910.9578216     
   54173758.0423947     
   54172472.2077391     
   54171064.4676097     
   54169545.5472329     
   54167925.8892580     
   54166215.6593195     
   54164424.7512170     
   54162562.7917169     
   54160639.1449801     
   54158662.9166245     
   54156642.9574269     
   54154587.8666727     
   54152505.9951649     
   54150405.4479014     
   54148294.0864345     
   54146179.5309278     
   54144069.1619268     
   54141970.1218625     
   54139889.3163098     
   54137833.4150235     
   54135808.8527791     
   54133821.8300460     
   54131878.3135237     
   54129984.0365747     
   54128144.4995888     
   54126364.9703147     
   54124650.4841990     
   54123005.8447717     
   54121435.6241193     
   54119944.1634875     
   54118535.5740552     
   54117213.7379207     
   54115982.3093434     
   54114844.7162787     
   54113804.1622437     
   54112863.6285544     
   54112025.8769597     
   54111293.4527007     
   54110668.6880358     
   54110153.7062172     
   54109750.4259861     
   54109460.5665724     
   54109285.6531509     
   54109227.0227732     
   53869837.8873628     
   53869729.2159351     
   53869411.8808495     
   53868898.6687443     
   53868202.0586581     
   53867334.2286798     
   53866307.0622490     
   53865132.1541239     
   53863820.8160294     
   53862384.0819961     
   53860832.7134019     
   53859177.2037240     
   53857427.7830112     
   53855594.4220832     
   53853686.8364651     
   53851714.4900658     
   53849686.5986062     
   53847612.1328076     
   53845499.8213475     
   53843358.1535937     
   53841195.3821256     
   53839019.5250561     
   53836838.3681641     
   53834659.4668532     
   53832490.1479501     
   53830337.5113591     
   53828208.4315890     
   53826109.5591726     
   53824047.3219957     
   53822027.9265585     
   53820057.3591894     
   53818141.3872338     
   53816285.5602422     
   53814495.2111799     
   53812775.4576827     
   53811131.2033827     
   53809567.1393287     
   53808087.7455236     
   53806697.2926025     
   53805399.8436732     
   53804199.2563380     
   53803099.1849180     
   53802103.0828938     
   53801214.2055778     
   53800435.6130316     
   53799770.1732316     
   53799220.5654973     
   53798789.2841694     
   53798478.6425403     
   53798290.7770439     
   53798227.6516910     
   53585893.9680205     
   53585785.6226972     
   53585469.0192756     
   53584956.5987585     
   53584260.5264420     
   53583392.6968018     
   53582364.7381320     
   53581188.0169478     
   53579873.6421654     
   53578432.4690674     
   53576875.1030657     
   53575211.9032683     
   53573452.9858601     
   53571608.2273038     
   53569687.2673701     
   53567699.5120022     
   53565654.1360246     
   53563560.0857008     
   53561426.0811498     
   53559260.6186273     
   53557071.9726814     
   53554868.1981900     
   53552657.1322902     
   53550446.3962083     
   53548243.3970011     
   53546055.3292199     
   53543889.1765062     
   53541751.7131335     
   53539649.5055056     
   53537588.9136242     
   53535576.0925399     
   53533616.9937978     
   53531717.3668923     
   53529882.7607441     
   53528118.5252114     
   53526429.8126498     
   53524821.5795307     
   53523298.5881324     
   53521865.4083118     
   53520526.4193683     
   53519285.8120072     
   53518147.5904097     
   53517115.5744134     
   53516193.4018093     
   53515384.5307517     
   53514692.2422851     
   53514119.6429780     
   53513669.6676628     
   53513345.0822713     
   53513148.4867468     
   53513082.3180201     
   53323921.9986149     
   53323815.5580651     
   53323504.2996818     
   53323000.1380261     
   53322314.7479523     
   53321459.5677667     
   53320445.8022422     
   53319284.4254941     
   53317986.1837276     
   53316561.5978597     
   53315020.9660267     
   53313374.3659793     
   53311631.6573738     
   53309802.4839631     
   53307896.2756939     
   53305922.2507150     
   53303889.4173013     
   53301806.5756990     
   53299682.3198974     
   53297525.0393317     
   53295342.9205231     
   53293143.9486609     
   53290935.9091329     
   53288726.3890090     
   53286522.7784854     
   53284332.2722943     
   53282161.8710859     
   53280018.3827899     
   53277908.4239615     
   53275838.4211197     
   53273814.6120843     
   53271843.0473172     
   53269929.5912750     
   53268079.9237789     
   53266299.5414065     
   53264593.7589120     
   53262967.7106776     
   53261426.3522014     
   53259974.4616233     
   53258616.6412921     
   53257357.3193727     
   53256200.7514956     
   53255151.0224433     
   53254212.0478735     
   53253387.5760717     
   53252681.1897270     
   53252096.3077230     
   53251636.1869309     
   53251303.9239933     
   53251102.4570835     
   53251034.5676222     
   53081588.5083925     
   53081485.2475949     
   53081183.0720255     
   53080693.2403959     
   53080026.8094529     
   53079194.6355051     
   53078207.3758998     
   53077075.4904520     
   53075809.2428279     
   53074418.7018863     
   53072913.7429806     
   53071304.0492227     
   53069599.1127136     
   53067808.2357404     
   53065940.5319448     
   53064004.9274624     
   53062010.1620386     
   53059964.7901203     
   53057877.1819281     
   53055755.5245093     
   53053607.8227770     
   53051441.9005336     
   53049265.4014856     
   53047085.7902494     
   53044910.3533507     
   53042746.2002217     
   53040600.2641967     
   53038479.3035095     
   53036389.9022951     
   53034338.4715968     
   53032331.2503812     
   53030374.3065637     
   53028473.5380439     
   53026634.6737540     
   53024863.2747193     
   53023164.7351314     
   53021544.2834335     
   53020006.9834168     
   53018557.7353252     
   53017201.2769660     
   53015942.1848230     
   53014784.8751664     
   53013733.6051541     
   53012792.4739164     
   53011965.4236171     
   53011256.2404789     
   53010668.5557630     
   53010205.8466904     
   53009871.4372889     
   53009668.4991503     
   53009600.0520789     
   52856826.0377418     
   52856726.9478789     
   52856436.7718482     
   52855966.0270949     
   52855325.0666150     
   52854524.0790035     
   52853573.0885336     
   52852481.9552638     
   52851260.3751722     
   52849917.8803170     
   52848463.8390225     
   52846907.4560886     
   52845257.7730240     
   52843523.6683024     
   52841713.8576414     
   52839836.8943023     
   52837901.1694129     
   52835914.9123103     
   52833886.1909054     
   52831822.9120678     
   52829732.8220315     
   52827623.5068202     
   52825502.3926936     
   52823376.7466123     
   52821253.6767229     
   52819140.1328615     
   52817042.9070764     
   52814968.6341673     
   52812923.7922430     
   52810914.7032934     
   52808947.5337779     
   52807028.2952251     
   52805162.8448453     
   52803356.8861506     
   52801615.9695820     
   52799945.4931392     
   52798350.7030099     
   52796836.6941933     
   52795408.4111147     
   52794070.6482229     
   52792828.0505661     
   52791685.1143382     
   52790646.1873860     
   52789715.4696711     
   52788897.0136718     
   52788194.7247186     
   52787612.3612471     
   52787153.5349559     
   52786821.7108552     
   52786620.2071888     
   52786552.1952130     
   52647804.6377966     
   52647710.4525043     
   52647434.4454274     
   52646986.3441438     
   52646375.7475436     
   52645612.1245971     
   52644704.8132168     
   52643663.0192085     
   52642495.8153075     
   52641212.1402939     
   52639820.7981859     
   52638330.4575038     
   52636749.6506052     
   52635086.7730855     
   52633350.0832416     
   52631547.7015962     
   52629687.6104801     
   52627777.6536693     
   52625825.5360751     
   52623838.8234837     
   52621824.9423447     
   52619791.1796042     
   52617744.6825812     
   52615692.4588845     
   52613641.3763676     
   52611598.1631192     
   52609569.4074860     
   52607561.5581261     
   52605580.9240884     
   52603633.6749159     
   52601725.8407699     
   52599863.3125689     
   52598051.8421417     
   52596297.0423869     
   52594604.3874366     
   52592979.2128175     
   52591426.7156045     
   52589951.9545602     
   52588559.8502539     
   52587255.1851531     
   52586042.6036783     
   52584926.6122141     
   52583911.5790661     
   52583001.7343540     
   52582201.1698299     
   52581513.8386105     
   52580943.5548097     
   52580493.9930588     
   52580168.6879002     
   52579971.0330380     
   52579904.2804304     
   52452904.6990644     
   52452815.9248513     
   52452555.5953050     
   52452132.6295105     
   52451555.8507787     
   52450833.9843573     
   52449975.6552834     
   52448989.3863689     
   52447883.5963129     
   52446666.5979336     
   52445346.5965155     
   52443931.6882641     
   52442429.8588649     
   52440848.9821398     
   52439196.8187978     
   52437481.0152740     
   52435709.1026530     
   52433888.4956734     
   52432026.4918068     
   52430130.2704104     
   52428206.8919458     
   52426263.2972630     
   52424306.3069438     
   52422342.6207004     
   52420378.8168271     
   52418421.3516982     
   52416476.5593106     
   52414550.6508645     
   52412649.7143791     
   52410779.7143378     
   52408946.4913590     
   52407155.7618859     
   52405413.1178910     
   52403724.0265902     
   52402093.8301584     
   52400527.7454422     
   52399030.8636626     
   52397608.1500994     
   52396264.4437517     
   52395004.4569644     
   52393832.7750136     
   52392753.8556418     
   52391772.0285316     
   52390891.4947106     
   52390116.3258734     
   52389450.4636126     
   52388897.7185430     
   52388461.7693100     
   52388146.1614656     
   52387954.3061999     
   52387889.4789116     
   52270691.5765298     
   52270608.5252169     
   52270364.8138168     
   52269968.5579135     
   52269427.8066832     
   52268750.5397801     
   52267944.6643946     
   52267018.0124735     
   52265978.3380945     
   52264833.3149882     
   52263590.5341986     
   52262257.5018778     
   52260841.6372060     
   52259350.2704322     
   52257790.6410284     
   52256169.8959528     
   52254495.0880154     
   52252773.1743410     
   52251011.0149241     
   52249215.3712711     
   52247392.9051238     
   52245550.1772598     
   52243693.6463642     
   52241829.6679687     
   52239964.4934511     
   52238104.2690918     
   52236255.0351814     
   52234422.7251741     
   52232613.1648816     
   52230832.0717020     
   52229085.0538774     
   52227377.6097758     
   52225715.1271889     
   52224102.8826420     
   52222546.0407073     
   52221049.6533147     
   52219618.6590530     
   52218257.8824536     
   52216972.0332494     
   52215765.7055996     
   52214643.3772733     
   52213609.4087817     
   52212668.0424503     
   52211823.4014199     
   52211079.4885687     
   52210440.1853409     
   52209909.2504746     
   52209490.3186136     
   52209186.8987931     
   52209002.3727855     
   52208939.9932931     
   52099892.2801546     
   52099815.1014702     
   52099588.4746579     
   52099219.7346703     
   52098716.1755050     
   52098085.0464917     
   52097333.5487645     
   52096468.8319145     
   52095497.9908111     
   52094428.0625867     
   52093266.0237738     
   52092018.7875903     
   52090693.2013638     
   52089296.0440894     
   52087834.0241134     
   52086313.7769366     
   52084741.8631324     
   52083124.7663718     
   52081468.8915507     
   52079780.5630128     
   52078066.0228633     
   52076331.4293669     
   52074582.8554250     
   52072826.2871262     
   52071067.6223646     
   52069312.6695203     
   52067567.1461960     
   52065836.6780050     
   52064126.7974031     
   52062442.9425596     
   52060790.4562615     
   52059174.5848436     
   52057600.4771391     
   52056073.1834430     
   52054597.6544837     
   52053178.7403923     
   52051821.1896667     
   52050529.6481186     
   52049308.6577996     
   52048162.6558953     
   52047095.9735813     
   52046112.8348311     
   52045217.3551676     
   52044413.5403491     
   52043705.2849791     
   52043096.3710316     
   52042590.4662801     
   52042191.1226206     
   52041901.7742764     
   52041725.7358748     
   52041666.2003822     
   51939374.3509245     
   51939303.0637866     
   51939093.6041830     
   51938752.5621489     
   51938286.5082079     
   51937701.9892628     
   51937005.5246795     
   51936203.6025545     
   51935302.6761577     
   51934309.1605423     
   51933229.4293151     
   51932069.8115583     
   51930836.5888970     
   51929535.9927043     
   51928174.2014390     
   51926757.3381069     
   51925291.4678421     
   51923782.5955998     
   51922236.6639560     
   51920659.5510071     
   51919057.0683644     
   51917434.9592369     
   51915798.8965964     
   51914154.4814205     
   51912507.2410057     
   51910862.6273466     
   51909226.0155739     
   51907602.7024463     
   51905997.9048899     
   51904416.7585787     
   51902864.3165518     
   51901345.5478575     
   51899865.3362230     
   51898428.4787379     
   51897039.6845486     
   51895703.5735554     
   51894424.6751052     
   51893207.4266729     
   51892056.1725242     
   51890975.1623518     
   51889968.5498784     
   51889040.3914160     
   51888194.6443762     
   51887435.1657210     
   51886765.7103458     
   51886189.9293862     
   51885711.3684379     
   51885333.4656822     
   51885059.5499047     
   51884892.8383998     
   51884836.4347485     
   51788126.9334126     
   51788061.4548437     
   51787868.9450345     
   51787555.2933776     
   51787126.3872876     
   51786588.1078781     
   51785946.3258286     
   51785206.8974315     
   51784375.6608114     
   51783458.4323110     
   51782461.0030336     
   51781389.1355380     
   51780248.5606761     
   51779044.9745693     
   51777784.0357156     
   51776471.3622210     
   51775112.5291500     
   51773713.0659889     
   51772278.4542144     
   51770814.1249648     
   51769325.4568038     
   51767817.7735753     
   51766296.3423408     
   51764766.3713940     
   51763233.0083478     
   51761701.3382880     
   51760176.3819861     
   51758663.0941683     
   51757166.3618325     
   51755691.0026088     
   51754241.7631564     
   51752823.3175928     
   51751440.2659465     
   51750097.1326298     
   51748798.3649228     
   51747548.3314648     
   51746351.3207436     
   51745211.5395784     
   51744133.1115887     
   51743120.0756413     
   51742176.3842691     
   51741305.9020551     
   51740512.4039717     
   51739799.5736703     
   51739171.0017114     
   51738630.1837282     
   51738180.5185147     
   51737825.3060303     
   51737567.7453127     
   51737410.9322889     
   51737357.8574764     
   51645243.9781856     
   51645184.1491941     
   51645008.1469384     
   51644721.2094601     
   51644328.5866893     
   51643835.5360629     
   51643247.3183192     
   51642569.1934657     
   51641806.4169107     
   51640964.2357520     
   51640047.8852181     
   51639062.5852527     
   51638013.5372384     
   51636905.9208527     
   51635744.8910501     
   51634535.5751645     
   51633283.0701270     
   51631992.4397921     
   51630668.7123671     
   51629316.8779404     
   51627941.8861009     
   51626548.6436452     
   51625142.0123662     
   51623726.8069171     
   51622307.7927468     
   51620889.6841006     
   51619477.1420801     
   51618074.7727580     
   51616687.1253418     
   51615318.6903805     
   51613973.8980097     
   51612657.1162283     
   51611372.6492022     
   51610124.7355882     
   51608917.5468730     
   51607755.1857206     
   51606641.6843236     
   51605581.0027498     
   51604577.0272799     
   51603633.5687292     
   51602754.3607465     
   51601943.0580843     
   51601203.2348326     
   51600538.3826103     
   51599951.9087070     
   51599447.1341674     
   51599027.2918121     
   51598695.5241863     
   51598454.8814299     
   51598308.3190605     
   51598258.6956623     
   51509909.4547622     
   51509855.0628458     
   51509694.9666490     
   51509433.8043283     
   51509076.2364641     
   51508626.9417411     
   51508090.6127933     
   51507471.9522071     
   51506775.6686762     
   51506006.4733033     
   51505169.0760423     
   51504268.1822746     
   51503308.4895156     
   51502294.6842448     
   51501231.4388541     
   51500123.4087095     
   51498975.2293212     
   51497791.5136159     
   51496576.8493073     
   51495335.7963596     
   51494072.8845375     
   51492792.6110409     
   51491499.4382151     
   51490197.7913354     
   51488892.0564588     
   51487586.5783386     
   51486285.6583967     
   51484993.5527492     
   51483714.4702792     
   51482452.5707524     
   51481211.9629708     
   51479996.7029580     
   51478810.7921723     
   51477658.1757417     
   51476542.7407151     
   51475468.3143253     
   51474438.6622568     
   51473457.4869148     
   51472528.4256881     
   51471655.0492006     
   51470840.8595466     
   51470089.2885024     
   51469403.6957098     
   51468787.3668233     
   51468243.5116181     
   51467775.2620490     
   51467385.6702565     
   51467077.7065126     
   51466854.2570996     
   51466718.1221156     
   51466672.0132006     
   51381384.4227676     
   51381335.2209569     
   51381190.3257062     
   51380953.8267277     
   51380629.8437424     
   51380222.5223196     
   51379736.0298654     
   51379174.5517530     
   51378542.2875908     
   51377843.4476226     
   51377082.2492562     
   51376262.9137143     
   51375389.6628028     
   51374466.7157938     
   51373498.2864161     
   51372488.5799506     
   51371441.7904240     
   51370362.0978989     
   51369253.6658534     
   51368120.6386468     
   51366967.1390667     
   51365797.2659538     
   51364615.0918984     
   51363424.6610055     
   51362229.9867236     
   51361035.0497324     
   51359843.7958854     
   51358660.1342031     
   51357487.9349111     
   51356331.0275197     
   51355193.1989403     
   51354078.1916333     
   51352989.7017833     
   51351931.3774971     
   51350906.8170183     
   51349919.5669566     
   51348973.1205236     
   51348070.9157720     
   51347216.3338334     
   51346412.6971483     
   51345663.2676848     
   51344971.2451389     
   51344339.7651133     
   51343771.8972677     
   51343270.6434360     
   51342838.9357044     
   51342479.6344458     
   51342195.5263038     
   51341989.3221217     
   51341863.6548097     
   51341821.0771458     
   51258995.7908991     
   51258951.5134447     
   51258821.0563715     
   51258608.0107238     
   51258316.0025878     
   51257948.6891628     
   51257509.7549630     
   51257002.9081437     
   51256431.8769511     
   51255800.4062877     
   51255112.2543928     
   51254371.1896318     
   51253580.9873917     
   51252745.4270772     
   51251868.2892057     
   51250953.3525949     
   51250004.3916411     
   51249025.1736832     
   51248019.4564485     
   51246990.9855770     
   51245943.4922198     
   51244880.6907082     
   51243806.2762890     
   51242723.9229226     
   51241637.2811397     
   51240549.9759529     
   51239465.6048192     
   51238387.7356491     
   51237319.9048588     
   51236265.6154612     
   51235228.3351914     
   51234211.4946631     
   51233218.4855519     
   51232252.6588002     
   51231317.3228410     
   51230415.7418348     
   51229551.1339173     
   51228726.6694510     
   51227945.4692789     
   51227210.6029738     
   51226525.0870800     
   51225891.8833421     
   51225313.8969173     
   51224793.9745647     
   51224334.9028097     
   51223939.4060757     
   51223610.1447814     
   51223349.7133953     
   51223160.6384466     
   51223045.3764846     
   51223006.3119823     
   51142126.5865524     
   51142086.9614963     
   51141970.1591214     
   51141779.3187557     
   51141517.6176452     
   51141188.2673052     
   51140794.5099835     
   51140339.6152338     
   51139826.8765939     
   51139259.6083671     
   51138641.1425017     
   51137974.8255680     
   51137264.0158269     
   51136512.0803888     
   51135722.3924583     
   51134898.3286621     
   51134043.2664566     
   51133160.5816119     
   51132253.6457694     
   51131325.8240685     
   51130380.4728412     
   51129420.9373686     
   51128450.5496983     
   51127472.6265182     
   51126490.4670831     
   51125507.3511922     
   51124526.5372117     
   51123551.2601415     
   51122584.7297212     
   51121630.1285710     
   51120690.6103673     
   51119769.2980452     
   51118869.2820268     
   51117993.6184724     
   51117145.3275484     
   51116327.3917099     
   51115542.7539939     
   51114794.3163200     
   51114084.9377930     
   51113417.4330053     
   51112794.5703348     
   51112219.0702333     
   51111693.6035034     
   51111220.7895576     
   51110803.1946575     
   51110443.3301284     
   51110143.6505442     
   51109906.5518801     
   51109734.3696280     
   51109629.3768700     
   51109593.7823074     
   51030207.5603884     
   51030172.3193383     
   51030068.3962993     
   51029898.5222507     
   51029665.4671777     
   51029372.0367333     
   51029021.0689963     
   51028615.4313212     
   51028158.0172799     
   51027651.7436897     
   51027099.5477279     
   51026504.3841283     
   51025869.2224582     
   51025197.0444733     
   51024490.8415473     
   51023753.6121734     
   51022988.3595368     
   51022198.0891526     
   51021385.8065693     
   51020554.5151331     
   51019707.2138113     
   51018846.8950718     
   51017976.5428157     
   51017099.1303607     
   51016217.6184713     
   51015334.9534343     
   51014454.0651764     
   51013577.8654196     
   51012709.2458731     
   51011851.0764589     
   51011006.2035652     
   51010177.4483287     
   51009367.6049396     
   51008579.4389672     
   51007815.6857030     
   51007079.0485183     
   51006372.1972327     
   51005697.7664905     
   51005058.3541410     
   51004456.5196209     
   51003894.7823341     
   51003375.6200257     
   51002901.4671473     
   51002474.7132104     
   51002097.7011227     
   51001772.7255069     
   51001502.0309944     
   51001287.8104946     
   51001132.2034330     
   51001037.2939561     
   51001005.1090993     
   50922709.9572502     
   50922678.8427201     
   50922587.0535165     
   50922436.9516112     
   50922230.9376183     
   50921971.4477829     
   50921660.9510498     
   50921301.9462095     
   50920896.9591211     
   50920448.5400081     
   50919959.2608275     
   50919431.7127084     
   50918868.5034597     
   50918272.2551433     
   50917645.6017123     
   50916991.1867103     
   50916311.6610320     
   50915609.6807406     
   50914887.9049413     
   50914148.9937088     
   50913395.6060649     
   50912630.3980057     
   50911856.0205756     
   50911075.1179852     
   50910290.3257712     
   50909504.2689962     
   50908719.5604846     
   50907938.7990945     
   50907164.5680205     
   50906399.4331264     
   50905645.9413055     
   50904906.6188648     
   50904183.9699306     
   50903480.4748748     
   50902798.5887554     
   50902140.7397730     
   50901509.3277368     
   50900906.7225397     
   50900335.2626384     
   50899797.2535360     
   50899294.9662652     
   50898830.6358674     
   50898406.4598659     
   50898024.5967312     
   50897687.1643327     
   50897396.2383769     
   50897153.8508269     
   50896961.9883011     
   50896822.5904481     
   50896737.5482944     
   50896708.7025620     
   50819139.2957100     
   50819112.0664014     
   50819031.7111312     
   50818900.2579853     
   50818719.7721749     
   50818492.3533552     
   50818220.1330108     
   50817905.2719043     
   50817549.9575881     
   50817156.4019789     
   50816726.8389906     
   50816263.5222278     
   50815768.7227355     
   50815244.7268054     
   50814693.8338356     
   50814118.3542439     
   50813520.6074315     
   50812902.9197962     
   50812267.6227931     
   50811617.0510412     
   50810953.5404741     
   50810279.4265325     
   50809597.0423980     
   50808908.7172635     
   50808216.7746424     
   50807523.5307099     
   50806831.2926786     
   50806142.3572039     
   50805459.0088172     
   50804783.5183863     
   50804118.1415994     
   50803465.1174710     
   50802826.6668678     
   50802204.9910520     
   50801602.2702399     
   50801020.6621735     
   50800462.3007026     
   50799929.2943756     
   50799423.7250358     
   50798947.6464214     
   50798503.0827674     
   50798092.0274047     
   50797716.4413567     
   50797378.2519292     
   50797079.3512914     
   50796821.5950459     
   50796606.8007844     
   50796436.7466275     
   50796313.1697451     
   50796237.7648549     
   50796212.1826976     
   50719030.0115909     
   50719006.4459812     
   50718936.8811222     
   50718823.0421110     
   50718666.6887541     
   50718469.6132125     
   50718233.6376996     
   50717960.6122312     
   50717652.4124277     
   50717310.9373657     
   50716938.1074804     
   50716535.8625157     
   50716106.1595221     
   50715650.9709012     
   50715172.2824952     
   50714672.0917206     
   50714152.4057446     
   50713615.2397030     
   50713062.6149582     
   50712496.5573966     
   50711919.0957622     
   50711332.2600273     
   50710738.0797968     
   50710138.5827460     
   50709535.7930893     
   50708931.7300790     
   50708328.4065319     
   50707727.8273824     
   50707131.9882608     
   50706542.8740939     
   50705962.4577273     
   50705392.6985672     
   50704835.5412399     
   50704292.9142664     
   50703766.7287520     
   50703258.8770872     
   50702771.2316588     
   50702305.6435694     
   50701863.9413626     
   50701447.9297531     
   50701059.3883576     
   50700700.0704272     
   50700371.7015770     
   50700075.9785113     
   50699814.5677437     
   50699589.1043074     
   50699401.1904557     
   50699252.3943504     
   50699144.2487336     
   50699078.2495842     
   50699055.8547538     
   50621940.8349157     
   50621920.7334952     
   50621861.3787233     
   50621764.2195057     
   50621630.7363585     
   50621462.4393672     
   50621260.8661889     
   50621027.5800962     
   50620764.1680626     
   50620472.2388889     
   50620153.4213696     
   50619809.3624988     
   50619441.7257159     
   50619052.1891882     
   50618642.4441311     
   50618214.1931657     
   50617769.1487102     
   50617309.0314073     
   50616835.5685841     
   50616350.4927454     
   50615855.5400970     
   50615352.4491009     
   50614842.9590585     
   50614328.8087219     
   50613811.7349320     
   50613293.4712819     
   50612775.7468042     
   50612260.2846818     
   50611748.8009786     
   50611243.0033919     
   50610744.5900221     
   50610255.2481598     
   50609776.6530888     
   50609310.4669028     
   50608858.3373349     
   50608421.8965978     
   50608002.7602339     
   50607602.5259724     
   50607222.7725929     
   50606865.0587936     
   50606530.9220623     
   50606221.8775478     
   50605939.4169311     
   50605685.0072946     
   50605460.0899862     
   50605266.0794779     
   50605104.3622167     
   50604976.2954655     
   50604883.2061330     
   50604826.3895899     
   50604807.1084697     
   50527450.7840188     
   50527433.9704876     
   50527384.3124291     
   50527303.0054717     
   50527191.2732452     
   50527050.3656399     
   50526881.5571002     
   50526686.1449508     
   50526465.4477553     
   50526220.8037085     
   50525953.5690603     
   50525665.1165716     
   50525356.8340021     
   50525030.1226277     
   50524686.3957902     
   50524327.0774748     
   50523953.6009178     
   50523567.4072427     
   50523169.9441233     
   50522762.6644741     
   50522347.0251666     
   50521924.4857714     
   50521496.5073236     
   50521064.5511121     
   50520630.0774918     
   50520194.5447163     
   50519759.4077919     
   50519326.1173500     
   50518896.1185392     
   50518470.8499326     
   50518051.7424533     
   50517640.2183128     
   50517237.6899646     
   50516845.5590688     
   50516465.2154694     
   50516098.0361801     
   50515745.3843794     
   50515408.6084132     
   50515089.0408029     
   50514787.9972582     
   50514506.7756930     
   50514246.6552434     
   50514008.8952859     
   50513794.7344543     
   50513605.3896546     
   50513442.0550750     
   50513305.9011918     
   50513198.0737666     
   50513119.6928364     
   50513071.8516928     
   50513055.6158497     
   50435155.6744027     
   50435141.9960997     
   50435101.5898157     
   50435035.4171967     
   50434944.4639105     
   50434829.7381899     
   50434692.2694017     
   50434533.1066413     
   50434353.3173539     
   50434153.9859808     
   50433936.2126311     
   50433701.1117799     
   50433449.8109898     
   50433183.4496591     
   50432903.1777927     
   50432610.1547980     
   50432305.5483046     
   50431990.5330058     
   50431666.2895240     
   50431334.0032977     
   50430994.8634894     
   50430650.0619151     
   50430300.7919931     
   50429948.2477133     
   50429593.6226240     
   50429238.1088372     
   50428882.8960515     
   50428529.1705904     
   50428178.1144571     
   50427830.9044028     
   50427488.7110099     
   50427152.6977873     
   50426824.0202777     
   50426503.8251756     
   50426193.2494555     
   50425893.4195094     
   50425605.4502909     
   50425330.4444671     
   50425069.4915762     
   50424823.6671892     
   50424594.0320753     
   50424381.6313702     
   50424187.4937443     
   50424012.6305728     
   50423858.0351029     
   50423724.6816200     
   50423613.5246094     
   50423525.4979139     
   50423461.5138850     
   50423422.4625271     
   50423409.2106328     
   50344665.0529026     
   50344654.3807039     
   50344622.8495927     
   50344571.2031970     
   50344500.2049233     
   50344410.6367652     
   50344303.2981339     
   50344179.0047069     
   50344038.5872972     
   50343882.8907434     
   50343712.7728186     
   50343529.1031599     
   50343332.7622174     
   50343124.6402228     
   50342905.6361776     
   50342676.6568607     
   50342438.6158539     
   50342192.4325873     
   50341939.0314017     
   50341679.3406296     
   50341414.2916938     
   50341144.8182218     
   50340871.8551782     
   50340596.3380116     
   50340319.2018184     
   50340041.3805203     
   50339763.8060567     
   50339487.4075905     
   50339213.1107273     
   50338941.8367467     
   50338674.5018450     
   50338412.0163898     
   50338155.2841836     
   50337905.2017381     
   50337662.6575567     
   50337428.5314246     
   50337203.6937066     
   50336989.0046512     
   50336785.3136995     
   50336593.4588000     
   50336414.2657257     
   50336248.5473946     
   50336097.1031929     
   50335960.7182980     
   50335840.1630026     
   50335736.1920369     
   50335649.5438905     
   50335580.9401296     
   50335531.0847121     
   50335500.6632971     
   50335490.3425487     
   50255599.4795756     
   50255591.7074602     
   50255568.7421617     
   50255531.1222111     
   50255479.4014875     
   50255414.1482780     
   50255335.9443529     
   50255245.3840554     
   50255143.0734075     
   50255029.6292304     
   50254905.6782804     
   50254771.8564015     
   50254628.8076914     
   50254477.1836842     
   50254317.6425483     
   50254150.8482988     
   50253977.4700251     
   50253798.1811335     
   50253613.6586040     
   50253424.5822615     
   50253231.6340610     
   50253035.4973863     
   50252836.8563630     
   50252636.3951826     
   50252434.7974413     
   50252232.7454895     
   50252030.9197942     
   50251829.9983117     
   50251630.6558724     
   50251433.5635744     
   50251239.3881890     
   50251048.7915736     
   50250862.4300950     
   50250680.9540597     
   50250505.0071531     
   50250335.2258847     
   50250172.2390408     
   50250016.6671421     
   50249869.1219077     
   50249730.2057226     
   50249600.5111099     
   50249480.6202058     
   50249371.1042378     
   50249272.5230038     
   50249185.4243537     
   50249110.3436703     
   50249047.8033508     
   50248998.3122864     
   50248962.3653415     
   50248940.4428289     
   50248933.0099827     
   50167588.0902878     
   50167583.1347382     
   50167568.4915250     
   50167544.5042274     
   50167511.5272103     
   50167469.9249210     
   50167420.0711963     
   50167362.3485808     
   50167297.1476573     
   50167224.8663883     
   50167145.9094697     
   50167060.6876957     
   50166969.6173357     
   50166873.1195236     
   50166771.6196577     
   50166665.5468137     
   50166555.3331677     
   50166441.4134326     
   50166324.2243040     
   50166204.2039193     
   50166081.7913261     
   50165957.4259624     
   50165831.5471475     
   50165704.5935832     
   50165577.0028649     
   50165449.2110032     
   50165321.6519545     
   50165194.7571615     
   50165068.9551020     
   50164944.6708473     
   50164822.3256282     
   50164702.3364089     
   50164585.1154693     
   50164471.0699936     
   50164360.6016662     
   50164254.1062737     
   50164151.9733133     
   50164054.5856059     
   50163962.3189153     
   50163875.5415710     
   50163794.6140964     
   50163719.8888392     
   50163651.7096062     
   50163590.4113003     
   50163536.3195597     
   50163489.7503992     
   50163451.0098522     
   50163420.3936135     
   50163398.1866828     
   50163384.6630071     
   50163380.0851225     
   50080266.3821543     
   50080264.1815247     
   50080257.6805756     
   50080247.0355393     
   50080232.4087748     
   50080213.9682878     
   50080191.8872598     
   50080166.3435851     
   50080137.5194162     
   50080105.6007179     
   50080070.7768300     
   50080033.2400394     
   50079993.1851597     
   50079950.8091209     
   50079906.3105677     
   50079859.8894661     
   50079811.7467192     
   50079762.0837922     
   50079711.1023457     
   50079659.0038775     
   50079605.9893733     
   50079552.2589657     
   50079498.0116020     
   50079443.4447195     
   50079388.7539291     
   50079334.1327071     
   50079279.7720945     
   50079225.8604034     
   50079172.5829322     
   50079120.1216857     
   50079068.6551043     
   50079018.3577987     
   50078969.4002912     
   50078921.9487637     
   50078876.1648109     
   50078832.2052005     
   50078790.2216372     
   50078750.3605337     
   50078712.7627849     
   50078677.5635483     
   50078644.8920276     
   50078614.8712613     
   50078587.6179144     
   50078563.2420737     
   50078541.8470470     
   50078523.5291642     
   50078508.3775815     
   50078496.4740881     
   50078487.8929144     
   50078482.7005422     
   50078480.9555157     
   49993274.1717673     
   49993274.6857294     
   49993276.2096028     
   49993278.7175324     
   49993282.1850507     
   49993286.5888145     
   49993291.9063473     
   49993298.1157875     
   49993305.1956430     
   49993313.1245510     
   49993321.8810452     
   49993331.4433284     
   49993341.7890514     
   49993352.8950993     
   49993364.7373827     
   49993377.2906365     
   49993390.5282248     
   49993404.4219517     
   49993418.9418796     
   49993434.0561529     
   49993449.7308287     
   49993465.9297131     
   49993482.6142050     
   49993499.7431446     
   49993517.2726697     
   49993535.1560764     
   49993553.3436873     
   49993571.7827245     
   49993590.4171896     
   49993609.1877480     
   49993628.0316205     
   49993646.8824793     
   49993665.6703496     
   49993684.3215174     
   49993702.7584414     
   49993720.8996711     
   49993738.6597693     
   49993755.9492396     
   49993772.6744590     
   49993788.7376151     
   49993804.0366477     
   49993818.4651950     
   49993831.9125442     
   49993844.2635867     
   49993855.3987766     
   49993865.1940938     
   49993873.5210114     
   49993880.2464657     
   49993885.2328313     
   49993888.3378988     
   49993889.4148561     
   49906253.6825397     
   49906256.8916903     
   49906266.3842482     
   49906281.9553267     
   49906303.3966154     
   49906330.4963284     
   49906363.0391558     
   49906400.8062196     
   49906443.5750331     
   49906491.1194642     
   49906543.2097031     
   49906599.6122340     
   49906660.0898107     
   49906724.4014365     
   49906792.3023490     
   49906863.5440076     
   49906937.8740869     
   49907015.0364736     
   49907094.7712675     
   49907176.8147877     
   49907260.8995821     
   49907346.7544424     
   49907434.1044221     
   49907522.6708605     
   49907612.1714096     
   49907702.3200668     
   49907792.8272106     
   49907883.3996420     
   49907973.7406295     
   49908063.5499593     
   49908152.5239892     
   49908240.3557073     
   49908326.7347960     
   49908411.3476991     
   49908493.8776946     
   49908574.0049718     
   49908651.4067126     
   49908725.7571785     
   49908796.7278007     
   49908863.9872768     
   49908927.2016709     
   49908986.0345192     
   49909040.1469403     
   49909089.1977507     
   49909132.8435848     
   49909170.7390209     
   49909202.5367117     
   49909227.8875200     
   49909246.4406605     
   49909257.8438464     
   49909261.7434417     
   49818847.7225110     
   49818853.6282046     
   49818871.0941746     
   49818899.7374422     
   49818939.1667199     
   49818988.9825699     
   49819048.7775649     
   49819118.1364503     
   49819196.6363090     
   49819283.8467279     
   49819379.3299667     
   49819482.6411283     
   49819593.3283323     
   49819710.9328896     
   49819834.9894795     
   49819965.0263292     
   49820100.5653955     
   49820241.1225483     
   49820386.2077572     
   49820535.3252796     
   49820687.9738520     
   49820843.6468829     
   49821001.8326495     
   49821162.0144954     
   49821323.6710326     
   49821486.2763449     
   49821649.3001953     
   49821812.2082355     
   49821974.4622192     
   49822135.5202177     
   49822294.8368399     
   49822451.8634545     
   49822606.0484173     
   49822756.8373005     
   49822903.6731272     
   49823045.9966092     
   49823183.2463893     
   49823314.8592880     
   49823440.2705548     
   49823558.9141237     
   49823670.2228745     
   49823773.6288987     
   49823868.5637712     
   49823954.4588273     
   49824030.7454458     
   49824096.8553384     
   49824152.2208450     
   49824196.2752366     
   49824228.4530239     
   49824248.1902748     
   49824254.9249379     
   49730697.9176409     
   49730706.5420962     
   49730732.0474088     
   49730773.8713585     
   49730831.4384510     
   49730904.1602901     
   49730991.4359510     
   49731092.6523527     
   49731207.1846320     
   49731334.3965159     
   49731473.6406953     
   49731624.2591983     
   49731785.5837638     
   49731956.9362145     
   49732137.6288308     
   49732326.9647242     
   49732524.2382112     
   49732728.7351869     
   49732939.7334996     
   49733156.5033248     
   49733378.3075405     
   49733604.4021024     
   49733834.0364198     
   49734066.4537329     
   49734300.8914902     
   49734536.5817275     
   49734772.7514477     
   49735008.6230027     
   49735243.4144761     
   49735476.3400685     
   49735706.6104842     
   49735933.4333208     
   49736156.0134606     
   49736373.5534658     
   49736585.2539762     
   49736790.3141098     
   49736987.9318683     
   49737177.3045457     
   49737357.6291415     
   49737528.1027789     
   49737687.9231273     
   49737836.2888313     
   49737972.3999448     
   49738095.4583718     
   49738204.6683134     
   49738299.2367224     
   49738378.3737653     
   49738441.2932925     
   49738487.2133171     
   49738515.3565022     
   49738524.9506587     
   49641442.9679878     
   49641454.3546951     
   49641488.0276838     
   49641543.2422165     
   49641619.2352282     
   49641715.2259211     
   49641830.4163576     
   49641963.9920510     
   49642115.1225546     
   49642282.9620488     
   49642466.6499258     
   49642665.3113723     
   49642878.0579499     
   49643103.9881734     
   49643342.1880862     
   49643591.7318348     
   49643851.6822397     
   49644121.0913649     
   49644399.0010857     
   49644684.4436539     
   49644976.4422615     
   49645274.0116033     
   49645576.1584371     
   49645881.8821436     
   49646190.1752846     
   49646500.0241606     
   49646810.4093680     
   49647120.3063562     
   49647428.6859839     
   49647734.5150766     
   49648036.7569847     
   49648334.3721419     
   49648626.3186260     
   49648911.5527204     
   49649189.0294790     
   49649457.7032928     
   49649716.5284597     
   49649964.4597585     
   49650200.4530265     
   49650423.4657411     
   49650632.4576079     
   49650826.3911529     
   49651004.2323220     
   49651164.9510870     
   49651307.5220585     
   49651430.9251081     
   49651534.1459976     
   49651616.1770189     
   49651676.0176438     
   49651712.6751841     
   49651725.1654633     
   49550716.8952247     
   49550731.1096708     
   49550773.1431749     
   49550842.0629760     
   49550936.9128403     
   49551056.7138900     
   49551200.4654288     
   49551367.1457619     
   49551555.7130125     
   49551765.1059329     
   49551994.2447117     
   49552242.0317752     
   49552507.3525846     
   49552789.0764279     
   49553086.0572072     
   49553397.1342204     
   49553721.1329394     
   49554056.8657818     
   49554403.1328797     
   49554758.7228429     
   49555122.4135184     
   49555492.9727454     
   49555869.1591070     
   49556249.7226781     
   49556633.4057700     
   49557018.9436719     
   49557405.0653903     
   49557790.4943856     
   49558173.9493076     
   49558554.1447289     
   49558929.7918777     
   49559299.5993702     
   49559662.2739430     
   49560016.5211859     
   49560361.0462763     
   49560694.5547147     
   49561015.7530631     
   49561323.3496857     
   49561616.0554940     
   49561892.5846957     
   49562151.6555483     
   49562391.9911193     
   49562612.3200521     
   49562811.3773393     
   49562987.9051044     
   49563140.6533919     
   49563268.3809676     
   49563369.8561291     
   49563443.8575282     
   49563489.1750053     
   49563504.6104379     
   49458147.2496883     
   49458164.3803945     
   49458215.0347554     
   49458298.0840776     
   49458412.3709592     
   49458556.7103708     
   49458729.8907284     
   49458930.6749593     
   49459157.8015607     
   49459409.9856495     
   49459685.9200049     
   49459984.2761026     
   49460303.7051404     
   49460642.8390568     
   49461000.2915398     
   49461374.6590288     
   49461764.5217082     
   49462168.4444927     
   49462584.9780053     
   49463012.6595481     
   49463450.0140651     
   49463895.5550985     
   49464347.7857382     
   49464805.1995659     
   49465266.2815913     
   49465729.5091855     
   49466193.3530070     
   49466656.2779248     
   49467116.7439368     
   49467573.2070851     
   49468024.1203682     
   49468467.9346513     
   49468903.0995746     
   49469328.0644618     
   49469741.2792266     
   49470141.1952817     
   49470526.2664482     
   49470894.9498669     
   49471245.7069135     
   49471577.0041170     
   49471887.3140828     
   49472175.1164218     
   49472438.8986862     
   49472677.1573126     
   49472888.3985734     
   49473071.1395389     
   49473223.9090488     
   49473345.2486964     
   49473433.7138258     
   49473487.8745422     
   49473506.3167385     
   49363353.2435621     
   49363373.4034156     
   49363433.0103040     
   49363530.7290479     
   49363665.1904473     
   49363834.9926352     
   49364038.7024201     
   49364274.8566162     
   49364541.9633626     
   49364838.5034304     
   49365162.9315170     
   49365513.6775289     
   49365889.1478522     
   49366287.7266102     
   49366707.7769098     
   49367147.6420748     
   49367605.6468682     
   49368080.0987018     
   49368569.2888355     
   49369071.4935645     
   49369584.9753960     
   49370107.9842157     
   49370638.7584444     
   49371175.5261841     
   49371716.5063565     
   49372259.9098323     
   49372803.9405524     
   49373346.7966429     
   49373886.6715224     
   49374421.7550042     
   49374950.2343934     
   49375470.2955795     
   49375980.1241256     
   49376477.9063550     
   49376961.8304363     
   49377430.0874673     
   49377880.8725598     
   49378312.3859244     
   49378722.8339589     
   49379110.4303389     
   49379473.3971132     
   49379809.9658048     
   49380118.3785181     
   49380396.8890545     
   49380643.7640367     
   49380857.2840436     
   49381035.7447565     
   49381177.4581183     
   49381280.7535073     
   49381343.9789265     
   49381365.5022101     
   49265943.7737868     
   49265967.1016234     
   49266036.0685711     
   49266149.1194552     
   49266304.6597211     
   49266501.0570869     
   49266736.6431784     
   49267009.7151477     
   49267318.5372753     
   49267661.3425538     
   49268036.3342551     
   49268441.6874802     
   49268875.5506911     
   49269336.0472257     
   49269821.2767958     
   49270329.3169672     
   49270858.2246246     
   49271406.0374182     
   49271970.7751965     
   49272550.4414212     
   49273143.0245690     
   49273746.4995173     
   49274358.8289167     
   49274977.9645501     
   49275601.8486785     
   49276228.4153755     
   49276855.5918501     
   49277481.2997592     
   49278103.4565108     
   49278719.9765584     
   49279328.7726871     
   49279927.7572941     
   49280514.8436624     
   49281087.9472306     
   49281644.9868589     
   49282183.8860923     
   49282702.5744234     
   49283198.9885543     
   49283671.0736604     
   49284116.7846562     
   49284534.0874656     
   49284920.9602964     
   49285275.3949226     
   49285595.3979738     
   49285878.9922344     
   49286124.2179540     
   49286329.1341699     
   49286491.8200441     
   49286610.3762158     
   49286682.9261713     
   49286707.6176328     
   49165515.2938156     
   49165541.9561856     
   49165620.7716212     
   49165749.9481092     
   49165927.6489021     
   49166151.9944973     
   49166421.0645943     
   49166732.9000269     
   49167085.5046723     
   49167476.8473364     
   49167904.8636144     
   49168367.4577280     
   49168862.5043393     
   49169387.8503399     
   49169941.3166181     
   49170520.6998016     
   49171123.7739791     
   49171748.2923989     
   49172391.9891461     
   49173052.5807990     
   49173727.7680651     
   49174415.2373972     
   49175112.6625912     
   49175817.7063656     
   49176528.0219239     
   49177241.2545003     
   49177955.0428912     
   49178667.0209716     
   49179374.8191989     
   49180076.0661044     
   49180768.3897741     
   49181449.4193200     
   49182116.7863427     
   49182768.1263875     
   49183401.0803943     
   49184013.2961436     
   49184602.4296989     
   49185166.1468491     
   49185702.1245493     
   49186208.0523643     
   49186681.6339153     
   49187120.5883305     
   49187522.6517039     
   49187885.5785601     
   49188207.1433312     
   49188485.1418437     
   49188717.3928198     
   49188901.7393939     
   49189036.0506458     
   49189118.2231537     
   49189146.1825680     
   49061649.4872895     
   49061679.6803097     
   49061768.9188069     
   49061915.1533125     
   49062116.2843525     
   49062370.1647874     
   49062674.6021191     
   49063027.3607672     
   49063426.1643111     
   49063868.6977011     
   49064352.6094368     
   49064875.5137134     
   49065434.9925365     
   49066028.5978060     
   49066653.8533683     
   49067308.2570386     
   49067989.2825941     
   49068694.3817372     
   49069420.9860311     
   49070166.5088077     
   49070928.3470493     
   49071703.8832441     
   49072490.4872179     
   49073285.5179418     
   49074086.3253177     
   49074890.2519425     
   49075694.6348531     
   49076496.8072515     
   49077294.1002139     
   49078083.8443833     
   49078863.3716477     
   49079630.0168058     
   49080381.1192211     
   49081114.0244658     
   49081826.0859576     
   49082514.6665889     
   49083177.1403522     
   49083810.8939621     
   49084413.3284760     
   49084981.8609156     
   49085513.9258915     
   49086006.9772311     
   49086458.4896140     
   49086865.9602153     
   49087226.9103591     
   49087538.8871851     
   49087799.4653294     
   49088006.2486222     
   49088156.8718042     
   49088249.0022641     
   49088280.3417999     
   48953910.6889741     
   48953944.6401302     
   48954044.9674669     
   48954209.3391768     
   48954435.3683742     
   48954720.6158294     
   48955062.5926586     
   48955458.7629714     
   48955906.5464754     
   48956403.3210379     
   48956946.4252053     
   48957533.1606801     
   48958160.7947581     
   48958826.5627229     
   48959527.6702019     
   48960261.2954830     
   48961024.5917920     
   48961814.6895346     
   48962628.6985001     
   48963463.7100320     
   48964316.7991633     
   48965185.0267200     
   48966065.4413929     
   48966955.0817801     
   48967850.9784001     
   48968750.1556795     
   48969649.6339140     
   48970546.4312065     
   48971437.5653830     
   48972320.0558885     
   48973190.9256642     
   48974047.2030081     
   48974885.9234208     
   48975704.1314394     
   48976498.8824591     
   48977267.2445473     
   48978006.3002503     
   48978713.1483954     
   48979384.9058913     
   48980018.7095268     
   48980611.7177726     
   48981161.1125873     
   48981664.1012284     
   48982117.9180743     
   48982519.8264555     
   48982867.1205004     
   48983157.1269970     
   48983387.2072725     
   48983554.7590945     
   48983657.2185952     
   48983692.0622219     
   48841842.9887683     
   48841880.9584859     
   48841993.1359821     
   48842176.8774277     
   48842429.4791984     
   48842748.1810368     
   48843130.1691577     
   48843572.5792963     
   48844072.4997011     
   48844626.9740707     
   48845233.0044367     
   48845887.5539923     
   48846587.5498683     
   48847329.8858566     
   48848111.4250834     
   48848929.0026328     
   48849779.4281215     
   48850659.4882275     
   48851565.9491721     
   48852495.5591591     
   48853445.0507705     
   48854411.1433225     
   48855390.5451816     
   48856379.9560442     
   48857376.0691806     
   48858375.5736458     
   48859375.1564583     
   48860371.5047507     
   48861361.3078916     
   48862341.2595839     
   48863308.0599390     
   48864258.4175307     
   48865189.0514314     
   48866096.6932310     
   48866978.0890435     
   48867830.0015014     
   48868649.2117417     
   48869432.5213857     
   48870176.7545151     
   48870878.7596467     
   48871535.4117091     
   48872143.6140226     
   48872700.3002872     
   48873202.4365788     
   48873647.0233586     
   48874031.0974967     
   48874351.7343146     
   48874606.0496474     
   48874791.2019296     
   48874904.3943082     
   48874942.8767839     
   48724966.9431581     
   48725009.2259100     
   48725134.1133556     
   48725338.6146100     
   48725619.6748408     
   48725974.1788907     
   48726398.9548264     
   48726890.7774150     
   48727446.3715282     
   48728062.4154772     
   48728735.5442768     
   48729462.3528424     
   48730239.3991198     
   48731063.2071498     
   48731930.2700694     
   48732837.0530513     
   48733779.9961828     
   48734755.5172865     
   48735760.0146854     
   48736789.8699128     
   48737841.4503704     
   48738911.1119370     
   48739995.2015283     
   48741090.0596120     
   48742192.0226799     
   48743297.4256790     
   48744402.6044044     
   48745503.8978571     
   48746597.6505679     
   48747680.2148915     
   48748747.9532733     
   48749797.2404898     
   48750824.4658684     
   48751826.0354868     
   48752798.3743564     
   48753737.9285916     
   48754641.1675687     
   48755504.5860774     
   48756324.7064668     
   48757098.0807903     
   48757821.2929519     
   48758490.9608568     
   48759103.7385691     
   48759656.3184818     
   48760145.4334986     
   48760567.8592345     
   48760920.4162363     
   48761199.9722265     
   48761403.4443740     
   48761527.8015954     
   48761570.0668898     
   48602775.8050290     
   48602822.7296822     
   48602961.2859858     
   48603188.0950733     
   48603499.7108112     
   48603892.6239091     
   48604363.2659378     
   48604908.0132542     
   48605523.1908373     
   48606205.0760344     
   48606949.9022219     
   48607753.8623798     
   48608613.1125850     
   48609523.7754227     
   48610481.9433202     
   48611483.6818045     
   48612525.0326858     
   48613602.0171711     
   48614710.6389077     
   48615846.8869616     
   48617006.7387331     
   48618186.1628113     
   48619381.1217714     
   48620587.5749174     
   48621801.4809730     
   48623018.8007240     
   48624235.4996156     
   48625447.5503064     
   48626650.9351837     
   48627841.6488431     
   48629015.7005348     
   48630169.1165809     
   48631297.9427663     
   48632398.2467073     
   48633466.1202005     
   48634497.6815563     
   48635489.0779197     
   48636436.4875827     
   48637336.1222909     
   48638184.2295488     
   48638977.0949268     
   48639711.0443738     
   48640382.4465388     
   48640987.7151054     
   48641523.3111427     
   48641985.7454764     
   48642371.5810836     
   48642677.4355158     
   48642899.9833524     
   48643035.9586899     
   48643082.1576701     
   48474731.1672448     
   48474783.0962805     
   48474936.3767658     
   48475187.1945430     
   48475531.6660360     
   48475965.8428691     
   48476485.7163697     
   48477087.2219558     
   48477766.2434119     
   48478518.6170560     
   48479340.1357990     
   48480226.5531006     
   48481173.5868243     
   48482176.9229933     
   48483232.2194525     
   48484335.1094370     
   48485481.2050535     
   48486666.1006744     
   48487885.3762510     
   48489134.6005471     
   48490409.3342979     
   48491705.1332964     
   48493017.5514127     
   48494342.1435472     
   48495674.4685248     
   48497010.0919304     
   48498344.5888920     
   48499673.5468142     
   48500992.5680660     
   48502297.2726265     
   48503583.3006939     
   48504846.3152594     
   48506082.0046526     
   48507286.0850604     
   48508454.3030245     
   48509582.4379211     
   48510666.3044279     
   48511701.7549806     
   48512684.6822255     
   48513611.0214704     
   48514476.7531386     
   48515277.9052313     
   48516010.5558007     
   48516670.8354392     
   48517254.9297893     
   48517759.0820775     
   48518179.5956769     
   48518512.8367032     
   48518755.2366474     
   48518903.2950503     
   48518953.5822232     
   48340257.8978283     
   48340315.2249899     
   48340484.3740410     
   48340761.0414468     
   48341140.8536845     
   48341619.3723784     
   48342192.0992902     
   48342854.4811701     
   48343601.9144704     
   48344429.7499268     
   48345333.2970092     
   48346307.8282478     
   48347348.5834367     
   48348450.7737201     
   48349609.5855643     
   48350820.1846201     
   48352077.7194798     
   48353377.3253324     
   48354714.1275224     
   48356083.2450145     
   48357479.7937714     
   48358898.8900467     
   48360335.6535987     
   48361785.2108290     
   48363242.6978503     
   48364703.2634893     
   48366162.0722275     
   48367614.3070853     
   48369055.1724549     
   48370479.8968854     
   48371883.7358255     
   48373261.9743284     
   48374609.9297240     
   48375922.9542624     
   48377196.4377346     
   48378425.8100741     
   48379606.5439454     
   48380734.1573230     
   48381804.2160666     
   48382812.3364980     
   48383754.1879826     
   48384625.4955223     
   48385422.0423638     
   48386139.6726276     
   48386774.2939625     
   48387321.8802297     
   48387778.4742232     
   48388140.1904297     
   48388403.2178340     
   48388563.8227735     
   48388618.3518492     
   48198738.2250712     
   48198801.3709130     
   48198987.6084273     
   48199292.0836176     
   48199709.8740069     
   48200235.9942779     
   48200865.4017386     
   48201593.0016194     
   48202413.6522044     
   48203322.1698044     
   48204313.3335747     
   48205381.8901832     
   48206522.5583338     
   48207730.0331511     
   48208998.9904304     
   48210324.0907589     
   48211699.9835131     
   48213121.3107383     
   48214582.7109146     
   48216078.8226160     
   48217604.2880666     
   48219153.7566010     
   48220721.8880325     
   48222303.3559367     
   48223892.8508539     
   48225485.0834175     
   48227074.7874137     
   48228656.7227761     
   48230225.6785246     
   48231776.4756502     
   48233303.9699541     
   48234803.0548451     
   48236268.6641027     
   48237695.7746087     
   48239079.4090566     
   48240414.6386410     
   48241696.5857354     
   48242920.4265617     
   48244081.3938598     
   48245174.7795600     
   48246195.9374662     
   48247140.2859543     
   48248003.3106927     
   48248780.5673884     
   48249467.6845668     
   48250060.3663899     
   48250554.3955176     
   48250945.6360193     
   48251230.0363404     
   48251403.6323302     
   48251462.5503352     
   48049504.8097092     
   48049574.2144302     
   48049778.8142947     
   48050113.1367889     
   48050571.6450846     
   48051148.7441503     
   48051838.7866552     
   48052636.0786715     
   48053534.8851822     
   48054529.4354001     
   48055613.9279056     
   48056782.5356078     
   48058029.4105386     
   48059348.6884828     
   48060734.4934536     
   48062180.9420186     
   48063682.1474834     
   48065232.2239390     
   48066825.2901808     
   48068455.4735038     
   48070116.9133826     
   48071803.7650418     
   48073510.2029237     
   48075230.4240594     
   48076958.6513510     
   48078689.1367706     
   48080416.1644829     
   48082134.0538985     
   48083837.1626639     
   48085519.8895948     
   48087176.6775604     
   48088802.0163235     
   48090390.4453447     
   48091936.5565562     
   48093434.9971123     
   48094880.4721235     
   48096267.7473794     
   48097591.6520688     
   48098847.0815025     
   48100028.9998455     
   48101132.4428654     
   48102152.5207037     
   48103084.4206753     
   48103923.4101052     
   48104664.8392063     
   48105304.1440067     
   48105836.8493315     
   48106258.5718476     
   48106565.0231754     
   48106752.0130758     
   48106815.4527188     
   47891832.6188502     
   47891908.7317176     
   47892132.9902885     
   47892499.2288878     
   47893001.2250179     
   47893632.7058768     
   47894387.3546326     
   47895258.8164617     
   47896240.7043611     
   47897326.6047414     
   47898510.0828094     
   47899784.6877479     
   47901143.9577027     
   47902581.4245824     
   47904090.6186813     
   47905665.0731329     
   47907298.3282012     
   47908983.9354194     
   47910715.4615825     
   47912486.4926032     
   47914290.6372380     
   47916121.5306914     
   47917972.8381075     
   47919838.2579549     
   47921711.5253142     
   47923586.4150749     
   47925456.7450509     
   47927316.3790199     
   47929159.2296979     
   47930979.2616524     
   47932770.4941663     
   47934527.0040561     
   47936242.9284556     
   47937912.4675697     
   47939529.8874089     
   47941089.5225087     
   47942585.7786452     
   47944013.1355515     
   47945366.1496441     
   47946639.4567659     
   47947827.7749549     
   47948925.9072440     
   47949928.7445008     
   47950831.2683154     
   47951628.5539417     
   47952315.7733024     
   47952888.1980623     
   47953341.2027796     
   47953670.2681419     
   47953870.9842934     
   47953939.0542621     
   47724929.3933612     
   47725012.6579543     
   47725257.8503190     
   47725658.0312452     
   47726206.2162672     
   47726895.3824842     
   47727718.4751003     
   47728668.4136936     
   47729738.0982252     
   47730920.4147989     
   47732208.2411814     
   47733594.4520932     
   47735071.9242803     
   47736633.5413776     
   47738272.1985725     
   47739980.8070794     
   47741752.2984349     
   47743579.6286222     
   47745455.7820366     
   47747373.7752985     
   47749326.6609260     
   47751307.5308746     
   47753309.5199549     
   47755325.8091350     
   47757349.6287401     
   47759374.2615551     
   47761393.0458411     
   47763399.3782750     
   47765386.7168189     
   47767348.5835312     
   47769278.5673263     
   47771170.3266912     
   47773017.5923702     
   47774814.1700239     
   47776553.9428730     
   47778230.8743342     
   47779839.0106581     
   47781372.4835770     
   47782825.5129716     
   47784192.4095654     
   47785467.5776546     
   47786645.5178835     
   47787720.8300722     
   47788688.2161074     
   47789542.4829028     
   47790278.5454392     
   47790891.4298919     
   47791376.2768545     
   47791728.3446676     
   47791943.0128604     
   47792015.7857144     
   47547924.4779139     
   47548015.3123682     
   47548282.6340289     
   47548718.6455279     
   47549315.5206973     
   47550065.4115420     
   47550960.4548946     
   47551992.7787640     
   47553154.5083932     
   47554437.7720366     
   47555834.7064715     
   47557337.4622539     
   47558938.2087328     
   47560629.1388336     
   47562402.4736228     
   47564250.4666663     
   47566165.4081910     
   47568139.6290638     
   47570165.5045956     
   47572235.4581849     
   47574341.9648091     
   47576477.5543763     
   47578634.8149464     
   47580806.3958339     
   47582985.0106013     
   47585163.4399544     
   47587334.5345495     
   47589491.2177226     
   47591626.4881507     
   47593733.4224554     
   47595805.1777592     
   47597834.9942032     
   47599816.1974376     
   47601742.2010944     
   47603606.5092513     
   47605402.7188979     
   47607124.5224133     
   47608765.7100653     
   47610320.1725404     
   47611781.9035146     
   47613145.0022761     
   47614403.6764070     
   47615552.2445365     
   47616585.1391736     
   47617496.9096297     
   47618282.2250418     
   47618935.8775040     
   47619452.7853191     
   47619827.9963791     
   47620056.6916850     
   47620134.1890148     
   47359855.7623171     
   47359954.5337307     
   47360245.0253101     
   47360718.4949201     
   47361366.1938287     
   47362179.3736242     
   47363149.2927796     
   47364267.2228804     
   47365524.4545314     
   47366912.3029573     
   47368422.1133129     
   47370045.2657157     
   47371773.1800176     
   47373597.3203274     
   47375509.1992994     
   47377500.3822007     
   47379562.4907714     
   47381687.2068887     
   47383866.2760508     
   47386091.5106896     
   47388354.7933275     
   47390648.0795889     
   47392963.4010794     
   47395292.8681427     
   47397628.6725102     
   47399963.0898514     
   47402288.4822387     
   47404597.3005384     
   47406882.0867364     
   47409135.4762136     
   47411350.1999790     
   47413519.0868734     
   47415635.0657540     
   47417691.1676713     
   47419680.5280490     
   47421596.3888780     
   47423432.1009351     
   47425181.1260383     
   47426837.0393485     
   47428393.5317293     
   47429844.4121759     
   47431183.6103235     
   47432405.1790470     
   47433503.2971624     
   47434472.2722421     
   47435306.5435533     
   47436000.6851328     
   47436549.4090082     
   47436947.5685768     
   47437190.1621541     
   47437272.3367025     
   47159654.4660764     
   47159761.4582730     
   47160075.9109501     
   47160588.0518404     
   47161288.1308914     
   47162166.4268556     
   47163213.2534987     
   47164418.9654458     
   47165773.9636835     
   47167268.7007360     
   47168893.6855312     
   47170639.4879753     
   47172496.7432512     
   47174456.1558570     
   47176508.5033998     
   47178644.6401615     
   47180855.5004489     
   47183132.1017459     
   47185465.5476789     
   47187847.0308117     
   47190267.8352829     
   47192719.3392990     
   47195193.0174966     
   47197680.4431873     
   47200173.2904975     
   47202663.3364164     
   47205142.4627643     
   47207602.6580942     
   47210036.0195381     
   47212434.7546119     
   47214791.1829893     
   47217097.7382579     
   47219346.9696691     
   47221531.5438946     
   47223644.2468000     
   47225677.9852492     
   47227625.7889510     
   47229480.8123593     
   47231236.3366398     
   47232885.7717155     
   47234422.6584025     
   47235840.6706484     
   47237133.6178863     
   47238295.4475166     
   47239320.2475280     
   47240202.2492726     
   47240935.8304047     
   47241515.5179994     
   47241935.9918608     
   47242192.0880349     
   47242278.8025395     
   46946127.4879200     
   46946242.8618626     
   46946581.7015618     
   46947133.1248823     
   46947886.3081386     
   46948830.4920136     
   46949954.9870766     
   46951249.1789246     
   46952702.5329644     
   46954304.5988592     
   46956045.0146561     
   46957913.5106157     
   46959899.9127600     
   46961994.1461591     
   46964186.2379707     
   46966466.3202524     
   46968824.6325606     
   46971251.5243536     
   46973737.4572137     
   46976273.0069037     
   46978848.8652723     
   46981455.8420239     
   46984084.8663660     
   46986726.9885489     
   46989373.3813110     
   46992015.3412441     
   46994644.2900914     
   46997251.7759915     
   46999829.4746822     
   47002369.1906766     
   47004862.8584245     
   47007302.5434727     
   47009680.4436355     
   47011988.8901909     
   47014220.3491123     
   47016367.4223516     
   47018422.8491837     
   47020379.5076289     
   47022230.4159623     
   47023968.7343276     
   47025587.7664649     
   47027080.9615685     
   47028441.9162877     
   47029664.3768828     
   47030742.2415532     
   47031669.5629485     
   47032440.5508796     
   47033049.5752420     
   47033491.1691676     
   47033760.0324188     
   47033851.0350403     
   46717937.0416451     
   46718060.7879892     
   46718423.9369267     
   46719014.4280878     
   46719820.3039025     
   46720829.7144267     
   46722030.9217644     
   46723412.3041108     
   46724962.3594393     
   46726669.7088532     
   46728523.0996254     
   46730511.4079449     
   46732623.6413917     
   46734848.9411571     
   46737176.5840305     
   46739595.9841688     
   46742096.6946664     
   46744668.4089427     
   46747300.9619639     
   46749984.3313136     
   46752708.6381303     
   46755464.1479242     
   46758241.2712904     
   46761030.5645315     
   46763822.7302053     
   46766608.6176100     
   46769379.2232225     
   46772125.6911027     
   46774839.3132768     
   46777511.5301143     
   46780133.9307117     
   46782698.2532955     
   46785196.3856588     
   46787620.3656451     
   46789962.3816913     
   46792214.7734456     
   46794370.0324717     
   46796420.8030547     
   46798359.8831219     
   46800180.2252928     
   46801874.9380723     
   46803437.2872027     
   46804860.6971872     
   46806138.7530023     
   46807265.2020125     
   46808233.9561047     
   46809039.0940560     
   46809674.8641530     
   46810135.6870786     
   46810416.1590824     
   46810511.0554528     
   46473577.3133309     
   46473709.1969158     
   46474095.9120340     
   46474724.1703643     
   46475580.8393257     
   46476652.9453114     
   46477927.6765366     
   46479392.3855251     
   46481034.5912600     
   46482841.9810212     
   46484802.4119334     
   46486903.9122453     
   46489134.6823614     
   46491483.0956460     
   46493937.6990186     
   46496487.2133595     
   46499120.5337434     
   46501826.7295175     
   46504595.0442420     
   46507414.8955078     
   46510275.8746480     
   46513167.7463578     
   46516080.4482385     
   46519004.0902787     
   46521928.9542887     
   46524845.4932999     
   46527744.3309453     
   46530616.2608329     
   46533452.2459256     
   46536243.4179424     
   46538981.0767925     
   46541656.6900564     
   46544261.8925272     
   46546788.4858259     
   46549228.4381036     
   46551573.8838447     
   46553817.1237846     
   46555950.6249566     
   46557967.0208819     
   46559859.1119171     
   46561619.8657751     
   46563242.4182338     
   46564720.0740483     
   46566046.3080838     
   46567214.7666846     
   46568219.2692966     
   46569053.8103610     
   46569712.5614967     
   46570189.8739908     
   46570480.2816148     
   46570578.5037878     
   46211347.9080046     
   46211487.4045301     
   46211896.0936861     
   46212559.4371138     
   46213463.1138667     
   46214593.0214777     
   46215935.2766846     
   46217476.2158387     
   46219202.3950226     
   46221100.5899018     
   46223157.7953316     
   46225361.2247428     
   46227698.3093250     
   46230156.6970294     
   46232724.2514081     
   46235389.0503099     
   46238139.3844487     
   46240963.7558611     
   46243850.8762707     
   46246789.6653721     
   46249769.2490523     
   46252778.9575617     
   46255808.3236498     
   46258847.0806782     
   46261885.1607260     
   46264912.6926987     
   46267920.0004540     
   46270897.6009575     
   46273836.2024807     
   46276726.7028531     
   46279560.1877817     
   46282327.9292491     
   46285021.3840048     
   46287632.1921596     
   46290152.1758992     
   46292573.3383268     
   46294887.8624509     
   46297088.1103309     
   46299166.6223938     
   46301116.1169390     
   46302929.4898438     
   46304599.8144868     
   46306120.3419053     
   46307484.5012021     
   46308685.9002218     
   46309718.3265125     
   46310575.7485927     
   46311252.3175428     
   46311742.3689428     
   46312040.4251751     
   46312141.1981169     
   45929323.9127651     
   45929470.1385145     
   45929898.1570920     
   45930592.1964467     
   45931536.7720081     
   45932716.6849472     
   45934117.0201723     
   45935723.1440862     
   45937520.7021296     
   45939495.6161336     
   45941634.0815026     
   45943922.5642497     
   45946347.7979029     
   45948896.7803008     
   45951556.7702968     
   45954315.2843858     
   45957160.0932725     
   45960079.2183929     
   45963060.9284067     
   45966093.7356712     
   45969166.3927121     
   45972267.8887024     
   45975387.4459616     
   45978514.5164877     
   45981638.7785318     
   45984750.1332272     
   45987838.7012842     
   45990894.8197596     
   45993909.0389123     
   45996872.1191561     
   45999775.0281185     
   46002608.9378167     
   46005365.2219627     
   46008035.4534059     
   46010611.4017272     
   46013085.0309933     
   46015448.4976864     
   46017694.1488187     
   46019814.5202469     
   46021802.3352000     
   46023650.5030344     
   46025352.1182316     
   46026900.4596553     
   46028288.9900838     
   46029511.3560366     
   46030561.3879132     
   46031433.1004651     
   46032120.6936209     
   46032618.5536872     
   46032921.2549494     
   46033023.5616952     
   45625322.4960859     
   45625474.1323388     
   45625917.5652575     
   45626635.8565439     
   45627612.4328729     
   45628831.0806569     
   45630275.9406666     
   45631931.5025277     
   45633782.5991188     
   45635814.4008896     
   45638012.4101196     
   45640362.4551338     
   45642850.6844950     
   45645463.5611868     
   45648187.8568014     
   45651010.6457490     
   45653919.2994984     
   45656901.4808637     
   45659945.1383460     
   45663038.5005430     
   45666170.0706342     
   45669328.6209534     
   45672503.1876547     
   45675683.0654825     
   45678857.8026513     
   45682017.1958452     
   45685151.2853418     
   45688250.3502695     
   45691304.9040041     
   45694305.6897119     
   45697243.6760460     
   45700110.0530038     
   45702896.2279513     
   45705593.8218236     
   45708194.6655087     
   45710690.7964236     
   45713074.4552911     
   45715338.0831282     
   45717474.3184566     
   45719475.9947458     
   45721336.1381033     
   45723047.9652235     
   45724604.8816116     
   45726000.4800980     
   45727228.5396609     
   45728283.0245750     
   45729158.0839083     
   45729848.0513875     
   45730347.4456559     
   45730650.9709487     
   45730753.5182140     
   45296866.0991573     
   45297021.3138804     
   45297474.7507497     
   45298208.4382626     
   45299204.8530191     
   45300446.9102813     
   45301917.9545529     
   45303601.7501981     
   45305482.4721172     
   45307544.6964948     
   45309773.3916373     
   45312153.9089124     
   45314671.9738037     
   45317313.6770930     
   45320065.4661796     
   45322914.1365479     
   45325846.8233902     
   45328850.9933945     
   45331914.4367023     
   45335025.2590437     
   45338171.8740547     
   45341342.9957813     
   45344527.6313740     
   45347715.0739765     
   45350894.8958112     
   45354056.9414636     
   45357191.3213675     
   45360288.4054934     
   45363338.8172408     
   45366333.4275360     
   45369263.3491374     
   45372119.9311496     
   45374894.7537476     
   45377579.6231146     
   45380166.5665955     
   45382647.8280695     
   45385015.8635468     
   45387263.3369933     
   45389383.1163915     
   45391368.2700430     
   45393212.0631232     
   45394907.9544979     
   45396449.5938126     
   45397830.8188703     
   45399045.6533116     
   45400088.3046153     
   45400953.1624389     
   45401634.7973209     
   45402127.9597688     
   45402427.5797588     
   45402528.7666766     
   44941142.4663540     
   44941298.8368278     
   44941755.1511231     
   44942492.6193617     
   44943492.9857608     
   44944738.5142876     
   44946211.9745489     
   44947896.6279297     
   44949776.2139920     
   44951834.9371444     
   44954057.4535921     
   44956428.8585762     
   44958934.6739090     
   44961560.8358125     
   44964293.6830641     
   44967119.9454555     
   44970026.7325661     
   44973001.5228548     
   44976032.1530692     
   44979106.8079741     
   44982214.0103979     
   44985342.6115937     
   44988481.7819148     
   44991621.0017987     
   44994750.0530570     
   44997859.0104645     
   45000938.2336445     
   45003978.3592413     
   45006970.2933762     
   45009905.2043783     
   45012774.5157851     
   45015569.8996055     
   45018283.2698392     
   45020906.7762457     
   45023432.7983598     
   45025853.9397462     
   45028163.0224918     
   45030353.0819324     
   45032417.3616129     
   45034349.3084814     
   45036142.5683201     
   45037790.9814164     
   45039288.5784815     
   45040629.5768247     
   45041808.3767951     
   45042819.5585052     
   45043657.8788521     
   45044318.2688577     
   45044795.8313504     
   45045085.8390146     
   45045183.7328409     
   44554962.0224965     
   44555116.4636390     
   44555566.6100274     
   44556293.1676730     
   44557277.4616184     
   44558501.4160307     
   44559947.5347969     
   44561598.8826282     
   44563439.0666764     
   44565452.2186675     
   44567622.9775544     
   44569936.4726927     
   44572378.3075384     
   44574934.5438700     
   44577591.6865325     
   44580336.6687018     
   44583156.8376656     
   44586039.9411175     
   44588974.1139556     
   44591947.8655814     
   44594950.0676880     
   44597969.9425287     
   44600997.0516548     
   44604021.2851094     
   44607032.8510642     
   44610022.2658844     
   44612980.3446058     
   44615898.1918077     
   44618767.1928643     
   44621579.0055563     
   44624325.5520253     
   44626999.0110516     
   44629591.8106375     
   44632096.6208783     
   44634506.3471026     
   44636814.1232656     
   44639013.3055795     
   44641097.4663669     
   44643060.3881241     
   44644896.0577837     
   44646598.6611679     
   44648162.5776274     
   44649582.3748617     
   44650852.8039223     
   44651968.7944012     
   44652925.4498129     
   44653718.0431821     
   44654342.0128516     
   44654792.9585315     
   44655066.6376142     
   44655158.9617766     
   44134713.4524663     
   44134862.1566262     
   44135295.0035536     
   44135992.6276949     
   44136936.3612116     
   44138108.2079278     
   44139490.8180967     
   44141067.4639848     
   44142822.0162702     
   44144738.9212555     
   44146803.1788883     
   44149000.3215904     
   44151316.3938862     
   44153737.9328281     
   44156251.9492092     
   44158845.9095562     
   44161507.7188910     
   44164225.7042494     
   44166988.5989432     
   44169785.5275493     
   44172605.9916089     
   44175439.8560173     
   44178277.3360806     
   44181108.9852197     
   44183925.6832921     
   44186718.6255070     
   44189479.3119038     
   44192199.5373631     
   44194871.3821184     
   44197487.2027357     
   44200039.6235261     
   44202521.5283553     
   44204926.0528163     
   44207246.5767282     
   44209476.7169244     
   44211610.3202977     
   44213641.4570645     
   44215564.4142193     
   44217373.6891441     
   44219063.9833483     
   44220630.1963097     
   44222067.4193963     
   44223370.9298497     
   44224536.1848138     
   44225558.8154041     
   44226434.6208092     
   44227159.5624221     
   44227729.7580167     
   44228141.4759756     
   44228391.1295978     
   44228475.2715322     
   43676318.7971993     
   43676457.1919293     
   43676859.4088410     
   43677506.5814670     
   43678380.6069295     
   43679464.1132362     
   43680740.4277569     
   43682193.5468765     
   43683808.1068165     
   43685569.3556202     
   43687463.1262938     
   43689475.8110958     
   43691594.3369656     
   43693806.1420797     
   43696099.1535236     
   43698461.7660644     
   43700882.8220062     
   43703351.5921103     
   43705857.7575575     
   43708391.3929271     
   43710942.9501674     
   43713503.2435241     
   43716063.4353972     
   43718615.0230867     
   43721149.8263901     
   43723659.9760079     
   43726137.9027137     
   43728576.3272384     
   43730968.2508194     
   43733306.9463606     
   43735585.9501469     
   43737799.0540552     
   43739940.2982030     
   43742003.9639724     
   43743984.5673481     
   43745876.8525054     
   43747675.7855890     
   43749376.5486186     
   43750974.5334637     
   43752465.3358289     
   43753844.7491988     
   43755108.7586905     
   43756253.5347643     
   43757275.4267683     
   43758170.9562587     
   43758936.8100924     
   43759569.8332820     
   43760067.0215790     
   43760425.5138034     
   43760642.5839041     
   43760715.6327299     
   43175189.9807791     
   43175312.7114461     
   43175668.7312068     
   43176240.4022512     
   43177010.8954191     
   43177964.1503854     
   43179084.8374386     
   43180358.3208476     
   43181770.6238125     
   43183308.3949921     
   43184958.8766014     
   43186709.8740696     
   43188549.7272453     
   43190467.2831360     
   43192451.8701644     
   43194493.2739205     
   43196581.7143877     
   43198707.8246157     
   43200862.6308108     
   43203037.5338101     
   43205224.2919026     
   43207415.0049563     
   43209602.0998063     
   43211778.3168544     
   43213936.6978266     
   43216070.5746300     
   43218173.5592458     
   43220239.5345900     
   43222262.6462699     
   43224237.2951566     
   43226158.1306922     
   43228020.0448434     
   43229818.1666092     
   43231547.8569873     
   43233204.7043003     
   43234784.5197809     
   43236283.3333099     
   43237697.3892049     
   43239023.1419526     
   43240257.2517863     
   43241396.5800000     
   43242438.1839144     
   43243379.3114153     
   43244217.3949377     
   43244950.0449075     
   43245575.0424900     
   43246090.3315829     
   43246494.0101120     
   43246784.3205480     
   43246959.6397398     
   43247018.4681110     
   42626189.4711894     
   42626290.4153222     
   42626582.4928574     
   42627050.2053242     
   42627678.8774900     
   42628454.6099568     
   42629364.2338357     
   42630395.2675009     
   42631535.8754276     
   42632774.8291077     
   42634101.4700393     
   42635505.6747769     
   42636977.8220305     
   42638508.7617922     
   42640089.7864696     
   42641712.6039994     
   42643369.3129102     
   42645052.3793019     
   42646754.6157038     
   42648469.1617692     
   42650189.4667621     
   42651909.2737859     
   42653622.6056985     
   42655323.7526570     
   42657007.2612232     
   42658667.9249619     
   42660300.7764522     
   42661901.0806260     
   42663464.3293417     
   42664986.2370881     
   42666462.7377093     
   42667889.9820286     
   42669264.3362428     
   42670582.3809466     
   42671840.9106354     
   42673036.9335267     
   42674167.6715454     
   42675230.5602954     
   42676223.2488551     
   42677143.5991993     
   42677989.6851103     
   42678759.7903495     
   42679452.4059068     
   42680066.2263197     
   42680600.1446274     
   42681053.2461692     
   42681424.8011060     
   42681714.2552007     
   42681921.2189964     
   42682045.4550131     
   42682086.8631342     
   42023598.8175132     
   42023671.1382333     
   42023879.5281267     
   42024211.7441788     
   42024656.3388372     
   42025202.6044508     
   42025840.5204092     
   42026560.7029957     
   42027354.3579610     
   42028213.2358124     
   42029129.5898085     
   42030096.1366396     
   42031106.0197687     
   42032152.7754015     
   42033230.3010514     
   42034332.8266563     
   42035454.8882080     
   42036591.3038442     
   42037737.1523583     
   42038887.7540730     
   42040038.6540285     
   42041185.6074272     
   42042324.5672797     
   42043451.6741886     
   42044563.2482074     
   42045655.7826996     
   42046725.9401219     
   42047770.5496433     
   42048786.6064997     
   42049771.2729769     
   42050721.8808923     
   42051635.9354286     
   42052511.1201530     
   42053345.3030422     
   42054136.5433164     
   42054883.0988637     
   42055583.4339686     
   42056236.2270981     
   42056840.3784288     
   42057395.0168901     
   42057899.5062942     
   42058353.4504434     
   42058756.6969148     
   42059109.3386977     
   42059411.7143565     
   42059664.4051960     
   42059868.2294403     
   42060024.2345792     
   42060133.6869634     
   42060198.0594197     
   42060219.0152080     
   41361100.1933149     
   41361136.4418202     
   41361239.7256174     
   41361402.4057398     
   41361617.5530225     
   41361878.8837679     
   41362180.6990099     
   41362517.8273827     
   41362885.5715853     
   41363279.6584118     
   41363696.1923081     
   41364131.6124014     
   41364582.6529409     
   41365046.3070820     
   41365519.7939401     
   41366000.5288391     
   41366486.0966804     
   41366974.2283564     
   41367462.7801379     
   41367949.7159671     
   41368433.0925939     
   41368911.0474963     
   41369381.7895318     
   41369843.5922709     
   41370294.7899656     
   41370733.7761107     
   41371159.0045511     
   41371568.9930863     
   41371962.3295135     
   41372337.6800283     
   41372693.7999059     
   41373029.5463482     
   41373343.8933696     
   41373635.9485054     
   41373904.9710752     
   41374150.3917053     
   41374371.8329150     
   41374569.1303004     
   41374742.3539561     
   41374891.8293517     
   41375018.1575154     
   41375122.2332279     
   41375205.2607753     
   41375268.7684306     
   41375314.6178564     
   41375345.0121996     
   41375362.5006983     
   41375369.9745448     
   41375370.6564836     
   41375368.0822308     
   41375366.0814489     
   40631777.9391694     
   40631770.2243776     
   40631745.8418055     
   40631703.3661354     
   40631641.9164323     
   40631561.0827846     
   40631460.8579276     
   40631341.5737940     
   40631203.8429070     
   40631048.5045098     
   40630876.5752993     
   40630689.2046230     
   40630487.6339849     
   40630273.1607021     
   40630047.1055542     
   40629810.7842683     
   40629565.4826902     
   40629312.4355017     
   40629052.8083572     
   40628787.6833280     
   40628518.0475609     
   40628244.7850778     
   40627968.6716641     
   40627690.3728173     
   40627410.4447471     
   40627129.3384389     
   40626847.4068183     
   40626564.9150649     
   40626282.0541463     
   40625998.9576718     
   40625715.7220874     
   40625432.4302567     
   40625149.1784092     
   40624866.1065686     
   40624583.4325003     
   40624301.4889946     
   40624020.7636367     
   40623741.9408648     
   40623465.9455103     
   40623193.9880693     
   40622927.6095083     
   40622668.7268771     
   40622419.6774752     
   40622183.2543426     
   40621962.7424944     
   40621761.9404399     
   40621585.1735452     
   40621437.3138148     
   40621323.7941707     
   40621250.6154026     
   40621224.3143344     
   39828149.5973449     
   39828089.8587727     
   39827914.9478693     
   39827631.5472427     
   39827246.6062528     
   39826767.2598382     
   39826200.7544547     
   39825554.3808987     
   39824835.4137406     
   39824051.0570628     
   39823208.3961885     
   39822314.3550734     
   39821375.6590187     
   39820398.8023813     
   39819390.0209477     
   39818355.2686593     
   39817300.1983938     
   39816230.1465321     
   39815150.1210629     
   39814064.7930173     
   39812978.4910544     
   39811895.1990666     
   39810818.5567120     
   39809751.8628362     
   39808698.0817988     
   39807659.8527831     
   39806639.5022113     
   39805639.0594570     
   39804660.2760949     
   39803704.6489175     
   39802773.4472941     
   39801867.7453399     
   39800988.4594693     
   39800136.3913196     
   39799312.2761707     
   39798516.8375779     
   39797750.8507075     
   39797015.2136552     
   39796311.0269244     
   39795639.6767132     
   39795002.9247197     
   39794402.9953650     
   39793842.6627319     
   39793325.3539169     
   39792855.2298798     
   39792437.2838020     
   39792077.4237118     
   39791782.4885112     
   39791560.2324709     
   39791419.3052346     
   39791369.3238467     
   38942239.2341527     
   38942119.6850699     
   38941772.4218155     
   38941214.4167310     
   38940462.4707705     
   38939533.1294477     
   38938442.6089401     
   38937206.7317215     
   38935840.8711012     
   38934359.9040608     
   38932778.1717246     
   38931109.4468157     
   38929366.9074728     
   38927563.1167803     
   38925710.0074316     
   38923818.8709529     
   38921900.3509519     
   38919964.4398948     
   38918020.4789656     
   38916077.1606099     
   38914142.5334231     
   38912224.0091077     
   38910328.3712912     
   38908461.7860701     
   38906629.8142038     
   38904837.4249843     
   38903089.0119416     
   38901388.4106417     
   38899738.9189996     
   38898143.3208383     
   38896603.9126179     
   38895122.5341103     
   38893700.6039514     
   38892339.1632812     
   38891038.9299759     
   38889800.3636247     
   38888623.7354274     
   38887509.2091650     
   38886456.9365320     
   38885467.1836819     
   38884540.4801431     
   38883677.8114896     
   38882880.8366765     
   38882152.0585362     
   38881495.0524923     
   38880914.6179021     
   38880416.9312530     
   38880009.8249003     
   38879703.0802476     
   38879508.5292168     
   38879439.7229898     
   37965710.0743471     
   37965523.9220073     
   37964985.6599929     
   37964124.9705979     
   37962970.6986112     
   37961550.7763213     
   37959892.1623832     
   37958020.7935054     
   37955961.5478042     
   37953738.2185476     
   37951373.4971908     
   37948888.9645905     
   37946305.0892853     
   37943641.2319037     
   37940915.6546624     
   37938145.5350425     
   37935346.9827889     
   37932535.0594383     
   37929723.7996453     
   37926926.2336431     
   37924154.4102531     
   37921419.4199277     
   37918731.4173976     
   37916099.6436048     
   37913532.4467371     
   37911037.3022375     
   37908620.8316319     
   37906288.8202133     
   37904046.2336622     
   37901897.2334079     
   37899845.1939176     
   37897892.7224629     
   37896041.6819737     
   37894293.2111267     
   37892647.7412448     
   37891105.0195446     
   37889664.1699836     
   37888323.7780902     
   37887081.9959953     
   37885936.6220151     
   37884885.1958668     
   37883925.0824261     
   37883053.6233017     
   37882268.6202728     
   37881568.8230489     
   37880954.7148431     
   37880429.3496657     
   37879998.7739002     
   37879672.0192339     
   37879461.6742608     
   37879385.2222674     
   36890078.6669382     
   36889821.2520100     
   36889079.8506463     
   36887899.3682367     
   36886322.8923007     
   36884391.6496112     
   36882144.9816806     
   36879620.3360990     
   36876853.2715985     
   36873877.4753533     
   36870724.7906148     
   36867425.2530104     
   36864007.1340233     
   36860496.9898295     
   36856919.7142510     
   36853298.5944810     
   36849655.3683161     
   36846010.2817535     
   36842382.1459208     
   36838788.3924126     
   36835245.1262044     
   36831767.1754088     
   36828368.1372104     
   36825060.4193397     
   36821855.2764532     
   36818762.8410932     
   36815792.1494227     
   36812951.1616639     
   36810246.7773965     
   36807684.8471720     
   36805270.1716811     
   36803006.4909711     
   36800896.4673677     
   36798941.6877570     
   36797142.6876587     
   36795498.9688699     
   36794008.9091664     
   36792669.6422928     
   36791476.9560710     
   36790425.3941728     
   36789508.4705963     
   36788718.9918619     
   36788049.3389997     
   36787490.8334923     
   36787033.3145928     
   36786664.8202339     
   36786371.7704837     
   36786141.2138071     
   36785966.4377476     
   36785849.7187079     
   36785803.1229198     
   35707038.9598651     
   35706709.4510716     
   35705764.1729736     
   35704265.5545332     
   35702272.8186311     
   35699842.0115704     
   35697026.0518482     
   35693874.7968022     
   35690435.1253173     
   35686751.0327526     
   35682863.7358156     
   35678811.7848295     
   35674631.1806465     
   35670355.4951449     
   35666015.9927742     
   35661641.7513963     
   35657259.7809135     
   35652895.1382837     
   35648571.0376127     
   35644308.9541326     
   35640128.7210256     
   35636048.6182083     
   35632085.4523805     
   35628254.6278930     
   35624570.2081677     
   35621044.9667112     
   35617690.4256915     
   35614516.8816938     
   35611533.4184717     
   35608747.9023151     
   35606166.9887879     
   35603796.1289872     
   35601639.5612809     
   35599700.2025346     
   35597979.4535878     
   35596477.0224470     
   35595191.1401185     
   35594118.8307681     
   35593256.0390166     
   35592596.9967784     
   35592133.1067568     
   35591852.0116158     
   35591736.8261165     
   35591768.7602897     
   35591929.5378078     
   35592200.6286536     
   35592562.3282610     
   35592989.2458567     
   35593433.8384546     
   35593799.4129676     
   35593942.9514093     
   34408931.8715103     
   34408535.6134553     
   34407403.7838082     
   34405617.9094888     
   34403254.4327307     
   34400384.8645885     
   34397075.9657551     
   34393389.9466040     
   34389384.6778843     
   34385113.9113636     
   34380627.5059584     
   34375971.6565243     
   34371189.1241141     
   34366319.4615898     
   34361399.2342112     
   34356462.2331749     
   34351539.6800593     
   34346660.4204114     
   34341851.1051460     
   34337136.3587325     
   34332538.9332246     
   34328079.8472364     
   34323778.5089297     
   34319652.8220208     
   34315719.2739420     
   34311993.0073277     
   34308487.8788627     
   34305216.5035874     
   34302190.2810769     
   34299419.4180852     
   34296912.8543077     
   34294678.1363049     
   34292721.2858041     
   34291046.9620268     
   34289658.7989266     
   34288559.5872263     
   34287749.9060911     
   34287226.7026249     
   34286982.5486486     
   34287007.4766762     
   34287292.4582908     
   34287829.5149659     
   34288612.2783267     
   34289625.6254172     
   34290835.4641812     
   34292167.9400941     
   34293518.7227746     
   34294780.5728381     
   34295832.5396091     
   34296547.7331438     
   34296802.9912919     
   32989404.8287841     
   32988956.2394408     
   32987681.4966498     
   32985681.2579017     
   32983048.6549073     
   32979869.6836392     
   32976223.5996647     
   32972183.3164667     
   32967815.8171419     
   32963182.5655782     
   32958339.9154206     
   32953339.5118473     
   32948228.6760916     
   32943050.7806836     
   32937845.6060673     
   32932649.6758414     
   32927496.5693443     
   32922417.2112831     
   32917440.1378773     
   32912591.7389125     
   32907896.4755609     
   32903377.0740376     
   32899054.6952548     
   32894949.0805338     
   32891078.6735406     
   32887460.7156991     
   32884111.3030227     
   32881045.4097718     
   32878276.8939117     
   32875818.4175722     
   32873681.5860869     
   32871877.1648902     
   32870415.2282665     
   32869304.1179469     
   32868548.8462044     
   32868149.8868466     
   32868107.6514782     
   32868425.8855272     
   32869111.7292529     
   32870167.8400129     
   32871577.9566964     
   32873282.8935296     
   32875198.1408136     
   32877241.5686237     
   32879321.4155087     
   32881343.2180683     
   32883215.6187506     
   32884845.4072753     
   32886139.7866128     
   32886998.2954647     
   32887304.3975281     
   31444317.1414833     
   31443843.2069222     
   31442504.8261763     
   31440419.0246010     
   31437692.3973075     
   31434421.7916510     
   31430695.0074476     
   31426591.5286390     
   31422183.2291352     
   31417535.0717470     
   31412705.7818715     
   31407748.4856913     
   31402711.3280130     
   31397638.0291067     
   31392568.3997072     
   31387538.8158782     
   31382582.6541801     
   31377730.6846571     
   31373011.4216469     
   31368451.4344622     
   31364075.6200193     
   31359907.4401579     
   31355969.1266759     
   31352281.8562137     
   31348865.8905085     
   31345740.6743926     
   31342924.9352431     
   31340436.7888856     
   31338293.7848580     
   31336513.1700844     
   31335111.2901907     
   31334102.4313357     
   31333497.6272823     
   31333307.9621381     
   31333549.1799840     
   31334245.1090566     
   31335409.5054229     
   31337008.0002699     
   31338971.4303429     
   31341225.6963787     
   31343687.4502840     
   31346270.2114915     
   31348888.2422796     
   31351452.2917377     
   31353879.5732084     
   31356094.8401007     
   31358022.5490899     
   31359590.3816036     
   31360735.0826625     
   31361421.3699731     
   31361648.6860251     
   29772965.4523313     
   29772508.7737874     
   29771230.2961450     
   29769256.3804299     
   29766699.4099293     
   29763659.0106061     
   29760223.3897738     
   29756470.5851399     
   29752469.7180305     
   29748282.1174090     
   29743962.3284676     
   29739559.0395203     
   29735115.8671230     
   29730672.1274107     
   29726263.5327737     
   29721922.8104165     
   29717680.2394248     
   29713564.1195946     
   29709601.1788242     
   29705816.9200775     
   29702235.9103221     
   29698882.0137947     
   29695778.5760722     
   29692948.5780058     
   29690414.8172846     
   29688200.1904028     
   29686327.8011405     
   29684820.6936572     
   29683701.6029265     
   29682991.7311761     
   29682712.7508096     
   29682891.6883377     
   29683565.8123765     
   29684761.0656373     
   29686454.0015862     
   29688591.9210014     
   29691114.6239368     
   29693950.9296852     
   29697022.1427629     
   29700238.8841766     
   29703505.1454398     
   29706720.3465834     
   29709781.9156492     
   29712591.6251463     
   29715046.3560998     
   29717046.8712103     
   29718540.2466495     
   29719559.6302320     
   29720182.8217079     
   29720489.2899117     
   29720571.9003216     
   27979722.4792154     
   27979345.4800794     
   27978304.8273187     
   27976719.9097997     
   27974692.1619548     
   27972308.4124212     
   27969643.2045687     
   27966760.7694534     
   27963716.3856923     
   27960557.7089606     
   27957326.1252098     
   27954057.9517724     
   27950785.6918817     
   27947538.9352753     
   27944345.1082204     
   27941230.0917258     
   27938218.7585936     
   27935335.4162464     
   27932604.1657629     
   27930049.2055627     
   27927695.0951144     
   27925566.9820083     
   27923690.7639243     
   27922093.0985344     
   27920801.0475778     
   27919841.2282983     
   27919240.3501024     
   27919028.4480407     
   27919241.5892187     
   27919926.0780231     
   27921111.9900538     
   27922794.1167509     
   27924954.1601123     
   27927564.7157540     
   27930586.5982642     
   27933968.1218437     
   27937643.2124707     
   27941533.4095037     
   27945547.6087289     
   27949582.7594016     
   27953523.1188701     
   27957240.0608533     
   27960592.0029632     
   27963421.5903160     
   27965644.1772117     
   27967295.3340227     
   27968456.3104840     
   27969210.1810183     
   27969639.1306940     
   27969832.4521636     
   27969877.5791454     
   26076284.9918774     
   26076074.6137586     
   26075497.7217686     
   26074632.6959526     
   26073546.5650052     
   26072293.7545880     
   26070916.7922336     
   26069447.6750113     
   26067911.1640859     
   26066327.5934839     
   26064714.6169982     
   26063088.7248277     
   26061465.8076508     
   26059862.0833263     
   26058294.7390521     
   26056782.3491585     
   26055344.9809098     
   26054004.1746607     
   26052782.9078623     
   26051705.5769271     
   26050798.0582992     
   26050087.9151160     
   26049604.8753856     
   26049381.8091557     
   26049456.6416228     
   26049868.8151567     
   26050652.6279837     
   26051830.8128746     
   26053418.3903258     
   26055427.2548926     
   26057862.4316543     
   26060718.6160844     
   26063977.1881014     
   26067608.2740396     
   26071571.1381980     
   26075813.9473926     
   26080273.4732952     
   26084873.6339061     
   26089524.1938178     
   26094118.6197565     
   26098531.5956036     
   26102615.5299564     
   26106197.9934074     
   26109134.2555156     
   26111414.7243475     
   26113109.1661419     
   26114282.4229537     
   26115019.1521774     
   26115417.1186676     
   26115577.3529909     
   26115607.9437165     
   24084488.4072933     
   24084490.2489620     
   24084548.8871577     
   24084694.1796914     
   24084920.0008712     
   24085200.2336425     
   24085503.5239019     
   24085805.0580992     
   24086087.0242432     
   24086336.8910343     
   24086545.1137332     
   24086704.3312651     
   24086814.4331011     
   24086882.9440481     
   24086923.5866680     
   24086954.5491565     
   24086997.3851949     
   24087076.2689177     
   24087217.3995098     
   24087448.6095902     
   24087799.0686439     
   24088299.0214885     
   24088979.4287302     
   24089871.2939318     
   24091004.3016926     
   24092406.7382283     
   24094104.2450905     
   24096116.1610454     
   24098454.1750786     
   24101123.2934247     
   24104121.8621620     
   24107441.4365925     
   24111066.7845118     
   24114974.8786451     
   24119134.3578037     
   24123504.9220574     
   24128036.5628606     
   24132668.7104919     
   24137328.6917421     
   24141930.0234053     
   24146370.5574574     
   24150530.4223571     
   24154270.4115136     
   24157460.0042068     
   24159996.4440719     
   24161873.7738441     
   24163179.4480751     
   24163998.1609913     
   24164424.3020909     
   24164581.6876972     
   24164604.4655942     
   22038720.3468924     
   22039138.2195938     
   22040171.6669851     
   22041582.3084607     
   22043211.1214695     
   22044951.7699654     
   22046730.1314841     
   22048473.7275426     
   22050112.8603767     
   22051598.2247406     
   22052912.1258889     
   22054067.0095933     
   22055085.4311598     
   22055992.2117544     
   22056811.3548457     
   22057566.9760504     
   22058283.4338236     
   22058984.9465878     
   22059695.6703577     
   22060439.6647460     
   22061240.7955019     
   22062122.4349141     
   22063107.0792062     
   22064215.9562700     
   22065468.6752593     
   22066882.4840935     
   22068471.7147411     
   22070247.6966883     
   22072218.4788511     
   22074388.3370321     
   22076757.7135678     
   22079323.2322664     
   22082077.3865927     
   22085008.3361689     
   22088099.5893422     
   22091329.5486552     
   22094671.0243567     
   22098090.8222268     
   22101549.2911086     
   22104999.4889830     
   22108386.0501108     
   22111643.9278327     
   22114696.7688979     
   22117446.2422268     
   22119784.8099534     
   22121621.1178557     
   22122878.3166228     
   22123581.2310299     
   22123857.5252876     
   22123865.4015147     
   22123835.3563814     
   20000000.0000000     
   20000000.0000000     
   20000000.0000000     
   20000000.0000000     
   20000000.0000000     
   20000000.0000000     
   20000000.0000000     
   20000000.0000000     
   20000000.0000000     
   20000000.0000000     
   20000000.0000000     
   20000000.0000000     
   20000000.0000000     
   20000000.0000000     
   20000000.0000000     
   20000000.0000000     
   20000000.0000000     
   20000000.0000000     
   20000000.0000000     
   20000000.0000000     
   20000000.0000000     
   20000000.0000000     
   20000000.0000000     
   20000000.0000000     
   20000000.0000000     
   20000000.0000000     
   20000000.0000000     
   20000000.0000000     
   20000000.0000000     
   20000000.0000000     
   20000000.0000000     
   20000000.0000000     
   20000000.0000000     
   20000000.0000000     
   20000000.0000000     
   20000000.0000000     
   20000000.0000000     
   20000000.0000000     
   20000000.0000000     
   20000000.0000000     
   20000000.0000000     
   20000000.0000000     
   20000000.0000000     
   20000000.0000000     
   20000000.0000000     
   20000000.0000000     
   20000000.0000000     
   20000000.0000000     
   20000000.0000000     
   20000000.0000000     
   20000000.0000000     
VECTORS u double 
    0.00000E+00         0.93088E-01         0.00000E+00
    0.00000E+00         0.90756E-01         0.00000E+00
    0.00000E+00         0.88444E-01         0.00000E+00
    0.00000E+00         0.86172E-01         0.00000E+00
    0.00000E+00         0.83952E-01         0.00000E+00
    0.00000E+00         0.81789E-01         0.00000E+00
    0.00000E+00         0.79639E-01         0.00000E+00
    0.00000E+00         0.77503E-01         0.00000E+00
    0.00000E+00         0.75389E-01         0.00000E+00
    0.00000E+00         0.73302E-01         0.00000E+00
    0.00000E+00         0.71245E-01         0.00000E+00
    0.00000E+00         0.69219E-01         0.00000E+00
    0.00000E+00         0.67225E-01         0.00000E+00
    0.00000E+00         0.65263E-01         0.00000E+00
    0.00000E+00         0.63333E-01         0.00000E+00
    0.00000E+00         0.61433E-01         0.00000E+00
    0.00000E+00         0.59564E-01         0.00000E+00
    0.00000E+00         0.57725E-01         0.00000E+00
    0.00000E+00         0.55914E-01         0.00000E+00
    0.00000E+00         0.54129E-01         0.00000E+00
    0.00000E+00         0.52370E-01         0.00000E+00
    0.00000E+00         0.50634E-01         0.00000E+00
    0.00000E+00         0.48921E-01         0.00000E+00
    0.00000E+00         0.47229E-01         0.00000E+00
    0.00000E+00         0.45558E-01         0.00000E+00
    0.00000E+00         0.43905E-01         0.00000E+00
    0.00000E+00         0.42269E-01         0.00000E+00
    0.00000E+00         0.40650E-01         0.00000E+00
    0.00000E+00         0.39044E-01         0.00000E+00
    0.00000E+00         0.37448E-01         0.00000E+00
    0.00000E+00         0.35861E-01         0.00000E+00
    0.00000E+00         0.34280E-01         0.00000E+00
    0.00000E+00         0.32701E-01         0.00000E+00
    0.00000E+00         0.31122E-01         0.00000E+00
    0.00000E+00         0.29541E-01         0.00000E+00
    0.00000E+00         0.27955E-01         0.00000E+00
    0.00000E+00         0.26362E-01         0.00000E+00
    0.00000E+00         0.24758E-01         0.00000E+00
    0.00000E+00         0.23140E-01         0.00000E+00
    0.00000E+00         0.21504E-01         0.00000E+00
    0.00000E+00         0.19847E-01         0.00000E+00
    0.00000E+00         0.18164E-01         0.00000E+00
    0.00000E+00         0.16448E-01         0.00000E+00
    0.00000E+00         0.14693E-01         0.00000E+00
    0.00000E+00         0.12890E-01         0.00000E+00
    0.00000E+00         0.11028E-01         0.00000E+00
    0.00000E+00         0.90923E-02         0.00000E+00
    0.00000E+00         0.70642E-02         0.00000E+00
    0.00000E+00         0.49116E-02         0.00000E+00
    0.00000E+00         0.25853E-02         0.00000E+00
    0.00000E+00         0.00000E+00         0.00000E+00
    0.11636E-01         0.89400E-01         0.00000E+00
    0.10636E-01         0.87469E-01         0.00000E+00
    0.97992E-02         0.85510E-01         0.00000E+00
    0.90916E-02         0.83545E-01         0.00000E+00
    0.84867E-02         0.81573E-01         0.00000E+00
    0.79626E-02         0.79590E-01         0.00000E+00
    0.75035E-02         0.77606E-01         0.00000E+00
    0.70982E-02         0.75627E-01         0.00000E+00
    0.67375E-02         0.73659E-01         0.00000E+00
    0.64137E-02         0.71706E-01         0.00000E+00
    0.61195E-02         0.69771E-01         0.00000E+00
    0.58503E-02         0.67856E-01         0.00000E+00
    0.56026E-02         0.65964E-01         0.00000E+00
    0.53733E-02         0.64095E-01         0.00000E+00
    0.51590E-02         0.62251E-01         0.00000E+00
    0.49588E-02         0.60431E-01         0.00000E+00
    0.47711E-02         0.58635E-01         0.00000E+00
    0.45946E-02         0.56862E-01         0.00000E+00
    0.44280E-02         0.55113E-01         0.00000E+00
    0.42700E-02         0.53386E-01         0.00000E+00
    0.41204E-02         0.51680E-01         0.00000E+00
    0.39789E-02         0.49994E-01         0.00000E+00
    0.38451E-02         0.48328E-01         0.00000E+00
    0.37182E-02         0.46681E-01         0.00000E+00
    0.35974E-02         0.45052E-01         0.00000E+00
    0.34825E-02         0.43438E-01         0.00000E+00
    0.33729E-02         0.41840E-01         0.00000E+00
    0.32681E-02         0.40254E-01         0.00000E+00
    0.31670E-02         0.38680E-01         0.00000E+00
    0.30692E-02         0.37114E-01         0.00000E+00
    0.29743E-02         0.35556E-01         0.00000E+00
    0.28823E-02         0.34001E-01         0.00000E+00
    0.27931E-02         0.32448E-01         0.00000E+00
    0.27067E-02         0.30894E-01         0.00000E+00
    0.26226E-02         0.29335E-01         0.00000E+00
    0.25407E-02         0.27770E-01         0.00000E+00
    0.24601E-02         0.26196E-01         0.00000E+00
    0.23802E-02         0.24609E-01         0.00000E+00
    0.22997E-02         0.23006E-01         0.00000E+00
    0.22175E-02         0.21384E-01         0.00000E+00
    0.21322E-02         0.19739E-01         0.00000E+00
    0.20419E-02         0.18066E-01         0.00000E+00
    0.19446E-02         0.16359E-01         0.00000E+00
    0.18374E-02         0.14609E-01         0.00000E+00
    0.17168E-02         0.12809E-01         0.00000E+00
    0.15781E-02         0.10946E-01         0.00000E+00
    0.14145E-02         0.90072E-02         0.00000E+00
    0.12098E-02         0.69740E-02         0.00000E+00
    0.94072E-03         0.48199E-02         0.00000E+00
    0.56779E-03         0.25101E-02         0.00000E+00
    0.00000E+00         0.00000E+00         0.00000E+00
    0.18859E-01         0.83773E-01         0.00000E+00
    0.17674E-01         0.81976E-01         0.00000E+00
    0.16594E-01         0.80210E-01         0.00000E+00
    0.15615E-01         0.78459E-01         0.00000E+00
    0.14729E-01         0.76717E-01         0.00000E+00
    0.13927E-01         0.74984E-01         0.00000E+00
    0.13201E-01         0.73256E-01         0.00000E+00
    0.12542E-01         0.71532E-01         0.00000E+00
    0.11942E-01         0.69813E-01         0.00000E+00
    0.11394E-01         0.68099E-01         0.00000E+00
    0.10891E-01         0.66391E-01         0.00000E+00
    0.10428E-01         0.64691E-01         0.00000E+00
    0.10000E-01         0.63000E-01         0.00000E+00
    0.96037E-02         0.61319E-01         0.00000E+00
    0.92349E-02         0.59649E-01         0.00000E+00
    0.88905E-02         0.57992E-01         0.00000E+00
    0.85676E-02         0.56348E-01         0.00000E+00
    0.82639E-02         0.54716E-01         0.00000E+00
    0.79772E-02         0.53099E-01         0.00000E+00
    0.77058E-02         0.51496E-01         0.00000E+00
    0.74479E-02         0.49906E-01         0.00000E+00
    0.72019E-02         0.48331E-01         0.00000E+00
    0.69665E-02         0.46769E-01         0.00000E+00
    0.67404E-02         0.45220E-01         0.00000E+00
    0.65225E-02         0.43684E-01         0.00000E+00
    0.63115E-02         0.42159E-01         0.00000E+00
    0.61066E-02         0.40644E-01         0.00000E+00
    0.59071E-02         0.39139E-01         0.00000E+00
    0.57122E-02         0.37642E-01         0.00000E+00
    0.55214E-02         0.36150E-01         0.00000E+00
    0.53344E-02         0.34663E-01         0.00000E+00
    0.51511E-02         0.33178E-01         0.00000E+00
    0.49713E-02         0.31693E-01         0.00000E+00
    0.47950E-02         0.30203E-01         0.00000E+00
    0.46221E-02         0.28706E-01         0.00000E+00
    0.44522E-02         0.27199E-01         0.00000E+00
    0.42846E-02         0.25677E-01         0.00000E+00
    0.41178E-02         0.24138E-01         0.00000E+00
    0.39502E-02         0.22577E-01         0.00000E+00
    0.37792E-02         0.20992E-01         0.00000E+00
    0.36018E-02         0.19378E-01         0.00000E+00
    0.34144E-02         0.17730E-01         0.00000E+00
    0.32128E-02         0.16043E-01         0.00000E+00
    0.29919E-02         0.14309E-01         0.00000E+00
    0.27458E-02         0.12520E-01         0.00000E+00
    0.24670E-02         0.10664E-01         0.00000E+00
    0.21475E-02         0.87289E-02         0.00000E+00
    0.17643E-02         0.67029E-02         0.00000E+00
    0.12939E-02         0.45745E-02         0.00000E+00
    0.70910E-03         0.23365E-02         0.00000E+00
    0.00000E+00         0.00000E+00         0.00000E+00
    0.23831E-01         0.77067E-01         0.00000E+00
    0.22531E-01         0.75603E-01         0.00000E+00
    0.21353E-01         0.74133E-01         0.00000E+00
    0.20275E-01         0.72660E-01         0.00000E+00
    0.19285E-01         0.71183E-01         0.00000E+00
    0.18372E-01         0.69701E-01         0.00000E+00
    0.17528E-01         0.68215E-01         0.00000E+00
    0.16746E-01         0.66726E-01         0.00000E+00
    0.16021E-01         0.65234E-01         0.00000E+00
    0.15347E-01         0.63740E-01         0.00000E+00
    0.14720E-01         0.62245E-01         0.00000E+00
    0.14135E-01         0.60750E-01         0.00000E+00
    0.13589E-01         0.59256E-01         0.00000E+00
    0.13077E-01         0.57764E-01         0.00000E+00
    0.12596E-01         0.56275E-01         0.00000E+00
    0.12143E-01         0.54789E-01         0.00000E+00
    0.11716E-01         0.53309E-01         0.00000E+00
    0.11311E-01         0.51833E-01         0.00000E+00
    0.10926E-01         0.50364E-01         0.00000E+00
    0.10559E-01         0.48901E-01         0.00000E+00
    0.10207E-01         0.47444E-01         0.00000E+00
    0.98703E-02         0.45994E-01         0.00000E+00
    0.95453E-02         0.44552E-01         0.00000E+00
    0.92309E-02         0.43116E-01         0.00000E+00
    0.89258E-02         0.41687E-01         0.00000E+00
    0.86285E-02         0.40265E-01         0.00000E+00
    0.83378E-02         0.38848E-01         0.00000E+00
    0.80525E-02         0.37438E-01         0.00000E+00
    0.77716E-02         0.36032E-01         0.00000E+00
    0.74941E-02         0.34630E-01         0.00000E+00
    0.72193E-02         0.33231E-01         0.00000E+00
    0.69466E-02         0.31832E-01         0.00000E+00
    0.66757E-02         0.30433E-01         0.00000E+00
    0.64062E-02         0.29030E-01         0.00000E+00
    0.61384E-02         0.27618E-01         0.00000E+00
    0.58723E-02         0.26195E-01         0.00000E+00
    0.56081E-02         0.24753E-01         0.00000E+00
    0.53453E-02         0.23288E-01         0.00000E+00
    0.50819E-02         0.21795E-01         0.00000E+00
    0.48153E-02         0.20269E-01         0.00000E+00
    0.45419E-02         0.18705E-01         0.00000E+00
    0.42567E-02         0.17099E-01         0.00000E+00
    0.39539E-02         0.15448E-01         0.00000E+00
    0.36270E-02         0.13745E-01         0.00000E+00
    0.32691E-02         0.11985E-01         0.00000E+00
    0.28734E-02         0.10162E-01         0.00000E+00
    0.24336E-02         0.82715E-02         0.00000E+00
    0.19414E-02         0.63085E-02         0.00000E+00
    0.13786E-02         0.42723E-02         0.00000E+00
    0.73464E-03         0.21683E-02         0.00000E+00
    0.00000E+00         0.00000E+00         0.00000E+00
    0.27129E-01         0.70497E-01         0.00000E+00
    0.25932E-01         0.69272E-01         0.00000E+00
    0.24800E-01         0.68038E-01         0.00000E+00
    0.23732E-01         0.66794E-01         0.00000E+00
    0.22727E-01         0.65536E-01         0.00000E+00
    0.21781E-01         0.64266E-01         0.00000E+00
    0.20891E-01         0.62985E-01         0.00000E+00
    0.20053E-01         0.61696E-01         0.00000E+00
    0.19264E-01         0.60398E-01         0.00000E+00
    0.18520E-01         0.59094E-01         0.00000E+00
    0.17818E-01         0.57784E-01         0.00000E+00
    0.17155E-01         0.56470E-01         0.00000E+00
    0.16528E-01         0.55152E-01         0.00000E+00
    0.15934E-01         0.53831E-01         0.00000E+00
    0.15370E-01         0.52508E-01         0.00000E+00
    0.14835E-01         0.51183E-01         0.00000E+00
    0.14325E-01         0.49855E-01         0.00000E+00
    0.13838E-01         0.48526E-01         0.00000E+00
    0.13372E-01         0.47196E-01         0.00000E+00
    0.12925E-01         0.45866E-01         0.00000E+00
    0.12495E-01         0.44536E-01         0.00000E+00
    0.12079E-01         0.43208E-01         0.00000E+00
    0.11677E-01         0.41880E-01         0.00000E+00
    0.11286E-01         0.40555E-01         0.00000E+00
    0.10904E-01         0.39231E-01         0.00000E+00
    0.10531E-01         0.37908E-01         0.00000E+00
    0.10164E-01         0.36587E-01         0.00000E+00
    0.98028E-02         0.35267E-01         0.00000E+00
    0.94451E-02         0.33949E-01         0.00000E+00
    0.90899E-02         0.32632E-01         0.00000E+00
    0.87358E-02         0.31315E-01         0.00000E+00
    0.83816E-02         0.29998E-01         0.00000E+00
    0.80263E-02         0.28679E-01         0.00000E+00
    0.76688E-02         0.27359E-01         0.00000E+00
    0.73085E-02         0.26035E-01         0.00000E+00
    0.69453E-02         0.24704E-01         0.00000E+00
    0.65800E-02         0.23362E-01         0.00000E+00
    0.62129E-02         0.21999E-01         0.00000E+00
    0.58450E-02         0.20605E-01         0.00000E+00
    0.54758E-02         0.19177E-01         0.00000E+00
    0.51023E-02         0.17702E-01         0.00000E+00
    0.47207E-02         0.16177E-01         0.00000E+00
    0.43255E-02         0.14597E-01         0.00000E+00
    0.39103E-02         0.12961E-01         0.00000E+00
    0.34696E-02         0.11270E-01         0.00000E+00
    0.29977E-02         0.95226E-02         0.00000E+00
    0.24893E-02         0.77206E-02         0.00000E+00
    0.19413E-02         0.58650E-02         0.00000E+00
    0.13515E-02         0.39587E-02         0.00000E+00
    0.70804E-03         0.20027E-02         0.00000E+00
    0.00000E+00         0.00000E+00         0.00000E+00
    0.29425E-01         0.64777E-01         0.00000E+00
    0.28345E-01         0.63634E-01         0.00000E+00
    0.27294E-01         0.62495E-01         0.00000E+00
    0.26280E-01         0.61355E-01         0.00000E+00
    0.25305E-01         0.60215E-01         0.00000E+00
    0.24370E-01         0.59072E-01         0.00000E+00
    0.23476E-01         0.57926E-01         0.00000E+00
    0.22622E-01         0.56774E-01         0.00000E+00
    0.21806E-01         0.55618E-01         0.00000E+00
    0.21028E-01         0.54456E-01         0.00000E+00
    0.20286E-01         0.53288E-01         0.00000E+00
    0.19576E-01         0.52114E-01         0.00000E+00
    0.18899E-01         0.50935E-01         0.00000E+00
    0.18251E-01         0.49751E-01         0.00000E+00
    0.17630E-01         0.48561E-01         0.00000E+00
    0.17034E-01         0.47366E-01         0.00000E+00
    0.16462E-01         0.46167E-01         0.00000E+00
    0.15912E-01         0.44963E-01         0.00000E+00
    0.15381E-01         0.43755E-01         0.00000E+00
    0.14869E-01         0.42543E-01         0.00000E+00
    0.14373E-01         0.41327E-01         0.00000E+00
    0.13891E-01         0.40108E-01         0.00000E+00
    0.13422E-01         0.38885E-01         0.00000E+00
    0.12965E-01         0.37660E-01         0.00000E+00
    0.12516E-01         0.36432E-01         0.00000E+00
    0.12076E-01         0.35200E-01         0.00000E+00
    0.11642E-01         0.33966E-01         0.00000E+00
    0.11213E-01         0.32729E-01         0.00000E+00
    0.10788E-01         0.31490E-01         0.00000E+00
    0.10365E-01         0.30248E-01         0.00000E+00
    0.99422E-02         0.29003E-01         0.00000E+00
    0.95188E-02         0.27756E-01         0.00000E+00
    0.90933E-02         0.26506E-01         0.00000E+00
    0.86642E-02         0.25253E-01         0.00000E+00
    0.82302E-02         0.23998E-01         0.00000E+00
    0.77896E-02         0.22742E-01         0.00000E+00
    0.73412E-02         0.21484E-01         0.00000E+00
    0.68844E-02         0.20220E-01         0.00000E+00
    0.64202E-02         0.18949E-01         0.00000E+00
    0.59485E-02         0.17648E-01         0.00000E+00
    0.54716E-02         0.16314E-01         0.00000E+00
    0.49904E-02         0.14931E-01         0.00000E+00
    0.45053E-02         0.13491E-01         0.00000E+00
    0.40156E-02         0.11994E-01         0.00000E+00
    0.35153E-02         0.10434E-01         0.00000E+00
    0.29974E-02         0.88156E-02         0.00000E+00
    0.24563E-02         0.71418E-02         0.00000E+00
    0.18890E-02         0.54186E-02         0.00000E+00
    0.12902E-02         0.36508E-02         0.00000E+00
    0.65949E-03         0.18424E-02         0.00000E+00
    0.00000E+00         0.00000E+00         0.00000E+00
    0.31069E-01         0.59416E-01         0.00000E+00
    0.30040E-01         0.58370E-01         0.00000E+00
    0.29043E-01         0.57324E-01         0.00000E+00
    0.28077E-01         0.56277E-01         0.00000E+00
    0.27141E-01         0.55229E-01         0.00000E+00
    0.26236E-01         0.54180E-01         0.00000E+00
    0.25361E-01         0.53129E-01         0.00000E+00
    0.24517E-01         0.52075E-01         0.00000E+00
    0.23702E-01         0.51018E-01         0.00000E+00
    0.22916E-01         0.49958E-01         0.00000E+00
    0.22159E-01         0.48894E-01         0.00000E+00
    0.21428E-01         0.47825E-01         0.00000E+00
    0.20723E-01         0.46751E-01         0.00000E+00
    0.20043E-01         0.45673E-01         0.00000E+00
    0.19386E-01         0.44589E-01         0.00000E+00
    0.18751E-01         0.43500E-01         0.00000E+00
    0.18136E-01         0.42405E-01         0.00000E+00
    0.17539E-01         0.41305E-01         0.00000E+00
    0.16961E-01         0.40200E-01         0.00000E+00
    0.16398E-01         0.39089E-01         0.00000E+00
    0.15850E-01         0.37972E-01         0.00000E+00
    0.15315E-01         0.36850E-01         0.00000E+00
    0.14791E-01         0.35723E-01         0.00000E+00
    0.14278E-01         0.34590E-01         0.00000E+00
    0.13773E-01         0.33452E-01         0.00000E+00
    0.13276E-01         0.32309E-01         0.00000E+00
    0.12785E-01         0.31160E-01         0.00000E+00
    0.12298E-01         0.30006E-01         0.00000E+00
    0.11815E-01         0.28847E-01         0.00000E+00
    0.11334E-01         0.27683E-01         0.00000E+00
    0.10854E-01         0.26513E-01         0.00000E+00
    0.10374E-01         0.25338E-01         0.00000E+00
    0.98917E-02         0.24158E-01         0.00000E+00
    0.94064E-02         0.22972E-01         0.00000E+00
    0.89169E-02         0.21780E-01         0.00000E+00
    0.84215E-02         0.20583E-01         0.00000E+00
    0.79188E-02         0.19379E-01         0.00000E+00
    0.74071E-02         0.18171E-01         0.00000E+00
    0.68841E-02         0.16957E-01         0.00000E+00
    0.63492E-02         0.15740E-01         0.00000E+00
    0.58039E-02         0.14521E-01         0.00000E+00
    0.52488E-02         0.13289E-01         0.00000E+00
    0.46896E-02         0.12044E-01         0.00000E+00
    0.41228E-02         0.10745E-01         0.00000E+00
    0.35542E-02         0.93933E-02         0.00000E+00
    0.29832E-02         0.79744E-02         0.00000E+00
    0.24108E-02         0.64884E-02         0.00000E+00
    0.18347E-02         0.49431E-02         0.00000E+00
    0.12428E-02         0.33399E-02         0.00000E+00
    0.63458E-03         0.16905E-02         0.00000E+00
    0.00000E+00         0.00000E+00         0.00000E+00
    0.32104E-01         0.54335E-01         0.00000E+00
    0.31129E-01         0.53375E-01         0.00000E+00
    0.30180E-01         0.52415E-01         0.00000E+00
    0.29257E-01         0.51455E-01         0.00000E+00
    0.28360E-01         0.50493E-01         0.00000E+00
    0.27487E-01         0.49530E-01         0.00000E+00
    0.26640E-01         0.48565E-01         0.00000E+00
    0.25815E-01         0.47597E-01         0.00000E+00
    0.25015E-01         0.46627E-01         0.00000E+00
    0.24237E-01         0.45653E-01         0.00000E+00
    0.23482E-01         0.44677E-01         0.00000E+00
    0.22747E-01         0.43696E-01         0.00000E+00
    0.22034E-01         0.42711E-01         0.00000E+00
    0.21340E-01         0.41721E-01         0.00000E+00
    0.20664E-01         0.40727E-01         0.00000E+00
    0.20007E-01         0.39727E-01         0.00000E+00
    0.19366E-01         0.38722E-01         0.00000E+00
    0.18741E-01         0.37712E-01         0.00000E+00
    0.18130E-01         0.36696E-01         0.00000E+00
    0.17532E-01         0.35674E-01         0.00000E+00
    0.16947E-01         0.34646E-01         0.00000E+00
    0.16373E-01         0.33613E-01         0.00000E+00
    0.15808E-01         0.32573E-01         0.00000E+00
    0.15252E-01         0.31527E-01         0.00000E+00
    0.14704E-01         0.30475E-01         0.00000E+00
    0.14163E-01         0.29416E-01         0.00000E+00
    0.13626E-01         0.28351E-01         0.00000E+00
    0.13094E-01         0.27280E-01         0.00000E+00
    0.12565E-01         0.26202E-01         0.00000E+00
    0.12037E-01         0.25118E-01         0.00000E+00
    0.11511E-01         0.24027E-01         0.00000E+00
    0.10984E-01         0.22929E-01         0.00000E+00
    0.10456E-01         0.21825E-01         0.00000E+00
    0.99254E-02         0.20714E-01         0.00000E+00
    0.93915E-02         0.19596E-01         0.00000E+00
    0.88531E-02         0.18472E-01         0.00000E+00
    0.83095E-02         0.17340E-01         0.00000E+00
    0.77596E-02         0.16202E-01         0.00000E+00
    0.72030E-02         0.15056E-01         0.00000E+00
    0.66387E-02         0.13903E-01         0.00000E+00
    0.60652E-02         0.12742E-01         0.00000E+00
    0.54818E-02         0.11575E-01         0.00000E+00
    0.48864E-02         0.10402E-01         0.00000E+00
    0.42811E-02         0.92258E-02         0.00000E+00
    0.36705E-02         0.80465E-02         0.00000E+00
    0.30565E-02         0.68473E-02         0.00000E+00
    0.24472E-02         0.56211E-02         0.00000E+00
    0.18337E-02         0.43249E-02         0.00000E+00
    0.12247E-02         0.29616E-02         0.00000E+00
    0.61401E-03         0.15173E-02         0.00000E+00
    0.00000E+00         0.00000E+00         0.00000E+00
    0.32600E-01         0.49543E-01         0.00000E+00
    0.31683E-01         0.48663E-01         0.00000E+00
    0.30787E-01         0.47782E-01         0.00000E+00
    0.29912E-01         0.46901E-01         0.00000E+00
    0.29057E-01         0.46018E-01         0.00000E+00
    0.28222E-01         0.45134E-01         0.00000E+00
    0.27407E-01         0.44248E-01         0.00000E+00
    0.26610E-01         0.43359E-01         0.00000E+00
    0.25832E-01         0.42468E-01         0.00000E+00
    0.25072E-01         0.41574E-01         0.00000E+00
    0.24329E-01         0.40677E-01         0.00000E+00
    0.23603E-01         0.39776E-01         0.00000E+00
    0.22893E-01         0.38870E-01         0.00000E+00
    0.22198E-01         0.37961E-01         0.00000E+00
    0.21518E-01         0.37048E-01         0.00000E+00
    0.20853E-01         0.36129E-01         0.00000E+00
    0.20200E-01         0.35205E-01         0.00000E+00
    0.19559E-01         0.34277E-01         0.00000E+00
    0.18931E-01         0.33343E-01         0.00000E+00
    0.18312E-01         0.32403E-01         0.00000E+00
    0.17704E-01         0.31458E-01         0.00000E+00
    0.17104E-01         0.30506E-01         0.00000E+00
    0.16512E-01         0.29549E-01         0.00000E+00
    0.15928E-01         0.28586E-01         0.00000E+00
    0.15349E-01         0.27616E-01         0.00000E+00
    0.14776E-01         0.26641E-01         0.00000E+00
    0.14207E-01         0.25658E-01         0.00000E+00
    0.13641E-01         0.24670E-01         0.00000E+00
    0.13078E-01         0.23675E-01         0.00000E+00
    0.12516E-01         0.22674E-01         0.00000E+00
    0.11955E-01         0.21666E-01         0.00000E+00
    0.11394E-01         0.20651E-01         0.00000E+00
    0.10832E-01         0.19630E-01         0.00000E+00
    0.10269E-01         0.18602E-01         0.00000E+00
    0.97023E-02         0.17568E-01         0.00000E+00
    0.91327E-02         0.16527E-01         0.00000E+00
    0.85592E-02         0.15479E-01         0.00000E+00
    0.79812E-02         0.14425E-01         0.00000E+00
    0.73980E-02         0.13364E-01         0.00000E+00
    0.68091E-02         0.12297E-01         0.00000E+00
    0.62145E-02         0.11222E-01         0.00000E+00
    0.56138E-02         0.10141E-01         0.00000E+00
    0.50074E-02         0.90528E-02         0.00000E+00
    0.43948E-02         0.79563E-02         0.00000E+00
    0.37747E-02         0.68512E-02         0.00000E+00
    0.31477E-02         0.57407E-02         0.00000E+00
    0.25126E-02         0.46240E-02         0.00000E+00
    0.18751E-02         0.35039E-02         0.00000E+00
    0.12417E-02         0.23750E-02         0.00000E+00
    0.61617E-03         0.12166E-02         0.00000E+00
    0.00000E+00         0.00000E+00         0.00000E+00
    0.32637E-01         0.45065E-01         0.00000E+00
    0.31783E-01         0.44258E-01         0.00000E+00
    0.30944E-01         0.43450E-01         0.00000E+00
    0.30122E-01         0.42641E-01         0.00000E+00
    0.29314E-01         0.41831E-01         0.00000E+00
    0.28522E-01         0.41020E-01         0.00000E+00
    0.27745E-01         0.40207E-01         0.00000E+00
    0.26982E-01         0.39391E-01         0.00000E+00
    0.26233E-01         0.38573E-01         0.00000E+00
    0.25498E-01         0.37752E-01         0.00000E+00
    0.24776E-01         0.36928E-01         0.00000E+00
    0.24067E-01         0.36101E-01         0.00000E+00
    0.23370E-01         0.35270E-01         0.00000E+00
    0.22685E-01         0.34435E-01         0.00000E+00
    0.22011E-01         0.33597E-01         0.00000E+00
    0.21347E-01         0.32753E-01         0.00000E+00
    0.20694E-01         0.31906E-01         0.00000E+00
    0.20050E-01         0.31053E-01         0.00000E+00
    0.19415E-01         0.30196E-01         0.00000E+00
    0.18788E-01         0.29334E-01         0.00000E+00
    0.18168E-01         0.28466E-01         0.00000E+00
    0.17556E-01         0.27594E-01         0.00000E+00
    0.16949E-01         0.26716E-01         0.00000E+00
    0.16348E-01         0.25832E-01         0.00000E+00
    0.15751E-01         0.24943E-01         0.00000E+00
    0.15158E-01         0.24048E-01         0.00000E+00
    0.14569E-01         0.23148E-01         0.00000E+00
    0.13982E-01         0.22242E-01         0.00000E+00
    0.13397E-01         0.21330E-01         0.00000E+00
    0.12813E-01         0.20412E-01         0.00000E+00
    0.12230E-01         0.19489E-01         0.00000E+00
    0.11647E-01         0.18560E-01         0.00000E+00
    0.11062E-01         0.17626E-01         0.00000E+00
    0.10477E-01         0.16686E-01         0.00000E+00
    0.98895E-02         0.15741E-01         0.00000E+00
    0.92995E-02         0.14790E-01         0.00000E+00
    0.87067E-02         0.13834E-01         0.00000E+00
    0.81104E-02         0.12872E-01         0.00000E+00
    0.75105E-02         0.11906E-01         0.00000E+00
    0.69064E-02         0.10935E-01         0.00000E+00
    0.62980E-02         0.99586E-02         0.00000E+00
    0.56852E-02         0.89779E-02         0.00000E+00
    0.50676E-02         0.79928E-02         0.00000E+00
    0.44454E-02         0.70038E-02         0.00000E+00
    0.38192E-02         0.60111E-02         0.00000E+00
    0.31892E-02         0.50145E-02         0.00000E+00
    0.25565E-02         0.40145E-02         0.00000E+00
    0.19206E-02         0.30105E-02         0.00000E+00
    0.12812E-02         0.20038E-02         0.00000E+00
    0.63986E-03         0.99925E-03         0.00000E+00
    0.00000E+00         0.00000E+00         0.00000E+00
    0.32297E-01         0.40923E-01         0.00000E+00
    0.31508E-01         0.40182E-01         0.00000E+00
    0.30731E-01         0.39441E-01         0.00000E+00
    0.29964E-01         0.38698E-01         0.00000E+00
    0.29208E-01         0.37955E-01         0.00000E+00
    0.28463E-01         0.37210E-01         0.00000E+00
    0.27729E-01         0.36464E-01         0.00000E+00
    0.27005E-01         0.35715E-01         0.00000E+00
    0.26291E-01         0.34965E-01         0.00000E+00
    0.25586E-01         0.34212E-01         0.00000E+00
    0.24892E-01         0.33456E-01         0.00000E+00
    0.24206E-01         0.32697E-01         0.00000E+00
    0.23530E-01         0.31935E-01         0.00000E+00
    0.22861E-01         0.31169E-01         0.00000E+00
    0.22202E-01         0.30400E-01         0.00000E+00
    0.21549E-01         0.29628E-01         0.00000E+00
    0.20904E-01         0.28851E-01         0.00000E+00
    0.20266E-01         0.28070E-01         0.00000E+00
    0.19635E-01         0.27286E-01         0.00000E+00
    0.19009E-01         0.26496E-01         0.00000E+00
    0.18389E-01         0.25703E-01         0.00000E+00
    0.17773E-01         0.24905E-01         0.00000E+00
    0.17162E-01         0.24102E-01         0.00000E+00
    0.16555E-01         0.23295E-01         0.00000E+00
    0.15951E-01         0.22483E-01         0.00000E+00
    0.15350E-01         0.21666E-01         0.00000E+00
    0.14751E-01         0.20845E-01         0.00000E+00
    0.14154E-01         0.20019E-01         0.00000E+00
    0.13558E-01         0.19188E-01         0.00000E+00
    0.12963E-01         0.18353E-01         0.00000E+00
    0.12368E-01         0.17513E-01         0.00000E+00
    0.11773E-01         0.16668E-01         0.00000E+00
    0.11177E-01         0.15820E-01         0.00000E+00
    0.10581E-01         0.14967E-01         0.00000E+00
    0.99821E-02         0.14110E-01         0.00000E+00
    0.93817E-02         0.13248E-01         0.00000E+00
    0.87790E-02         0.12383E-01         0.00000E+00
    0.81737E-02         0.11515E-01         0.00000E+00
    0.75655E-02         0.10643E-01         0.00000E+00
    0.69542E-02         0.97675E-02         0.00000E+00
    0.63396E-02         0.88893E-02         0.00000E+00
    0.57216E-02         0.80083E-02         0.00000E+00
    0.51001E-02         0.71249E-02         0.00000E+00
    0.44751E-02         0.62392E-02         0.00000E+00
    0.38465E-02         0.53517E-02         0.00000E+00
    0.32144E-02         0.44626E-02         0.00000E+00
    0.25786E-02         0.35722E-02         0.00000E+00
    0.19395E-02         0.26810E-02         0.00000E+00
    0.12973E-02         0.17892E-02         0.00000E+00
    0.65140E-03         0.89574E-03         0.00000E+00
    0.00000E+00         0.00000E+00         0.00000E+00
    0.31658E-01         0.37125E-01         0.00000E+00
    0.30936E-01         0.36444E-01         0.00000E+00
    0.30221E-01         0.35763E-01         0.00000E+00
    0.29512E-01         0.35081E-01         0.00000E+00
    0.28810E-01         0.34399E-01         0.00000E+00
    0.28114E-01         0.33715E-01         0.00000E+00
    0.27426E-01         0.33030E-01         0.00000E+00
    0.26744E-01         0.32343E-01         0.00000E+00
    0.26069E-01         0.31654E-01         0.00000E+00
    0.25400E-01         0.30963E-01         0.00000E+00
    0.24737E-01         0.30270E-01         0.00000E+00
    0.24081E-01         0.29574E-01         0.00000E+00
    0.23430E-01         0.28876E-01         0.00000E+00
    0.22785E-01         0.28175E-01         0.00000E+00
    0.22146E-01         0.27471E-01         0.00000E+00
    0.21512E-01         0.26763E-01         0.00000E+00
    0.20883E-01         0.26053E-01         0.00000E+00
    0.20258E-01         0.25339E-01         0.00000E+00
    0.19637E-01         0.24622E-01         0.00000E+00
    0.19021E-01         0.23901E-01         0.00000E+00
    0.18408E-01         0.23176E-01         0.00000E+00
    0.17798E-01         0.22448E-01         0.00000E+00
    0.17191E-01         0.21717E-01         0.00000E+00
    0.16587E-01         0.20981E-01         0.00000E+00
    0.15985E-01         0.20242E-01         0.00000E+00
    0.15384E-01         0.19499E-01         0.00000E+00
    0.14785E-01         0.18752E-01         0.00000E+00
    0.14187E-01         0.18001E-01         0.00000E+00
    0.13589E-01         0.17247E-01         0.00000E+00
    0.12992E-01         0.16490E-01         0.00000E+00
    0.12395E-01         0.15729E-01         0.00000E+00
    0.11797E-01         0.14964E-01         0.00000E+00
    0.11198E-01         0.14196E-01         0.00000E+00
    0.10598E-01         0.13425E-01         0.00000E+00
    0.99968E-02         0.12651E-01         0.00000E+00
    0.93937E-02         0.11875E-01         0.00000E+00
    0.87887E-02         0.11095E-01         0.00000E+00
    0.81814E-02         0.10313E-01         0.00000E+00
    0.75717E-02         0.95283E-02         0.00000E+00
    0.69593E-02         0.87416E-02         0.00000E+00
    0.63441E-02         0.79530E-02         0.00000E+00
    0.57258E-02         0.71625E-02         0.00000E+00
    0.51044E-02         0.63705E-02         0.00000E+00
    0.44797E-02         0.55772E-02         0.00000E+00
    0.38515E-02         0.47826E-02         0.00000E+00
    0.32198E-02         0.39870E-02         0.00000E+00
    0.25843E-02         0.31906E-02         0.00000E+00
    0.19448E-02         0.23935E-02         0.00000E+00
    0.13010E-02         0.15957E-02         0.00000E+00
    0.65267E-03         0.79773E-03         0.00000E+00
    0.00000E+00         0.00000E+00         0.00000E+00
    0.30793E-01         0.33667E-01         0.00000E+00
    0.30136E-01         0.33041E-01         0.00000E+00
    0.29482E-01         0.32415E-01         0.00000E+00
    0.28830E-01         0.31788E-01         0.00000E+00
    0.28182E-01         0.31161E-01         0.00000E+00
    0.27538E-01         0.30533E-01         0.00000E+00
    0.26897E-01         0.29903E-01         0.00000E+00
    0.26259E-01         0.29273E-01         0.00000E+00
    0.25625E-01         0.28640E-01         0.00000E+00
    0.24994E-01         0.28007E-01         0.00000E+00
    0.24367E-01         0.27371E-01         0.00000E+00
    0.23743E-01         0.26733E-01         0.00000E+00
    0.23123E-01         0.26093E-01         0.00000E+00
    0.22506E-01         0.25451E-01         0.00000E+00
    0.21892E-01         0.24807E-01         0.00000E+00
    0.21281E-01         0.24160E-01         0.00000E+00
    0.20672E-01         0.23510E-01         0.00000E+00
    0.20067E-01         0.22858E-01         0.00000E+00
    0.19464E-01         0.22203E-01         0.00000E+00
    0.18862E-01         0.21545E-01         0.00000E+00
    0.18263E-01         0.20885E-01         0.00000E+00
    0.17666E-01         0.20221E-01         0.00000E+00
    0.17070E-01         0.19555E-01         0.00000E+00
    0.16476E-01         0.18886E-01         0.00000E+00
    0.15882E-01         0.18214E-01         0.00000E+00
    0.15289E-01         0.17539E-01         0.00000E+00
    0.14697E-01         0.16861E-01         0.00000E+00
    0.14105E-01         0.16181E-01         0.00000E+00
    0.13512E-01         0.15497E-01         0.00000E+00
    0.12920E-01         0.14811E-01         0.00000E+00
    0.12327E-01         0.14123E-01         0.00000E+00
    0.11733E-01         0.13432E-01         0.00000E+00
    0.11137E-01         0.12738E-01         0.00000E+00
    0.10541E-01         0.12042E-01         0.00000E+00
    0.99431E-02         0.11344E-01         0.00000E+00
    0.93433E-02         0.10644E-01         0.00000E+00
    0.87415E-02         0.99425E-02         0.00000E+00
    0.81375E-02         0.92387E-02         0.00000E+00
    0.75311E-02         0.85334E-02         0.00000E+00
    0.69222E-02         0.78266E-02         0.00000E+00
    0.63104E-02         0.71184E-02         0.00000E+00
    0.56957E-02         0.64091E-02         0.00000E+00
    0.50778E-02         0.56988E-02         0.00000E+00
    0.44567E-02         0.49877E-02         0.00000E+00
    0.38320E-02         0.42759E-02         0.00000E+00
    0.32037E-02         0.35635E-02         0.00000E+00
    0.25715E-02         0.28508E-02         0.00000E+00
    0.19352E-02         0.21380E-02         0.00000E+00
    0.12947E-02         0.14251E-02         0.00000E+00
    0.64974E-03         0.71243E-03         0.00000E+00
    0.00000E+00         0.00000E+00         0.00000E+00
    0.29763E-01         0.30536E-01         0.00000E+00
    0.29168E-01         0.29960E-01         0.00000E+00
    0.28572E-01         0.29384E-01         0.00000E+00
    0.27977E-01         0.28807E-01         0.00000E+00
    0.27382E-01         0.28230E-01         0.00000E+00
    0.26788E-01         0.27653E-01         0.00000E+00
    0.26194E-01         0.27074E-01         0.00000E+00
    0.25601E-01         0.26495E-01         0.00000E+00
    0.25009E-01         0.25914E-01         0.00000E+00
    0.24418E-01         0.25332E-01         0.00000E+00
    0.23828E-01         0.24749E-01         0.00000E+00
    0.23239E-01         0.24164E-01         0.00000E+00
    0.22652E-01         0.23577E-01         0.00000E+00
    0.22065E-01         0.22989E-01         0.00000E+00
    0.21480E-01         0.22399E-01         0.00000E+00
    0.20896E-01         0.21807E-01         0.00000E+00
    0.20312E-01         0.21213E-01         0.00000E+00
    0.19730E-01         0.20617E-01         0.00000E+00
    0.19148E-01         0.20020E-01         0.00000E+00
    0.18567E-01         0.19420E-01         0.00000E+00
    0.17987E-01         0.18817E-01         0.00000E+00
    0.17407E-01         0.18213E-01         0.00000E+00
    0.16827E-01         0.17607E-01         0.00000E+00
    0.16247E-01         0.16998E-01         0.00000E+00
    0.15668E-01         0.16388E-01         0.00000E+00
    0.15088E-01         0.15775E-01         0.00000E+00
    0.14507E-01         0.15160E-01         0.00000E+00
    0.13926E-01         0.14543E-01         0.00000E+00
    0.13345E-01         0.13924E-01         0.00000E+00
    0.12762E-01         0.13303E-01         0.00000E+00
    0.12179E-01         0.12680E-01         0.00000E+00
    0.11594E-01         0.12056E-01         0.00000E+00
    0.11007E-01         0.11430E-01         0.00000E+00
    0.10419E-01         0.10802E-01         0.00000E+00
    0.98289E-02         0.10173E-01         0.00000E+00
    0.92369E-02         0.95418E-02         0.00000E+00
    0.86428E-02         0.89098E-02         0.00000E+00
    0.80462E-02         0.82766E-02         0.00000E+00
    0.74472E-02         0.76424E-02         0.00000E+00
    0.68454E-02         0.70073E-02         0.00000E+00
    0.62408E-02         0.63713E-02         0.00000E+00
    0.56331E-02         0.57348E-02         0.00000E+00
    0.50223E-02         0.50977E-02         0.00000E+00
    0.44081E-02         0.44602E-02         0.00000E+00
    0.37903E-02         0.38225E-02         0.00000E+00
    0.31689E-02         0.31847E-02         0.00000E+00
    0.25436E-02         0.25470E-02         0.00000E+00
    0.19142E-02         0.19095E-02         0.00000E+00
    0.12806E-02         0.12724E-02         0.00000E+00
    0.64261E-03         0.63583E-03         0.00000E+00
    0.00000E+00         0.00000E+00         0.00000E+00
    0.28619E-01         0.27712E-01         0.00000E+00
    0.28082E-01         0.27182E-01         0.00000E+00
    0.27543E-01         0.26651E-01         0.00000E+00
    0.27001E-01         0.26120E-01         0.00000E+00
    0.26457E-01         0.25589E-01         0.00000E+00
    0.25911E-01         0.25057E-01         0.00000E+00
    0.25363E-01         0.24525E-01         0.00000E+00
    0.24814E-01         0.23992E-01         0.00000E+00
    0.24264E-01         0.23458E-01         0.00000E+00
    0.23713E-01         0.22923E-01         0.00000E+00
    0.23161E-01         0.22388E-01         0.00000E+00
    0.22608E-01         0.21851E-01         0.00000E+00
    0.22054E-01         0.21313E-01         0.00000E+00
    0.21500E-01         0.20774E-01         0.00000E+00
    0.20945E-01         0.20233E-01         0.00000E+00
    0.20390E-01         0.19691E-01         0.00000E+00
    0.19834E-01         0.19148E-01         0.00000E+00
    0.19278E-01         0.18603E-01         0.00000E+00
    0.18720E-01         0.18057E-01         0.00000E+00
    0.18163E-01         0.17510E-01         0.00000E+00
    0.17604E-01         0.16960E-01         0.00000E+00
    0.17045E-01         0.16410E-01         0.00000E+00
    0.16485E-01         0.15858E-01         0.00000E+00
    0.15924E-01         0.15304E-01         0.00000E+00
    0.15362E-01         0.14749E-01         0.00000E+00
    0.14799E-01         0.14192E-01         0.00000E+00
    0.14235E-01         0.13634E-01         0.00000E+00
    0.13669E-01         0.13075E-01         0.00000E+00
    0.13102E-01         0.12514E-01         0.00000E+00
    0.12533E-01         0.11951E-01         0.00000E+00
    0.11963E-01         0.11388E-01         0.00000E+00
    0.11391E-01         0.10823E-01         0.00000E+00
    0.10817E-01         0.10258E-01         0.00000E+00
    0.10241E-01         0.96910E-02         0.00000E+00
    0.96626E-02         0.91234E-02         0.00000E+00
    0.90820E-02         0.85548E-02         0.00000E+00
    0.84989E-02         0.79856E-02         0.00000E+00
    0.79133E-02         0.74156E-02         0.00000E+00
    0.73249E-02         0.68451E-02         0.00000E+00
    0.67337E-02         0.62742E-02         0.00000E+00
    0.61394E-02         0.57029E-02         0.00000E+00
    0.55420E-02         0.51314E-02         0.00000E+00
    0.49413E-02         0.45599E-02         0.00000E+00
    0.43372E-02         0.39883E-02         0.00000E+00
    0.37295E-02         0.34170E-02         0.00000E+00
    0.31181E-02         0.28459E-02         0.00000E+00
    0.25029E-02         0.22753E-02         0.00000E+00
    0.18836E-02         0.17052E-02         0.00000E+00
    0.12601E-02         0.11359E-02         0.00000E+00
    0.63228E-03         0.56744E-03         0.00000E+00
    0.00000E+00         0.00000E+00         0.00000E+00
    0.27406E-01         0.25173E-01         0.00000E+00
    0.26922E-01         0.24684E-01         0.00000E+00
    0.26434E-01         0.24195E-01         0.00000E+00
    0.25942E-01         0.23705E-01         0.00000E+00
    0.25445E-01         0.23216E-01         0.00000E+00
    0.24945E-01         0.22726E-01         0.00000E+00
    0.24442E-01         0.22236E-01         0.00000E+00
    0.23935E-01         0.21745E-01         0.00000E+00
    0.23426E-01         0.21253E-01         0.00000E+00
    0.22914E-01         0.20762E-01         0.00000E+00
    0.22399E-01         0.20269E-01         0.00000E+00
    0.21882E-01         0.19776E-01         0.00000E+00
    0.21363E-01         0.19282E-01         0.00000E+00
    0.20842E-01         0.18787E-01         0.00000E+00
    0.20319E-01         0.18291E-01         0.00000E+00
    0.19793E-01         0.17795E-01         0.00000E+00
    0.19266E-01         0.17297E-01         0.00000E+00
    0.18737E-01         0.16799E-01         0.00000E+00
    0.18206E-01         0.16299E-01         0.00000E+00
    0.17674E-01         0.15799E-01         0.00000E+00
    0.17139E-01         0.15298E-01         0.00000E+00
    0.16603E-01         0.14795E-01         0.00000E+00
    0.16065E-01         0.14292E-01         0.00000E+00
    0.15525E-01         0.13788E-01         0.00000E+00
    0.14984E-01         0.13283E-01         0.00000E+00
    0.14440E-01         0.12777E-01         0.00000E+00
    0.13895E-01         0.12270E-01         0.00000E+00
    0.13347E-01         0.11762E-01         0.00000E+00
    0.12798E-01         0.11253E-01         0.00000E+00
    0.12246E-01         0.10743E-01         0.00000E+00
    0.11692E-01         0.10233E-01         0.00000E+00
    0.11136E-01         0.97223E-02         0.00000E+00
    0.10577E-01         0.92108E-02         0.00000E+00
    0.10016E-01         0.86988E-02         0.00000E+00
    0.94524E-02         0.81863E-02         0.00000E+00
    0.88861E-02         0.76734E-02         0.00000E+00
    0.83170E-02         0.71602E-02         0.00000E+00
    0.77451E-02         0.66468E-02         0.00000E+00
    0.71702E-02         0.61333E-02         0.00000E+00
    0.65922E-02         0.56197E-02         0.00000E+00
    0.60111E-02         0.51062E-02         0.00000E+00
    0.54267E-02         0.45929E-02         0.00000E+00
    0.48389E-02         0.40799E-02         0.00000E+00
    0.42476E-02         0.35672E-02         0.00000E+00
    0.36526E-02         0.30551E-02         0.00000E+00
    0.30539E-02         0.25436E-02         0.00000E+00
    0.24514E-02         0.20329E-02         0.00000E+00
    0.18448E-02         0.15230E-02         0.00000E+00
    0.12342E-02         0.10141E-02         0.00000E+00
    0.61927E-03         0.50643E-03         0.00000E+00
    0.00000E+00         0.00000E+00         0.00000E+00
    0.26155E-01         0.22894E-01         0.00000E+00
    0.25720E-01         0.22442E-01         0.00000E+00
    0.25279E-01         0.21991E-01         0.00000E+00
    0.24833E-01         0.21539E-01         0.00000E+00
    0.24381E-01         0.21087E-01         0.00000E+00
    0.23924E-01         0.20635E-01         0.00000E+00
    0.23462E-01         0.20183E-01         0.00000E+00
    0.22996E-01         0.19731E-01         0.00000E+00
    0.22525E-01         0.19278E-01         0.00000E+00
    0.22051E-01         0.18825E-01         0.00000E+00
    0.21573E-01         0.18372E-01         0.00000E+00
    0.21091E-01         0.17918E-01         0.00000E+00
    0.20605E-01         0.17464E-01         0.00000E+00
    0.20117E-01         0.17009E-01         0.00000E+00
    0.19625E-01         0.16554E-01         0.00000E+00
    0.19130E-01         0.16098E-01         0.00000E+00
    0.18632E-01         0.15642E-01         0.00000E+00
    0.18131E-01         0.15186E-01         0.00000E+00
    0.17627E-01         0.14728E-01         0.00000E+00
    0.17121E-01         0.14271E-01         0.00000E+00
    0.16612E-01         0.13812E-01         0.00000E+00
    0.16100E-01         0.13354E-01         0.00000E+00
    0.15586E-01         0.12894E-01         0.00000E+00
    0.15069E-01         0.12435E-01         0.00000E+00
    0.14549E-01         0.11974E-01         0.00000E+00
    0.14027E-01         0.11513E-01         0.00000E+00
    0.13503E-01         0.11052E-01         0.00000E+00
    0.12975E-01         0.10591E-01         0.00000E+00
    0.12445E-01         0.10128E-01         0.00000E+00
    0.11912E-01         0.96661E-02         0.00000E+00
    0.11377E-01         0.92035E-02         0.00000E+00
    0.10839E-01         0.87406E-02         0.00000E+00
    0.10297E-01         0.82776E-02         0.00000E+00
    0.97535E-02         0.78144E-02         0.00000E+00
    0.92067E-02         0.73512E-02         0.00000E+00
    0.86569E-02         0.68880E-02         0.00000E+00
    0.81040E-02         0.64249E-02         0.00000E+00
    0.75480E-02         0.59619E-02         0.00000E+00
    0.69888E-02         0.54992E-02         0.00000E+00
    0.64264E-02         0.50369E-02         0.00000E+00
    0.58606E-02         0.45749E-02         0.00000E+00
    0.52914E-02         0.41134E-02         0.00000E+00
    0.47187E-02         0.36526E-02         0.00000E+00
    0.41424E-02         0.31924E-02         0.00000E+00
    0.35625E-02         0.27331E-02         0.00000E+00
    0.29787E-02         0.22746E-02         0.00000E+00
    0.23911E-02         0.18172E-02         0.00000E+00
    0.17995E-02         0.13609E-02         0.00000E+00
    0.12039E-02         0.90586E-03         0.00000E+00
    0.60407E-03         0.45218E-03         0.00000E+00
    0.00000E+00         0.00000E+00         0.00000E+00
    0.24894E-01         0.20848E-01         0.00000E+00
    0.24503E-01         0.20431E-01         0.00000E+00
    0.24105E-01         0.20014E-01         0.00000E+00
    0.23700E-01         0.19597E-01         0.00000E+00
    0.23289E-01         0.19179E-01         0.00000E+00
    0.22872E-01         0.18762E-01         0.00000E+00
    0.22449E-01         0.18345E-01         0.00000E+00
    0.22020E-01         0.17927E-01         0.00000E+00
    0.21587E-01         0.17510E-01         0.00000E+00
    0.21148E-01         0.17092E-01         0.00000E+00
    0.20704E-01         0.16674E-01         0.00000E+00
    0.20256E-01         0.16256E-01         0.00000E+00
    0.19803E-01         0.15838E-01         0.00000E+00
    0.19346E-01         0.15420E-01         0.00000E+00
    0.18885E-01         0.15002E-01         0.00000E+00
    0.18420E-01         0.14583E-01         0.00000E+00
    0.17951E-01         0.14164E-01         0.00000E+00
    0.17479E-01         0.13745E-01         0.00000E+00
    0.17002E-01         0.13326E-01         0.00000E+00
    0.16523E-01         0.12907E-01         0.00000E+00
    0.16039E-01         0.12488E-01         0.00000E+00
    0.15553E-01         0.12068E-01         0.00000E+00
    0.15063E-01         0.11648E-01         0.00000E+00
    0.14570E-01         0.11228E-01         0.00000E+00
    0.14073E-01         0.10808E-01         0.00000E+00
    0.13573E-01         0.10388E-01         0.00000E+00
    0.13070E-01         0.99678E-02         0.00000E+00
    0.12564E-01         0.95475E-02         0.00000E+00
    0.12055E-01         0.91273E-02         0.00000E+00
    0.11543E-01         0.87071E-02         0.00000E+00
    0.11027E-01         0.82870E-02         0.00000E+00
    0.10509E-01         0.78671E-02         0.00000E+00
    0.99866E-02         0.74473E-02         0.00000E+00
    0.94615E-02         0.70278E-02         0.00000E+00
    0.89331E-02         0.66085E-02         0.00000E+00
    0.84014E-02         0.61896E-02         0.00000E+00
    0.78664E-02         0.57712E-02         0.00000E+00
    0.73281E-02         0.53532E-02         0.00000E+00
    0.67864E-02         0.49357E-02         0.00000E+00
    0.62412E-02         0.45189E-02         0.00000E+00
    0.56925E-02         0.41028E-02         0.00000E+00
    0.51403E-02         0.36875E-02         0.00000E+00
    0.45845E-02         0.32730E-02         0.00000E+00
    0.40250E-02         0.28595E-02         0.00000E+00
    0.34617E-02         0.24471E-02         0.00000E+00
    0.28947E-02         0.20358E-02         0.00000E+00
    0.23238E-02         0.16258E-02         0.00000E+00
    0.17489E-02         0.12170E-02         0.00000E+00
    0.11701E-02         0.80978E-03         0.00000E+00
    0.58712E-03         0.40406E-03         0.00000E+00
    0.00000E+00         0.00000E+00         0.00000E+00
    0.23643E-01         0.19013E-01         0.00000E+00
    0.23291E-01         0.18627E-01         0.00000E+00
    0.22932E-01         0.18241E-01         0.00000E+00
    0.22565E-01         0.17856E-01         0.00000E+00
    0.22191E-01         0.17470E-01         0.00000E+00
    0.21811E-01         0.17084E-01         0.00000E+00
    0.21423E-01         0.16699E-01         0.00000E+00
    0.21030E-01         0.16313E-01         0.00000E+00
    0.20630E-01         0.15927E-01         0.00000E+00
    0.20225E-01         0.15542E-01         0.00000E+00
    0.19814E-01         0.15156E-01         0.00000E+00
    0.19397E-01         0.14771E-01         0.00000E+00
    0.18976E-01         0.14386E-01         0.00000E+00
    0.18549E-01         0.14001E-01         0.00000E+00
    0.18118E-01         0.13615E-01         0.00000E+00
    0.17682E-01         0.13230E-01         0.00000E+00
    0.17241E-01         0.12845E-01         0.00000E+00
    0.16796E-01         0.12461E-01         0.00000E+00
    0.16347E-01         0.12076E-01         0.00000E+00
    0.15894E-01         0.11691E-01         0.00000E+00
    0.15436E-01         0.11307E-01         0.00000E+00
    0.14975E-01         0.10922E-01         0.00000E+00
    0.14509E-01         0.10538E-01         0.00000E+00
    0.14040E-01         0.10154E-01         0.00000E+00
    0.13567E-01         0.97699E-02         0.00000E+00
    0.13091E-01         0.93862E-02         0.00000E+00
    0.12610E-01         0.90028E-02         0.00000E+00
    0.12126E-01         0.86197E-02         0.00000E+00
    0.11639E-01         0.82369E-02         0.00000E+00
    0.11147E-01         0.78544E-02         0.00000E+00
    0.10653E-01         0.74723E-02         0.00000E+00
    0.10154E-01         0.70907E-02         0.00000E+00
    0.96527E-02         0.67096E-02         0.00000E+00
    0.91474E-02         0.63289E-02         0.00000E+00
    0.86386E-02         0.59489E-02         0.00000E+00
    0.81263E-02         0.55695E-02         0.00000E+00
    0.76104E-02         0.51908E-02         0.00000E+00
    0.70909E-02         0.48128E-02         0.00000E+00
    0.65679E-02         0.44357E-02         0.00000E+00
    0.60413E-02         0.40594E-02         0.00000E+00
    0.55110E-02         0.36841E-02         0.00000E+00
    0.49771E-02         0.33098E-02         0.00000E+00
    0.44394E-02         0.29365E-02         0.00000E+00
    0.38981E-02         0.25645E-02         0.00000E+00
    0.33529E-02         0.21937E-02         0.00000E+00
    0.28039E-02         0.18242E-02         0.00000E+00
    0.22511E-02         0.14562E-02         0.00000E+00
    0.16943E-02         0.10896E-02         0.00000E+00
    0.11336E-02         0.72471E-03         0.00000E+00
    0.56883E-03         0.36146E-03         0.00000E+00
    0.00000E+00         0.00000E+00         0.00000E+00
    0.22418E-01         0.17365E-01         0.00000E+00
    0.22101E-01         0.17008E-01         0.00000E+00
    0.21777E-01         0.16651E-01         0.00000E+00
    0.21444E-01         0.16294E-01         0.00000E+00
    0.21104E-01         0.15937E-01         0.00000E+00
    0.20756E-01         0.15580E-01         0.00000E+00
    0.20401E-01         0.15223E-01         0.00000E+00
    0.20040E-01         0.14867E-01         0.00000E+00
    0.19672E-01         0.14511E-01         0.00000E+00
    0.19298E-01         0.14154E-01         0.00000E+00
    0.18917E-01         0.13798E-01         0.00000E+00
    0.18531E-01         0.13443E-01         0.00000E+00
    0.18139E-01         0.13087E-01         0.00000E+00
    0.17741E-01         0.12732E-01         0.00000E+00
    0.17338E-01         0.12377E-01         0.00000E+00
    0.16930E-01         0.12022E-01         0.00000E+00
    0.16516E-01         0.11668E-01         0.00000E+00
    0.16098E-01         0.11314E-01         0.00000E+00
    0.15675E-01         0.10960E-01         0.00000E+00
    0.15247E-01         0.10607E-01         0.00000E+00
    0.14815E-01         0.10254E-01         0.00000E+00
    0.14379E-01         0.99012E-02         0.00000E+00
    0.13937E-01         0.95489E-02         0.00000E+00
    0.13492E-01         0.91971E-02         0.00000E+00
    0.13043E-01         0.88457E-02         0.00000E+00
    0.12589E-01         0.84948E-02         0.00000E+00
    0.12131E-01         0.81444E-02         0.00000E+00
    0.11670E-01         0.77945E-02         0.00000E+00
    0.11204E-01         0.74452E-02         0.00000E+00
    0.10735E-01         0.70965E-02         0.00000E+00
    0.10261E-01         0.67485E-02         0.00000E+00
    0.97840E-02         0.64011E-02         0.00000E+00
    0.93030E-02         0.60545E-02         0.00000E+00
    0.88182E-02         0.57086E-02         0.00000E+00
    0.83297E-02         0.53635E-02         0.00000E+00
    0.78374E-02         0.50193E-02         0.00000E+00
    0.73414E-02         0.46760E-02         0.00000E+00
    0.68416E-02         0.43337E-02         0.00000E+00
    0.63381E-02         0.39924E-02         0.00000E+00
    0.58309E-02         0.36521E-02         0.00000E+00
    0.53199E-02         0.33130E-02         0.00000E+00
    0.48051E-02         0.29752E-02         0.00000E+00
    0.42866E-02         0.26385E-02         0.00000E+00
    0.37643E-02         0.23033E-02         0.00000E+00
    0.32382E-02         0.19694E-02         0.00000E+00
    0.27083E-02         0.16370E-02         0.00000E+00
    0.21745E-02         0.13062E-02         0.00000E+00
    0.16368E-02         0.97698E-03         0.00000E+00
    0.10951E-02         0.64949E-03         0.00000E+00
    0.54957E-03         0.32381E-03         0.00000E+00
    0.00000E+00         0.00000E+00         0.00000E+00
    0.21230E-01         0.15883E-01         0.00000E+00
    0.20944E-01         0.15552E-01         0.00000E+00
    0.20651E-01         0.15221E-01         0.00000E+00
    0.20348E-01         0.14891E-01         0.00000E+00
    0.20038E-01         0.14560E-01         0.00000E+00
    0.19721E-01         0.14230E-01         0.00000E+00
    0.19396E-01         0.13900E-01         0.00000E+00
    0.19064E-01         0.13570E-01         0.00000E+00
    0.18725E-01         0.13240E-01         0.00000E+00
    0.18379E-01         0.12911E-01         0.00000E+00
    0.18027E-01         0.12582E-01         0.00000E+00
    0.17668E-01         0.12253E-01         0.00000E+00
    0.17304E-01         0.11925E-01         0.00000E+00
    0.16933E-01         0.11597E-01         0.00000E+00
    0.16557E-01         0.11270E-01         0.00000E+00
    0.16175E-01         0.10943E-01         0.00000E+00
    0.15788E-01         0.10616E-01         0.00000E+00
    0.15395E-01         0.10290E-01         0.00000E+00
    0.14997E-01         0.99644E-02         0.00000E+00
    0.14594E-01         0.96393E-02         0.00000E+00
    0.14187E-01         0.93148E-02         0.00000E+00
    0.13774E-01         0.89908E-02         0.00000E+00
    0.13357E-01         0.86675E-02         0.00000E+00
    0.12935E-01         0.83447E-02         0.00000E+00
    0.12509E-01         0.80226E-02         0.00000E+00
    0.12078E-01         0.77012E-02         0.00000E+00
    0.11643E-01         0.73804E-02         0.00000E+00
    0.11203E-01         0.70605E-02         0.00000E+00
    0.10759E-01         0.67412E-02         0.00000E+00
    0.10312E-01         0.64228E-02         0.00000E+00
    0.98597E-02         0.61052E-02         0.00000E+00
    0.94037E-02         0.57885E-02         0.00000E+00
    0.89437E-02         0.54727E-02         0.00000E+00
    0.84797E-02         0.51579E-02         0.00000E+00
    0.80117E-02         0.48440E-02         0.00000E+00
    0.75399E-02         0.45312E-02         0.00000E+00
    0.70641E-02         0.42195E-02         0.00000E+00
    0.65845E-02         0.39089E-02         0.00000E+00
    0.61010E-02         0.35995E-02         0.00000E+00
    0.56137E-02         0.32913E-02         0.00000E+00
    0.51226E-02         0.29844E-02         0.00000E+00
    0.46276E-02         0.26789E-02         0.00000E+00
    0.41288E-02         0.23748E-02         0.00000E+00
    0.36261E-02         0.20721E-02         0.00000E+00
    0.31197E-02         0.17710E-02         0.00000E+00
    0.26094E-02         0.14715E-02         0.00000E+00
    0.20953E-02         0.11736E-02         0.00000E+00
    0.15773E-02         0.87741E-03         0.00000E+00
    0.10554E-02         0.58305E-03         0.00000E+00
    0.52965E-03         0.29055E-03         0.00000E+00
    0.00000E+00         0.00000E+00         0.00000E+00
    0.20087E-01         0.14547E-01         0.00000E+00
    0.19829E-01         0.14241E-01         0.00000E+00
    0.19563E-01         0.13934E-01         0.00000E+00
    0.19288E-01         0.13628E-01         0.00000E+00
    0.19005E-01         0.13322E-01         0.00000E+00
    0.18715E-01         0.13016E-01         0.00000E+00
    0.18417E-01         0.12710E-01         0.00000E+00
    0.18111E-01         0.12405E-01         0.00000E+00
    0.17799E-01         0.12100E-01         0.00000E+00
    0.17479E-01         0.11795E-01         0.00000E+00
    0.17153E-01         0.11491E-01         0.00000E+00
    0.16820E-01         0.11187E-01         0.00000E+00
    0.16481E-01         0.10883E-01         0.00000E+00
    0.16136E-01         0.10580E-01         0.00000E+00
    0.15785E-01         0.10278E-01         0.00000E+00
    0.15428E-01         0.99762E-02         0.00000E+00
    0.15065E-01         0.96749E-02         0.00000E+00
    0.14697E-01         0.93742E-02         0.00000E+00
    0.14323E-01         0.90742E-02         0.00000E+00
    0.13944E-01         0.87748E-02         0.00000E+00
    0.13559E-01         0.84761E-02         0.00000E+00
    0.13170E-01         0.81781E-02         0.00000E+00
    0.12776E-01         0.78809E-02         0.00000E+00
    0.12377E-01         0.75844E-02         0.00000E+00
    0.11973E-01         0.72887E-02         0.00000E+00
    0.11564E-01         0.69939E-02         0.00000E+00
    0.11151E-01         0.66999E-02         0.00000E+00
    0.10733E-01         0.64068E-02         0.00000E+00
    0.10311E-01         0.61146E-02         0.00000E+00
    0.98850E-02         0.58234E-02         0.00000E+00
    0.94543E-02         0.55331E-02         0.00000E+00
    0.90193E-02         0.52439E-02         0.00000E+00
    0.85802E-02         0.49557E-02         0.00000E+00
    0.81370E-02         0.46686E-02         0.00000E+00
    0.76896E-02         0.43827E-02         0.00000E+00
    0.72383E-02         0.40979E-02         0.00000E+00
    0.67829E-02         0.38144E-02         0.00000E+00
    0.63236E-02         0.35321E-02         0.00000E+00
    0.58603E-02         0.32511E-02         0.00000E+00
    0.53931E-02         0.29715E-02         0.00000E+00
    0.49220E-02         0.26933E-02         0.00000E+00
    0.44470E-02         0.24165E-02         0.00000E+00
    0.39682E-02         0.21413E-02         0.00000E+00
    0.34856E-02         0.18676E-02         0.00000E+00
    0.29991E-02         0.15955E-02         0.00000E+00
    0.25088E-02         0.13250E-02         0.00000E+00
    0.20146E-02         0.10563E-02         0.00000E+00
    0.15167E-02         0.78942E-03         0.00000E+00
    0.10149E-02         0.52435E-03         0.00000E+00
    0.50938E-03         0.26119E-03         0.00000E+00
    0.00000E+00         0.00000E+00         0.00000E+00
    0.18996E-01         0.13341E-01         0.00000E+00
    0.18762E-01         0.13057E-01         0.00000E+00
    0.18520E-01         0.12772E-01         0.00000E+00
    0.18269E-01         0.12489E-01         0.00000E+00
    0.18011E-01         0.12205E-01         0.00000E+00
    0.17744E-01         0.11921E-01         0.00000E+00
    0.17471E-01         0.11638E-01         0.00000E+00
    0.17189E-01         0.11355E-01         0.00000E+00
    0.16901E-01         0.11073E-01         0.00000E+00
    0.16605E-01         0.10791E-01         0.00000E+00
    0.16303E-01         0.10509E-01         0.00000E+00
    0.15994E-01         0.10228E-01         0.00000E+00
    0.15679E-01         0.99473E-02         0.00000E+00
    0.15357E-01         0.96673E-02         0.00000E+00
    0.15029E-01         0.93878E-02         0.00000E+00
    0.14695E-01         0.91090E-02         0.00000E+00
    0.14356E-01         0.88309E-02         0.00000E+00
    0.14010E-01         0.85534E-02         0.00000E+00
    0.13659E-01         0.82767E-02         0.00000E+00
    0.13302E-01         0.80007E-02         0.00000E+00
    0.12940E-01         0.77255E-02         0.00000E+00
    0.12573E-01         0.74511E-02         0.00000E+00
    0.12201E-01         0.71776E-02         0.00000E+00
    0.11824E-01         0.69050E-02         0.00000E+00
    0.11442E-01         0.66332E-02         0.00000E+00
    0.11054E-01         0.63624E-02         0.00000E+00
    0.10663E-01         0.60926E-02         0.00000E+00
    0.10266E-01         0.58237E-02         0.00000E+00
    0.98653E-02         0.55559E-02         0.00000E+00
    0.94599E-02         0.52892E-02         0.00000E+00
    0.90500E-02         0.50235E-02         0.00000E+00
    0.86357E-02         0.47590E-02         0.00000E+00
    0.82172E-02         0.44956E-02         0.00000E+00
    0.77945E-02         0.42335E-02         0.00000E+00
    0.73675E-02         0.39725E-02         0.00000E+00
    0.69364E-02         0.37129E-02         0.00000E+00
    0.65013E-02         0.34545E-02         0.00000E+00
    0.60621E-02         0.31975E-02         0.00000E+00
    0.56190E-02         0.29419E-02         0.00000E+00
    0.51718E-02         0.26878E-02         0.00000E+00
    0.47208E-02         0.24351E-02         0.00000E+00
    0.42658E-02         0.21839E-02         0.00000E+00
    0.38070E-02         0.19343E-02         0.00000E+00
    0.33444E-02         0.16864E-02         0.00000E+00
    0.28779E-02         0.14401E-02         0.00000E+00
    0.24076E-02         0.11955E-02         0.00000E+00
    0.19336E-02         0.95262E-03         0.00000E+00
    0.14558E-02         0.71160E-03         0.00000E+00
    0.97428E-03         0.47246E-03         0.00000E+00
    0.48900E-03         0.23524E-03         0.00000E+00
    0.00000E+00         0.00000E+00         0.00000E+00
    0.17958E-01         0.12248E-01         0.00000E+00
    0.17746E-01         0.11984E-01         0.00000E+00
    0.17525E-01         0.11721E-01         0.00000E+00
    0.17296E-01         0.11458E-01         0.00000E+00
    0.17060E-01         0.11195E-01         0.00000E+00
    0.16815E-01         0.10932E-01         0.00000E+00
    0.16563E-01         0.10670E-01         0.00000E+00
    0.16304E-01         0.10408E-01         0.00000E+00
    0.16037E-01         0.10146E-01         0.00000E+00
    0.15764E-01         0.98848E-02         0.00000E+00
    0.15483E-01         0.96240E-02         0.00000E+00
    0.15196E-01         0.93638E-02         0.00000E+00
    0.14902E-01         0.91042E-02         0.00000E+00
    0.14602E-01         0.88451E-02         0.00000E+00
    0.14296E-01         0.85868E-02         0.00000E+00
    0.13984E-01         0.83291E-02         0.00000E+00
    0.13665E-01         0.80721E-02         0.00000E+00
    0.13341E-01         0.78159E-02         0.00000E+00
    0.13012E-01         0.75605E-02         0.00000E+00
    0.12676E-01         0.73059E-02         0.00000E+00
    0.12335E-01         0.70521E-02         0.00000E+00
    0.11989E-01         0.67993E-02         0.00000E+00
    0.11638E-01         0.65473E-02         0.00000E+00
    0.11281E-01         0.62963E-02         0.00000E+00
    0.10920E-01         0.60463E-02         0.00000E+00
    0.10554E-01         0.57973E-02         0.00000E+00
    0.10182E-01         0.55494E-02         0.00000E+00
    0.98065E-02         0.53025E-02         0.00000E+00
    0.94259E-02         0.50567E-02         0.00000E+00
    0.90407E-02         0.48121E-02         0.00000E+00
    0.86511E-02         0.45686E-02         0.00000E+00
    0.82570E-02         0.43264E-02         0.00000E+00
    0.78585E-02         0.40853E-02         0.00000E+00
    0.74558E-02         0.38456E-02         0.00000E+00
    0.70488E-02         0.36071E-02         0.00000E+00
    0.66376E-02         0.33700E-02         0.00000E+00
    0.62224E-02         0.31342E-02         0.00000E+00
    0.58030E-02         0.28999E-02         0.00000E+00
    0.53797E-02         0.26670E-02         0.00000E+00
    0.49523E-02         0.24356E-02         0.00000E+00
    0.45211E-02         0.22057E-02         0.00000E+00
    0.40859E-02         0.19774E-02         0.00000E+00
    0.36469E-02         0.17507E-02         0.00000E+00
    0.32041E-02         0.15256E-02         0.00000E+00
    0.27575E-02         0.13022E-02         0.00000E+00
    0.23072E-02         0.10806E-02         0.00000E+00
    0.18531E-02         0.86073E-03         0.00000E+00
    0.13953E-02         0.64270E-03         0.00000E+00
    0.93384E-03         0.42653E-03         0.00000E+00
    0.46874E-03         0.21228E-03         0.00000E+00
    0.00000E+00         0.00000E+00         0.00000E+00
    0.16978E-01         0.11255E-01         0.00000E+00
    0.16784E-01         0.11011E-01         0.00000E+00
    0.16583E-01         0.10766E-01         0.00000E+00
    0.16373E-01         0.10522E-01         0.00000E+00
    0.16155E-01         0.10279E-01         0.00000E+00
    0.15930E-01         0.10035E-01         0.00000E+00
    0.15698E-01         0.97920E-02         0.00000E+00
    0.15458E-01         0.95492E-02         0.00000E+00
    0.15211E-01         0.93068E-02         0.00000E+00
    0.14958E-01         0.90648E-02         0.00000E+00
    0.14697E-01         0.88234E-02         0.00000E+00
    0.14430E-01         0.85825E-02         0.00000E+00
    0.14156E-01         0.83422E-02         0.00000E+00
    0.13876E-01         0.81025E-02         0.00000E+00
    0.13590E-01         0.78636E-02         0.00000E+00
    0.13297E-01         0.76253E-02         0.00000E+00
    0.12999E-01         0.73878E-02         0.00000E+00
    0.12695E-01         0.71511E-02         0.00000E+00
    0.12385E-01         0.69153E-02         0.00000E+00
    0.12070E-01         0.66803E-02         0.00000E+00
    0.11749E-01         0.64461E-02         0.00000E+00
    0.11422E-01         0.62130E-02         0.00000E+00
    0.11091E-01         0.59808E-02         0.00000E+00
    0.10754E-01         0.57495E-02         0.00000E+00
    0.10412E-01         0.55193E-02         0.00000E+00
    0.10066E-01         0.52902E-02         0.00000E+00
    0.97142E-02         0.50621E-02         0.00000E+00
    0.93579E-02         0.48352E-02         0.00000E+00
    0.89968E-02         0.46094E-02         0.00000E+00
    0.86312E-02         0.43848E-02         0.00000E+00
    0.82610E-02         0.41615E-02         0.00000E+00
    0.78863E-02         0.39393E-02         0.00000E+00
    0.75073E-02         0.37185E-02         0.00000E+00
    0.71239E-02         0.34989E-02         0.00000E+00
    0.67363E-02         0.32807E-02         0.00000E+00
    0.63445E-02         0.30639E-02         0.00000E+00
    0.59486E-02         0.28484E-02         0.00000E+00
    0.55486E-02         0.26344E-02         0.00000E+00
    0.51446E-02         0.24219E-02         0.00000E+00
    0.47367E-02         0.22109E-02         0.00000E+00
    0.43248E-02         0.20014E-02         0.00000E+00
    0.39090E-02         0.17936E-02         0.00000E+00
    0.34895E-02         0.15873E-02         0.00000E+00
    0.30661E-02         0.13827E-02         0.00000E+00
    0.26390E-02         0.11798E-02         0.00000E+00
    0.22082E-02         0.97857E-03         0.00000E+00
    0.17738E-02         0.77915E-03         0.00000E+00
    0.13357E-02         0.58154E-03         0.00000E+00
    0.89401E-03         0.38579E-03         0.00000E+00
    0.44877E-03         0.19192E-03         0.00000E+00
    0.00000E+00         0.00000E+00         0.00000E+00
    0.16055E-01         0.10349E-01         0.00000E+00
    0.15878E-01         0.10123E-01         0.00000E+00
    0.15693E-01         0.98967E-02         0.00000E+00
    0.15500E-01         0.96706E-02         0.00000E+00
    0.15300E-01         0.94447E-02         0.00000E+00
    0.15092E-01         0.92190E-02         0.00000E+00
    0.14877E-01         0.89937E-02         0.00000E+00
    0.14655E-01         0.87687E-02         0.00000E+00
    0.14426E-01         0.85442E-02         0.00000E+00
    0.14190E-01         0.83201E-02         0.00000E+00
    0.13948E-01         0.80966E-02         0.00000E+00
    0.13699E-01         0.78736E-02         0.00000E+00
    0.13443E-01         0.76512E-02         0.00000E+00
    0.13182E-01         0.74295E-02         0.00000E+00
    0.12914E-01         0.72085E-02         0.00000E+00
    0.12640E-01         0.69882E-02         0.00000E+00
    0.12360E-01         0.67686E-02         0.00000E+00
    0.12074E-01         0.65499E-02         0.00000E+00
    0.11783E-01         0.63320E-02         0.00000E+00
    0.11486E-01         0.61150E-02         0.00000E+00
    0.11184E-01         0.58990E-02         0.00000E+00
    0.10876E-01         0.56838E-02         0.00000E+00
    0.10563E-01         0.54697E-02         0.00000E+00
    0.10245E-01         0.52566E-02         0.00000E+00
    0.99221E-02         0.50445E-02         0.00000E+00
    0.95941E-02         0.48335E-02         0.00000E+00
    0.92611E-02         0.46236E-02         0.00000E+00
    0.89234E-02         0.44149E-02         0.00000E+00
    0.85810E-02         0.42073E-02         0.00000E+00
    0.82340E-02         0.40010E-02         0.00000E+00
    0.78825E-02         0.37958E-02         0.00000E+00
    0.75265E-02         0.35920E-02         0.00000E+00
    0.71661E-02         0.33894E-02         0.00000E+00
    0.68014E-02         0.31881E-02         0.00000E+00
    0.64325E-02         0.29882E-02         0.00000E+00
    0.60594E-02         0.27897E-02         0.00000E+00
    0.56821E-02         0.25926E-02         0.00000E+00
    0.53009E-02         0.23970E-02         0.00000E+00
    0.49156E-02         0.22028E-02         0.00000E+00
    0.45264E-02         0.20101E-02         0.00000E+00
    0.41334E-02         0.18190E-02         0.00000E+00
    0.37365E-02         0.16295E-02         0.00000E+00
    0.33358E-02         0.14415E-02         0.00000E+00
    0.29314E-02         0.12552E-02         0.00000E+00
    0.25233E-02         0.10706E-02         0.00000E+00
    0.21116E-02         0.88768E-03         0.00000E+00
    0.16963E-02         0.70651E-03         0.00000E+00
    0.12775E-02         0.52712E-03         0.00000E+00
    0.85510E-03         0.34955E-03         0.00000E+00
    0.42927E-03         0.17383E-03         0.00000E+00
    0.00000E+00         0.00000E+00         0.00000E+00
    0.15189E-01         0.95204E-02         0.00000E+00
    0.15026E-01         0.93108E-02         0.00000E+00
    0.14856E-01         0.91012E-02         0.00000E+00
    0.14678E-01         0.88918E-02         0.00000E+00
    0.14493E-01         0.86826E-02         0.00000E+00
    0.14301E-01         0.84736E-02         0.00000E+00
    0.14102E-01         0.82649E-02         0.00000E+00
    0.13896E-01         0.80566E-02         0.00000E+00
    0.13683E-01         0.78487E-02         0.00000E+00
    0.13464E-01         0.76412E-02         0.00000E+00
    0.13237E-01         0.74343E-02         0.00000E+00
    0.13005E-01         0.72280E-02         0.00000E+00
    0.12766E-01         0.70222E-02         0.00000E+00
    0.12521E-01         0.68171E-02         0.00000E+00
    0.12270E-01         0.66127E-02         0.00000E+00
    0.12013E-01         0.64090E-02         0.00000E+00
    0.11750E-01         0.62061E-02         0.00000E+00
    0.11482E-01         0.60040E-02         0.00000E+00
    0.11208E-01         0.58028E-02         0.00000E+00
    0.10928E-01         0.56024E-02         0.00000E+00
    0.10643E-01         0.54030E-02         0.00000E+00
    0.10353E-01         0.52045E-02         0.00000E+00
    0.10058E-01         0.50070E-02         0.00000E+00
    0.97570E-02         0.48105E-02         0.00000E+00
    0.94515E-02         0.46151E-02         0.00000E+00
    0.91410E-02         0.44207E-02         0.00000E+00
    0.88256E-02         0.42275E-02         0.00000E+00
    0.85056E-02         0.40354E-02         0.00000E+00
    0.81808E-02         0.38445E-02         0.00000E+00
    0.78515E-02         0.36547E-02         0.00000E+00
    0.75177E-02         0.34663E-02         0.00000E+00
    0.71795E-02         0.32790E-02         0.00000E+00
    0.68369E-02         0.30931E-02         0.00000E+00
    0.64901E-02         0.29085E-02         0.00000E+00
    0.61390E-02         0.27252E-02         0.00000E+00
    0.57838E-02         0.25433E-02         0.00000E+00
    0.54246E-02         0.23628E-02         0.00000E+00
    0.50613E-02         0.21838E-02         0.00000E+00
    0.46941E-02         0.20062E-02         0.00000E+00
    0.43230E-02         0.18301E-02         0.00000E+00
    0.39481E-02         0.16555E-02         0.00000E+00
    0.35694E-02         0.14824E-02         0.00000E+00
    0.31870E-02         0.13110E-02         0.00000E+00
    0.28009E-02         0.11412E-02         0.00000E+00
    0.24112E-02         0.97297E-03         0.00000E+00
    0.20180E-02         0.80644E-03         0.00000E+00
    0.16212E-02         0.64162E-03         0.00000E+00
    0.12210E-02         0.47853E-03         0.00000E+00
    0.81736E-03         0.31721E-03         0.00000E+00
    0.41035E-03         0.15769E-03         0.00000E+00
    0.00000E+00         0.00000E+00         0.00000E+00
    0.14379E-01         0.87591E-02         0.00000E+00
    0.14229E-01         0.85650E-02         0.00000E+00
    0.14072E-01         0.83710E-02         0.00000E+00
    0.13908E-01         0.81772E-02         0.00000E+00
    0.13737E-01         0.79835E-02         0.00000E+00
    0.13558E-01         0.77900E-02         0.00000E+00
    0.13373E-01         0.75969E-02         0.00000E+00
    0.13181E-01         0.74041E-02         0.00000E+00
    0.12983E-01         0.72118E-02         0.00000E+00
    0.12778E-01         0.70198E-02         0.00000E+00
    0.12567E-01         0.68284E-02         0.00000E+00
    0.12349E-01         0.66376E-02         0.00000E+00
    0.12126E-01         0.64473E-02         0.00000E+00
    0.11896E-01         0.62577E-02         0.00000E+00
    0.11661E-01         0.60687E-02         0.00000E+00
    0.11419E-01         0.58805E-02         0.00000E+00
    0.11172E-01         0.56930E-02         0.00000E+00
    0.10920E-01         0.55064E-02         0.00000E+00
    0.10661E-01         0.53205E-02         0.00000E+00
    0.10398E-01         0.51356E-02         0.00000E+00
    0.10129E-01         0.49515E-02         0.00000E+00
    0.98549E-02         0.47684E-02         0.00000E+00
    0.95757E-02         0.45863E-02         0.00000E+00
    0.92915E-02         0.44052E-02         0.00000E+00
    0.90023E-02         0.42251E-02         0.00000E+00
    0.87083E-02         0.40460E-02         0.00000E+00
    0.84095E-02         0.38681E-02         0.00000E+00
    0.81061E-02         0.36913E-02         0.00000E+00
    0.77980E-02         0.35157E-02         0.00000E+00
    0.74855E-02         0.33412E-02         0.00000E+00
    0.71685E-02         0.31680E-02         0.00000E+00
    0.68471E-02         0.29959E-02         0.00000E+00
    0.65214E-02         0.28252E-02         0.00000E+00
    0.61915E-02         0.26558E-02         0.00000E+00
    0.58575E-02         0.24877E-02         0.00000E+00
    0.55194E-02         0.23209E-02         0.00000E+00
    0.51772E-02         0.21555E-02         0.00000E+00
    0.48312E-02         0.19915E-02         0.00000E+00
    0.44812E-02         0.18290E-02         0.00000E+00
    0.41274E-02         0.16679E-02         0.00000E+00
    0.37699E-02         0.15083E-02         0.00000E+00
    0.34086E-02         0.13502E-02         0.00000E+00
    0.30438E-02         0.11937E-02         0.00000E+00
    0.26753E-02         0.10387E-02         0.00000E+00
    0.23033E-02         0.88530E-03         0.00000E+00
    0.19278E-02         0.73354E-03         0.00000E+00
    0.15489E-02         0.58342E-03         0.00000E+00
    0.11666E-02         0.43498E-03         0.00000E+00
    0.78100E-03         0.28824E-03         0.00000E+00
    0.39211E-03         0.14324E-03         0.00000E+00
    0.00000E+00         0.00000E+00         0.00000E+00
    0.13625E-01         0.80568E-02         0.00000E+00
    0.13486E-01         0.78774E-02         0.00000E+00
    0.13341E-01         0.76980E-02         0.00000E+00
    0.13188E-01         0.75187E-02         0.00000E+00
    0.13029E-01         0.73396E-02         0.00000E+00
    0.12863E-01         0.71607E-02         0.00000E+00
    0.12690E-01         0.69822E-02         0.00000E+00
    0.12511E-01         0.68039E-02         0.00000E+00
    0.12326E-01         0.66261E-02         0.00000E+00
    0.12134E-01         0.64487E-02         0.00000E+00
    0.11937E-01         0.62718E-02         0.00000E+00
    0.11733E-01         0.60954E-02         0.00000E+00
    0.11523E-01         0.59196E-02         0.00000E+00
    0.11307E-01         0.57444E-02         0.00000E+00
    0.11086E-01         0.55699E-02         0.00000E+00
    0.10859E-01         0.53961E-02         0.00000E+00
    0.10626E-01         0.52230E-02         0.00000E+00
    0.10388E-01         0.50507E-02         0.00000E+00
    0.10145E-01         0.48792E-02         0.00000E+00
    0.98959E-02         0.47086E-02         0.00000E+00
    0.96419E-02         0.45388E-02         0.00000E+00
    0.93829E-02         0.43700E-02         0.00000E+00
    0.91188E-02         0.42021E-02         0.00000E+00
    0.88498E-02         0.40352E-02         0.00000E+00
    0.85760E-02         0.38693E-02         0.00000E+00
    0.82974E-02         0.37044E-02         0.00000E+00
    0.80141E-02         0.35406E-02         0.00000E+00
    0.77263E-02         0.33779E-02         0.00000E+00
    0.74339E-02         0.32164E-02         0.00000E+00
    0.71370E-02         0.30560E-02         0.00000E+00
    0.68359E-02         0.28967E-02         0.00000E+00
    0.65304E-02         0.27387E-02         0.00000E+00
    0.62207E-02         0.25819E-02         0.00000E+00
    0.59068E-02         0.24264E-02         0.00000E+00
    0.55889E-02         0.22722E-02         0.00000E+00
    0.52670E-02         0.21193E-02         0.00000E+00
    0.49411E-02         0.19677E-02         0.00000E+00
    0.46114E-02         0.18175E-02         0.00000E+00
    0.42778E-02         0.16687E-02         0.00000E+00
    0.39405E-02         0.15212E-02         0.00000E+00
    0.35996E-02         0.13753E-02         0.00000E+00
    0.32550E-02         0.12308E-02         0.00000E+00
    0.29068E-02         0.10877E-02         0.00000E+00
    0.25551E-02         0.94621E-03         0.00000E+00
    0.22000E-02         0.80623E-03         0.00000E+00
    0.18415E-02         0.66782E-03         0.00000E+00
    0.14797E-02         0.53098E-03         0.00000E+00
    0.11145E-02         0.39576E-03         0.00000E+00
    0.74618E-03         0.26217E-03         0.00000E+00
    0.37465E-03         0.13024E-03         0.00000E+00
    0.00000E+00         0.00000E+00         0.00000E+00
    0.12924E-01         0.74065E-02         0.00000E+00
    0.12795E-01         0.72407E-02         0.00000E+00
    0.12660E-01         0.70750E-02         0.00000E+00
    0.12518E-01         0.69095E-02         0.00000E+00
    0.12369E-01         0.67441E-02         0.00000E+00
    0.12214E-01         0.65789E-02         0.00000E+00
    0.12053E-01         0.64140E-02         0.00000E+00
    0.11885E-01         0.62494E-02         0.00000E+00
    0.11712E-01         0.60852E-02         0.00000E+00
    0.11532E-01         0.59215E-02         0.00000E+00
    0.11346E-01         0.57581E-02         0.00000E+00
    0.11155E-01         0.55954E-02         0.00000E+00
    0.10958E-01         0.54331E-02         0.00000E+00
    0.10755E-01         0.52715E-02         0.00000E+00
    0.10546E-01         0.51104E-02         0.00000E+00
    0.10332E-01         0.49501E-02         0.00000E+00
    0.10113E-01         0.47905E-02         0.00000E+00
    0.98882E-02         0.46316E-02         0.00000E+00
    0.96582E-02         0.44735E-02         0.00000E+00
    0.94231E-02         0.43162E-02         0.00000E+00
    0.91830E-02         0.41598E-02         0.00000E+00
    0.89378E-02         0.40042E-02         0.00000E+00
    0.86878E-02         0.38496E-02         0.00000E+00
    0.84329E-02         0.36959E-02         0.00000E+00
    0.81733E-02         0.35432E-02         0.00000E+00
    0.79091E-02         0.33915E-02         0.00000E+00
    0.76403E-02         0.32408E-02         0.00000E+00
    0.73670E-02         0.30912E-02         0.00000E+00
    0.70892E-02         0.29427E-02         0.00000E+00
    0.68072E-02         0.27953E-02         0.00000E+00
    0.65208E-02         0.26490E-02         0.00000E+00
    0.62303E-02         0.25039E-02         0.00000E+00
    0.59356E-02         0.23600E-02         0.00000E+00
    0.56368E-02         0.22173E-02         0.00000E+00
    0.53341E-02         0.20758E-02         0.00000E+00
    0.50274E-02         0.19356E-02         0.00000E+00
    0.47169E-02         0.17967E-02         0.00000E+00
    0.44026E-02         0.16591E-02         0.00000E+00
    0.40846E-02         0.15228E-02         0.00000E+00
    0.37629E-02         0.13879E-02         0.00000E+00
    0.34376E-02         0.12544E-02         0.00000E+00
    0.31088E-02         0.11223E-02         0.00000E+00
    0.27765E-02         0.99160E-03         0.00000E+00
    0.24408E-02         0.86235E-03         0.00000E+00
    0.21017E-02         0.73457E-03         0.00000E+00
    0.17594E-02         0.60829E-03         0.00000E+00
    0.14138E-02         0.48351E-03         0.00000E+00
    0.10650E-02         0.36028E-03         0.00000E+00
    0.71303E-03         0.23860E-03         0.00000E+00
    0.35803E-03         0.11850E-03         0.00000E+00
    0.00000E+00         0.00000E+00         0.00000E+00
    0.12274E-01         0.68017E-02         0.00000E+00
    0.12154E-01         0.66489E-02         0.00000E+00
    0.12028E-01         0.64961E-02         0.00000E+00
    0.11895E-01         0.63435E-02         0.00000E+00
    0.11756E-01         0.61910E-02         0.00000E+00
    0.11611E-01         0.60387E-02         0.00000E+00
    0.11460E-01         0.58867E-02         0.00000E+00
    0.11303E-01         0.57350E-02         0.00000E+00
    0.11140E-01         0.55836E-02         0.00000E+00
    0.10971E-01         0.54327E-02         0.00000E+00
    0.10796E-01         0.52821E-02         0.00000E+00
    0.10616E-01         0.51321E-02         0.00000E+00
    0.10430E-01         0.49826E-02         0.00000E+00
    0.10239E-01         0.48337E-02         0.00000E+00
    0.10042E-01         0.46853E-02         0.00000E+00
    0.98398E-02         0.45377E-02         0.00000E+00
    0.96325E-02         0.43906E-02         0.00000E+00
    0.94200E-02         0.42443E-02         0.00000E+00
    0.92025E-02         0.40988E-02         0.00000E+00
    0.89799E-02         0.39540E-02         0.00000E+00
    0.87524E-02         0.38100E-02         0.00000E+00
    0.85201E-02         0.36669E-02         0.00000E+00
    0.82830E-02         0.35247E-02         0.00000E+00
    0.80413E-02         0.33833E-02         0.00000E+00
    0.77949E-02         0.32429E-02         0.00000E+00
    0.75440E-02         0.31035E-02         0.00000E+00
    0.72886E-02         0.29650E-02         0.00000E+00
    0.70288E-02         0.28275E-02         0.00000E+00
    0.67647E-02         0.26911E-02         0.00000E+00
    0.64964E-02         0.25558E-02         0.00000E+00
    0.62239E-02         0.24215E-02         0.00000E+00
    0.59473E-02         0.22884E-02         0.00000E+00
    0.56667E-02         0.21564E-02         0.00000E+00
    0.53821E-02         0.20255E-02         0.00000E+00
    0.50936E-02         0.18959E-02         0.00000E+00
    0.48013E-02         0.17674E-02         0.00000E+00
    0.45052E-02         0.16402E-02         0.00000E+00
    0.42054E-02         0.15143E-02         0.00000E+00
    0.39020E-02         0.13896E-02         0.00000E+00
    0.35950E-02         0.12662E-02         0.00000E+00
    0.32845E-02         0.11441E-02         0.00000E+00
    0.29706E-02         0.10233E-02         0.00000E+00
    0.26533E-02         0.90393E-03         0.00000E+00
    0.23327E-02         0.78591E-03         0.00000E+00
    0.20087E-02         0.66929E-03         0.00000E+00
    0.16816E-02         0.55408E-03         0.00000E+00
    0.13514E-02         0.44031E-03         0.00000E+00
    0.10180E-02         0.32800E-03         0.00000E+00
    0.68164E-03         0.21717E-03         0.00000E+00
    0.34228E-03         0.10783E-03         0.00000E+00
    0.00000E+00         0.00000E+00         0.00000E+00
    0.11675E-01         0.62370E-02         0.00000E+00
    0.11562E-01         0.60964E-02         0.00000E+00
    0.11444E-01         0.59559E-02         0.00000E+00
    0.11319E-01         0.58154E-02         0.00000E+00
    0.11189E-01         0.56751E-02         0.00000E+00
    0.11053E-01         0.55350E-02         0.00000E+00
    0.10910E-01         0.53952E-02         0.00000E+00
    0.10762E-01         0.52556E-02         0.00000E+00
    0.10609E-01         0.51164E-02         0.00000E+00
    0.10450E-01         0.49775E-02         0.00000E+00
    0.10285E-01         0.48391E-02         0.00000E+00
    0.10115E-01         0.47011E-02         0.00000E+00
    0.99391E-02         0.45636E-02         0.00000E+00
    0.97583E-02         0.44266E-02         0.00000E+00
    0.95722E-02         0.42902E-02         0.00000E+00
    0.93810E-02         0.41545E-02         0.00000E+00
    0.91847E-02         0.40193E-02         0.00000E+00
    0.89834E-02         0.38848E-02         0.00000E+00
    0.87772E-02         0.37511E-02         0.00000E+00
    0.85662E-02         0.36181E-02         0.00000E+00
    0.83504E-02         0.34858E-02         0.00000E+00
    0.81298E-02         0.33543E-02         0.00000E+00
    0.79047E-02         0.32237E-02         0.00000E+00
    0.76750E-02         0.30939E-02         0.00000E+00
    0.74408E-02         0.29650E-02         0.00000E+00
    0.72022E-02         0.28370E-02         0.00000E+00
    0.69592E-02         0.27100E-02         0.00000E+00
    0.67120E-02         0.25839E-02         0.00000E+00
    0.64606E-02         0.24588E-02         0.00000E+00
    0.62051E-02         0.23347E-02         0.00000E+00
    0.59455E-02         0.22117E-02         0.00000E+00
    0.56819E-02         0.20897E-02         0.00000E+00
    0.54143E-02         0.19687E-02         0.00000E+00
    0.51429E-02         0.18489E-02         0.00000E+00
    0.48678E-02         0.17302E-02         0.00000E+00
    0.45888E-02         0.16127E-02         0.00000E+00
    0.43063E-02         0.14963E-02         0.00000E+00
    0.40201E-02         0.13811E-02         0.00000E+00
    0.37304E-02         0.12671E-02         0.00000E+00
    0.34372E-02         0.11543E-02         0.00000E+00
    0.31406E-02         0.10428E-02         0.00000E+00
    0.28406E-02         0.93252E-03         0.00000E+00
    0.25373E-02         0.82353E-03         0.00000E+00
    0.22309E-02         0.71585E-03         0.00000E+00
    0.19212E-02         0.60949E-03         0.00000E+00
    0.16084E-02         0.50446E-03         0.00000E+00
    0.12926E-02         0.40079E-03         0.00000E+00
    0.97382E-03         0.29849E-03         0.00000E+00
    0.65207E-03         0.19758E-03         0.00000E+00
    0.32745E-03         0.98078E-04         0.00000E+00
    0.00000E+00         0.00000E+00         0.00000E+00
    0.11123E-01         0.57077E-02         0.00000E+00
    0.11017E-01         0.55787E-02         0.00000E+00
    0.10906E-01         0.54497E-02         0.00000E+00
    0.10789E-01         0.53208E-02         0.00000E+00
    0.10666E-01         0.51920E-02         0.00000E+00
    0.10537E-01         0.50634E-02         0.00000E+00
    0.10403E-01         0.49351E-02         0.00000E+00
    0.10263E-01         0.48070E-02         0.00000E+00
    0.10118E-01         0.46793E-02         0.00000E+00
    0.99676E-02         0.45518E-02         0.00000E+00
    0.98118E-02         0.44248E-02         0.00000E+00
    0.96507E-02         0.42982E-02         0.00000E+00
    0.94845E-02         0.41721E-02         0.00000E+00
    0.93131E-02         0.40464E-02         0.00000E+00
    0.91368E-02         0.39213E-02         0.00000E+00
    0.89554E-02         0.37968E-02         0.00000E+00
    0.87692E-02         0.36729E-02         0.00000E+00
    0.85781E-02         0.35496E-02         0.00000E+00
    0.83823E-02         0.34269E-02         0.00000E+00
    0.81817E-02         0.33050E-02         0.00000E+00
    0.79766E-02         0.31837E-02         0.00000E+00
    0.77669E-02         0.30633E-02         0.00000E+00
    0.75527E-02         0.29436E-02         0.00000E+00
    0.73340E-02         0.28247E-02         0.00000E+00
    0.71111E-02         0.27066E-02         0.00000E+00
    0.68838E-02         0.25894E-02         0.00000E+00
    0.66524E-02         0.24730E-02         0.00000E+00
    0.64167E-02         0.23576E-02         0.00000E+00
    0.61770E-02         0.22431E-02         0.00000E+00
    0.59333E-02         0.21296E-02         0.00000E+00
    0.56857E-02         0.20170E-02         0.00000E+00
    0.54341E-02         0.19054E-02         0.00000E+00
    0.51787E-02         0.17949E-02         0.00000E+00
    0.49196E-02         0.16853E-02         0.00000E+00
    0.46568E-02         0.15769E-02         0.00000E+00
    0.43903E-02         0.14695E-02         0.00000E+00
    0.41203E-02         0.13632E-02         0.00000E+00
    0.38468E-02         0.12580E-02         0.00000E+00
    0.35698E-02         0.11539E-02         0.00000E+00
    0.32895E-02         0.10510E-02         0.00000E+00
    0.30058E-02         0.94929E-03         0.00000E+00
    0.27189E-02         0.84875E-03         0.00000E+00
    0.24288E-02         0.74941E-03         0.00000E+00
    0.21356E-02         0.65129E-03         0.00000E+00
    0.18392E-02         0.55441E-03         0.00000E+00
    0.15399E-02         0.45878E-03         0.00000E+00
    0.12376E-02         0.36442E-03         0.00000E+00
    0.93241E-03         0.27135E-03         0.00000E+00
    0.62437E-03         0.17958E-03         0.00000E+00
    0.31355E-03         0.89122E-04         0.00000E+00
    0.00000E+00         0.00000E+00         0.00000E+00
    0.10616E-01         0.52094E-02         0.00000E+00
    0.10517E-01         0.50914E-02         0.00000E+00
    0.10412E-01         0.49734E-02         0.00000E+00
    0.10301E-01         0.48554E-02         0.00000E+00
    0.10185E-01         0.47376E-02         0.00000E+00
    0.10063E-01         0.46200E-02         0.00000E+00
    0.99361E-02         0.45026E-02         0.00000E+00
    0.98038E-02         0.43854E-02         0.00000E+00
    0.96663E-02         0.42686E-02         0.00000E+00
    0.95236E-02         0.41520E-02         0.00000E+00
    0.93758E-02         0.40358E-02         0.00000E+00
    0.92230E-02         0.39200E-02         0.00000E+00
    0.90652E-02         0.38047E-02         0.00000E+00
    0.89024E-02         0.36898E-02         0.00000E+00
    0.87348E-02         0.35754E-02         0.00000E+00
    0.85624E-02         0.34615E-02         0.00000E+00
    0.83853E-02         0.33481E-02         0.00000E+00
    0.82035E-02         0.32354E-02         0.00000E+00
    0.80171E-02         0.31233E-02         0.00000E+00
    0.78261E-02         0.30118E-02         0.00000E+00
    0.76307E-02         0.29010E-02         0.00000E+00
    0.74309E-02         0.27909E-02         0.00000E+00
    0.72267E-02         0.26815E-02         0.00000E+00
    0.70182E-02         0.25729E-02         0.00000E+00
    0.68056E-02         0.24651E-02         0.00000E+00
    0.65887E-02         0.23580E-02         0.00000E+00
    0.63678E-02         0.22518E-02         0.00000E+00
    0.61428E-02         0.21464E-02         0.00000E+00
    0.59139E-02         0.20419E-02         0.00000E+00
    0.56811E-02         0.19382E-02         0.00000E+00
    0.54444E-02         0.18355E-02         0.00000E+00
    0.52040E-02         0.17337E-02         0.00000E+00
    0.49599E-02         0.16329E-02         0.00000E+00
    0.47121E-02         0.15330E-02         0.00000E+00
    0.44607E-02         0.14341E-02         0.00000E+00
    0.42058E-02         0.13362E-02         0.00000E+00
    0.39474E-02         0.12394E-02         0.00000E+00
    0.36856E-02         0.11436E-02         0.00000E+00
    0.34205E-02         0.10488E-02         0.00000E+00
    0.31521E-02         0.95512E-03         0.00000E+00
    0.28805E-02         0.86253E-03         0.00000E+00
    0.26057E-02         0.77104E-03         0.00000E+00
    0.23278E-02         0.68068E-03         0.00000E+00
    0.20468E-02         0.59146E-03         0.00000E+00
    0.17629E-02         0.50339E-03         0.00000E+00
    0.14761E-02         0.41648E-03         0.00000E+00
    0.11864E-02         0.33077E-03         0.00000E+00
    0.89383E-03         0.24624E-03         0.00000E+00
    0.59856E-03         0.16293E-03         0.00000E+00
    0.30060E-03         0.80847E-04         0.00000E+00
    0.00000E+00         0.00000E+00         0.00000E+00
    0.10154E-01         0.47385E-02         0.00000E+00
    0.10060E-01         0.46310E-02         0.00000E+00
    0.99599E-02         0.45234E-02         0.00000E+00
    0.98549E-02         0.44159E-02         0.00000E+00
    0.97446E-02         0.43086E-02         0.00000E+00
    0.96292E-02         0.42014E-02         0.00000E+00
    0.95086E-02         0.40944E-02         0.00000E+00
    0.93830E-02         0.39876E-02         0.00000E+00
    0.92523E-02         0.38811E-02         0.00000E+00
    0.91166E-02         0.37748E-02         0.00000E+00
    0.89760E-02         0.36690E-02         0.00000E+00
    0.88306E-02         0.35634E-02         0.00000E+00
    0.86803E-02         0.34583E-02         0.00000E+00
    0.85253E-02         0.33536E-02         0.00000E+00
    0.83656E-02         0.32494E-02         0.00000E+00
    0.82013E-02         0.31456E-02         0.00000E+00
    0.80324E-02         0.30424E-02         0.00000E+00
    0.78590E-02         0.29397E-02         0.00000E+00
    0.76812E-02         0.28376E-02         0.00000E+00
    0.74989E-02         0.27361E-02         0.00000E+00
    0.73123E-02         0.26352E-02         0.00000E+00
    0.71215E-02         0.25349E-02         0.00000E+00
    0.69265E-02         0.24353E-02         0.00000E+00
    0.67273E-02         0.23364E-02         0.00000E+00
    0.65240E-02         0.22382E-02         0.00000E+00
    0.63166E-02         0.21408E-02         0.00000E+00
    0.61054E-02         0.20441E-02         0.00000E+00
    0.58902E-02         0.19482E-02         0.00000E+00
    0.56711E-02         0.18532E-02         0.00000E+00
    0.54483E-02         0.17589E-02         0.00000E+00
    0.52217E-02         0.16655E-02         0.00000E+00
    0.49915E-02         0.15729E-02         0.00000E+00
    0.47577E-02         0.14812E-02         0.00000E+00
    0.45203E-02         0.13905E-02         0.00000E+00
    0.42794E-02         0.13006E-02         0.00000E+00
    0.40352E-02         0.12117E-02         0.00000E+00
    0.37875E-02         0.11237E-02         0.00000E+00
    0.35366E-02         0.10367E-02         0.00000E+00
    0.32824E-02         0.95062E-03         0.00000E+00
    0.30250E-02         0.86558E-03         0.00000E+00
    0.27644E-02         0.78156E-03         0.00000E+00
    0.25008E-02         0.69856E-03         0.00000E+00
    0.22342E-02         0.61660E-03         0.00000E+00
    0.19647E-02         0.53569E-03         0.00000E+00
    0.16922E-02         0.45585E-03         0.00000E+00
    0.14169E-02         0.37710E-03         0.00000E+00
    0.11389E-02         0.29944E-03         0.00000E+00
    0.85810E-03         0.22289E-03         0.00000E+00
    0.57465E-03         0.14745E-03         0.00000E+00
    0.28860E-03         0.73155E-04         0.00000E+00
    0.00000E+00         0.00000E+00         0.00000E+00
    0.97334E-02         0.42918E-02         0.00000E+00
    0.96437E-02         0.41942E-02         0.00000E+00
    0.95488E-02         0.40966E-02         0.00000E+00
    0.94489E-02         0.39991E-02         0.00000E+00
    0.93439E-02         0.39017E-02         0.00000E+00
    0.92340E-02         0.38045E-02         0.00000E+00
    0.91191E-02         0.37074E-02         0.00000E+00
    0.89993E-02         0.36105E-02         0.00000E+00
    0.88747E-02         0.35139E-02         0.00000E+00
    0.87453E-02         0.34175E-02         0.00000E+00
    0.86111E-02         0.33215E-02         0.00000E+00
    0.84723E-02         0.32258E-02         0.00000E+00
    0.83289E-02         0.31304E-02         0.00000E+00
    0.81808E-02         0.30355E-02         0.00000E+00
    0.80282E-02         0.29409E-02         0.00000E+00
    0.78712E-02         0.28468E-02         0.00000E+00
    0.77098E-02         0.27532E-02         0.00000E+00
    0.75439E-02         0.26601E-02         0.00000E+00
    0.73738E-02         0.25675E-02         0.00000E+00
    0.71995E-02         0.24754E-02         0.00000E+00
    0.70209E-02         0.23840E-02         0.00000E+00
    0.68382E-02         0.22931E-02         0.00000E+00
    0.66514E-02         0.22028E-02         0.00000E+00
    0.64606E-02         0.21132E-02         0.00000E+00
    0.62659E-02         0.20242E-02         0.00000E+00
    0.60672E-02         0.19359E-02         0.00000E+00
    0.58647E-02         0.18483E-02         0.00000E+00
    0.56584E-02         0.17614E-02         0.00000E+00
    0.54484E-02         0.16753E-02         0.00000E+00
    0.52346E-02         0.15899E-02         0.00000E+00
    0.50173E-02         0.15053E-02         0.00000E+00
    0.47964E-02         0.14215E-02         0.00000E+00
    0.45720E-02         0.13385E-02         0.00000E+00
    0.43442E-02         0.12563E-02         0.00000E+00
    0.41130E-02         0.11750E-02         0.00000E+00
    0.38784E-02         0.10945E-02         0.00000E+00
    0.36406E-02         0.10149E-02         0.00000E+00
    0.33995E-02         0.93622E-03         0.00000E+00
    0.31553E-02         0.85842E-03         0.00000E+00
    0.29081E-02         0.78153E-03         0.00000E+00
    0.26577E-02         0.70558E-03         0.00000E+00
    0.24044E-02         0.63056E-03         0.00000E+00
    0.21482E-02         0.55651E-03         0.00000E+00
    0.18891E-02         0.48343E-03         0.00000E+00
    0.16272E-02         0.41132E-03         0.00000E+00
    0.13625E-02         0.34022E-03         0.00000E+00
    0.10952E-02         0.27011E-03         0.00000E+00
    0.82521E-03         0.20103E-03         0.00000E+00
    0.55264E-03         0.13298E-03         0.00000E+00
    0.27755E-03         0.65963E-04         0.00000E+00
    0.00000E+00         0.00000E+00         0.00000E+00
    0.93531E-02         0.38662E-02         0.00000E+00
    0.92675E-02         0.37781E-02         0.00000E+00
    0.91769E-02         0.36901E-02         0.00000E+00
    0.90814E-02         0.36022E-02         0.00000E+00
    0.89811E-02         0.35143E-02         0.00000E+00
    0.88760E-02         0.34266E-02         0.00000E+00
    0.87662E-02         0.33391E-02         0.00000E+00
    0.86516E-02         0.32517E-02         0.00000E+00
    0.85324E-02         0.31645E-02         0.00000E+00
    0.84086E-02         0.30776E-02         0.00000E+00
    0.82802E-02         0.29910E-02         0.00000E+00
    0.81473E-02         0.29047E-02         0.00000E+00
    0.80099E-02         0.28187E-02         0.00000E+00
    0.78681E-02         0.27330E-02         0.00000E+00
    0.77219E-02         0.26478E-02         0.00000E+00
    0.75714E-02         0.25629E-02         0.00000E+00
    0.74166E-02         0.24785E-02         0.00000E+00
    0.72576E-02         0.23945E-02         0.00000E+00
    0.70944E-02         0.23110E-02         0.00000E+00
    0.69271E-02         0.22280E-02         0.00000E+00
    0.67558E-02         0.21455E-02         0.00000E+00
    0.65804E-02         0.20636E-02         0.00000E+00
    0.64011E-02         0.19822E-02         0.00000E+00
    0.62179E-02         0.19014E-02         0.00000E+00
    0.60309E-02         0.18212E-02         0.00000E+00
    0.58400E-02         0.17417E-02         0.00000E+00
    0.56455E-02         0.16627E-02         0.00000E+00
    0.54472E-02         0.15844E-02         0.00000E+00
    0.52453E-02         0.15068E-02         0.00000E+00
    0.50399E-02         0.14299E-02         0.00000E+00
    0.48309E-02         0.13537E-02         0.00000E+00
    0.46185E-02         0.12782E-02         0.00000E+00
    0.44027E-02         0.12035E-02         0.00000E+00
    0.41835E-02         0.11295E-02         0.00000E+00
    0.39610E-02         0.10563E-02         0.00000E+00
    0.37353E-02         0.98384E-03         0.00000E+00
    0.35064E-02         0.91220E-03         0.00000E+00
    0.32744E-02         0.84137E-03         0.00000E+00
    0.30394E-02         0.77137E-03         0.00000E+00
    0.28013E-02         0.70221E-03         0.00000E+00
    0.25603E-02         0.63389E-03         0.00000E+00
    0.23164E-02         0.56644E-03         0.00000E+00
    0.20696E-02         0.49986E-03         0.00000E+00
    0.18200E-02         0.43417E-03         0.00000E+00
    0.15678E-02         0.36937E-03         0.00000E+00
    0.13128E-02         0.30548E-03         0.00000E+00
    0.10553E-02         0.24251E-03         0.00000E+00
    0.79514E-03         0.18046E-03         0.00000E+00
    0.53252E-03         0.11936E-03         0.00000E+00
    0.26745E-03         0.59200E-04         0.00000E+00
    0.00000E+00         0.00000E+00         0.00000E+00
    0.90115E-02         0.34592E-02         0.00000E+00
    0.89294E-02         0.33803E-02         0.00000E+00
    0.88426E-02         0.33015E-02         0.00000E+00
    0.87510E-02         0.32227E-02         0.00000E+00
    0.86549E-02         0.31441E-02         0.00000E+00
    0.85540E-02         0.30655E-02         0.00000E+00
    0.84486E-02         0.29871E-02         0.00000E+00
    0.83387E-02         0.29088E-02         0.00000E+00
    0.82243E-02         0.28308E-02         0.00000E+00
    0.81054E-02         0.27529E-02         0.00000E+00
    0.79821E-02         0.26753E-02         0.00000E+00
    0.78544E-02         0.25980E-02         0.00000E+00
    0.77224E-02         0.25210E-02         0.00000E+00
    0.75861E-02         0.24443E-02         0.00000E+00
    0.74456E-02         0.23680E-02         0.00000E+00
    0.73009E-02         0.22920E-02         0.00000E+00
    0.71521E-02         0.22164E-02         0.00000E+00
    0.69992E-02         0.21412E-02         0.00000E+00
    0.68422E-02         0.20664E-02         0.00000E+00
    0.66813E-02         0.19921E-02         0.00000E+00
    0.65164E-02         0.19182E-02         0.00000E+00
    0.63476E-02         0.18449E-02         0.00000E+00
    0.61750E-02         0.17720E-02         0.00000E+00
    0.59986E-02         0.16997E-02         0.00000E+00
    0.58185E-02         0.16279E-02         0.00000E+00
    0.56347E-02         0.15567E-02         0.00000E+00
    0.54472E-02         0.14860E-02         0.00000E+00
    0.52562E-02         0.14160E-02         0.00000E+00
    0.50617E-02         0.13465E-02         0.00000E+00
    0.48637E-02         0.12777E-02         0.00000E+00
    0.46623E-02         0.12095E-02         0.00000E+00
    0.44575E-02         0.11420E-02         0.00000E+00
    0.42494E-02         0.10751E-02         0.00000E+00
    0.40380E-02         0.10089E-02         0.00000E+00
    0.38235E-02         0.94346E-03         0.00000E+00
    0.36058E-02         0.87869E-03         0.00000E+00
    0.33850E-02         0.81464E-03         0.00000E+00
    0.31611E-02         0.75132E-03         0.00000E+00
    0.29343E-02         0.68875E-03         0.00000E+00
    0.27046E-02         0.62694E-03         0.00000E+00
    0.24720E-02         0.56590E-03         0.00000E+00
    0.22365E-02         0.50563E-03         0.00000E+00
    0.19983E-02         0.44616E-03         0.00000E+00
    0.17574E-02         0.38749E-03         0.00000E+00
    0.15139E-02         0.32963E-03         0.00000E+00
    0.12677E-02         0.27258E-03         0.00000E+00
    0.10190E-02         0.21637E-03         0.00000E+00
    0.76787E-03         0.16100E-03         0.00000E+00
    0.51426E-03         0.10647E-03         0.00000E+00
    0.25829E-03         0.52804E-04         0.00000E+00
    0.00000E+00         0.00000E+00         0.00000E+00
    0.87070E-02         0.30684E-02         0.00000E+00
    0.86280E-02         0.29984E-02         0.00000E+00
    0.85445E-02         0.29285E-02         0.00000E+00
    0.84564E-02         0.28585E-02         0.00000E+00
    0.83638E-02         0.27887E-02         0.00000E+00
    0.82668E-02         0.27189E-02         0.00000E+00
    0.81653E-02         0.26493E-02         0.00000E+00
    0.80594E-02         0.25799E-02         0.00000E+00
    0.79492E-02         0.25106E-02         0.00000E+00
    0.78346E-02         0.24415E-02         0.00000E+00
    0.77158E-02         0.23726E-02         0.00000E+00
    0.75928E-02         0.23040E-02         0.00000E+00
    0.74655E-02         0.22356E-02         0.00000E+00
    0.73341E-02         0.21675E-02         0.00000E+00
    0.71986E-02         0.20997E-02         0.00000E+00
    0.70591E-02         0.20323E-02         0.00000E+00
    0.69155E-02         0.19651E-02         0.00000E+00
    0.67680E-02         0.18984E-02         0.00000E+00
    0.66166E-02         0.18320E-02         0.00000E+00
    0.64613E-02         0.17661E-02         0.00000E+00
    0.63021E-02         0.17005E-02         0.00000E+00
    0.61392E-02         0.16354E-02         0.00000E+00
    0.59725E-02         0.15707E-02         0.00000E+00
    0.58022E-02         0.15066E-02         0.00000E+00
    0.56282E-02         0.14429E-02         0.00000E+00
    0.54507E-02         0.13797E-02         0.00000E+00
    0.52696E-02         0.13170E-02         0.00000E+00
    0.50851E-02         0.12548E-02         0.00000E+00
    0.48971E-02         0.11932E-02         0.00000E+00
    0.47057E-02         0.11321E-02         0.00000E+00
    0.45110E-02         0.10717E-02         0.00000E+00
    0.43131E-02         0.10118E-02         0.00000E+00
    0.41119E-02         0.95248E-03         0.00000E+00
    0.39075E-02         0.89379E-03         0.00000E+00
    0.37000E-02         0.83573E-03         0.00000E+00
    0.34895E-02         0.77830E-03         0.00000E+00
    0.32759E-02         0.72152E-03         0.00000E+00
    0.30594E-02         0.66540E-03         0.00000E+00
    0.28400E-02         0.60994E-03         0.00000E+00
    0.26177E-02         0.55516E-03         0.00000E+00
    0.23926E-02         0.50107E-03         0.00000E+00
    0.21648E-02         0.44768E-03         0.00000E+00
    0.19343E-02         0.39499E-03         0.00000E+00
    0.17012E-02         0.34302E-03         0.00000E+00
    0.14655E-02         0.29177E-03         0.00000E+00
    0.12272E-02         0.24126E-03         0.00000E+00
    0.98650E-03         0.19150E-03         0.00000E+00
    0.74336E-03         0.14248E-03         0.00000E+00
    0.49786E-03         0.94216E-04         0.00000E+00
    0.25006E-03         0.46722E-04         0.00000E+00
    0.00000E+00         0.00000E+00         0.00000E+00
    0.84384E-02         0.26918E-02         0.00000E+00
    0.83621E-02         0.26304E-02         0.00000E+00
    0.82814E-02         0.25689E-02         0.00000E+00
    0.81963E-02         0.25076E-02         0.00000E+00
    0.81069E-02         0.24462E-02         0.00000E+00
    0.80131E-02         0.23850E-02         0.00000E+00
    0.79150E-02         0.23239E-02         0.00000E+00
    0.78127E-02         0.22629E-02         0.00000E+00
    0.77061E-02         0.22021E-02         0.00000E+00
    0.75953E-02         0.21415E-02         0.00000E+00
    0.74805E-02         0.20810E-02         0.00000E+00
    0.73615E-02         0.20207E-02         0.00000E+00
    0.72384E-02         0.19607E-02         0.00000E+00
    0.71113E-02         0.19010E-02         0.00000E+00
    0.69802E-02         0.18415E-02         0.00000E+00
    0.68452E-02         0.17823E-02         0.00000E+00
    0.67062E-02         0.17234E-02         0.00000E+00
    0.65634E-02         0.16648E-02         0.00000E+00
    0.64168E-02         0.16065E-02         0.00000E+00
    0.62665E-02         0.15486E-02         0.00000E+00
    0.61124E-02         0.14911E-02         0.00000E+00
    0.59546E-02         0.14340E-02         0.00000E+00
    0.57932E-02         0.13772E-02         0.00000E+00
    0.56282E-02         0.13209E-02         0.00000E+00
    0.54597E-02         0.12650E-02         0.00000E+00
    0.52877E-02         0.12095E-02         0.00000E+00
    0.51122E-02         0.11545E-02         0.00000E+00
    0.49333E-02         0.11000E-02         0.00000E+00
    0.47511E-02         0.10459E-02         0.00000E+00
    0.45656E-02         0.99236E-03         0.00000E+00
    0.43769E-02         0.93930E-03         0.00000E+00
    0.41850E-02         0.88676E-03         0.00000E+00
    0.39899E-02         0.83475E-03         0.00000E+00
    0.37917E-02         0.78328E-03         0.00000E+00
    0.35905E-02         0.73236E-03         0.00000E+00
    0.33863E-02         0.68200E-03         0.00000E+00
    0.31792E-02         0.63221E-03         0.00000E+00
    0.29691E-02         0.58300E-03         0.00000E+00
    0.27563E-02         0.53438E-03         0.00000E+00
    0.25406E-02         0.48636E-03         0.00000E+00
    0.23222E-02         0.43894E-03         0.00000E+00
    0.21012E-02         0.39215E-03         0.00000E+00
    0.18775E-02         0.34597E-03         0.00000E+00
    0.16512E-02         0.30043E-03         0.00000E+00
    0.14225E-02         0.25553E-03         0.00000E+00
    0.11912E-02         0.21128E-03         0.00000E+00
    0.95760E-03         0.16769E-03         0.00000E+00
    0.72160E-03         0.12476E-03         0.00000E+00
    0.48329E-03         0.82492E-04         0.00000E+00
    0.24274E-03         0.40905E-04         0.00000E+00
    0.00000E+00         0.00000E+00         0.00000E+00
    0.82045E-02         0.23273E-02         0.00000E+00
    0.81305E-02         0.22742E-02         0.00000E+00
    0.80523E-02         0.22211E-02         0.00000E+00
    0.79697E-02         0.21680E-02         0.00000E+00
    0.78830E-02         0.21149E-02         0.00000E+00
    0.77920E-02         0.20620E-02         0.00000E+00
    0.76968E-02         0.20091E-02         0.00000E+00
    0.75975E-02         0.19564E-02         0.00000E+00
    0.74941E-02         0.19038E-02         0.00000E+00
    0.73867E-02         0.18513E-02         0.00000E+00
    0.72752E-02         0.17990E-02         0.00000E+00
    0.71597E-02         0.17469E-02         0.00000E+00
    0.70402E-02         0.16950E-02         0.00000E+00
    0.69168E-02         0.16433E-02         0.00000E+00
    0.67895E-02         0.15918E-02         0.00000E+00
    0.66584E-02         0.15406E-02         0.00000E+00
    0.65235E-02         0.14896E-02         0.00000E+00
    0.63848E-02         0.14390E-02         0.00000E+00
    0.62424E-02         0.13886E-02         0.00000E+00
    0.60963E-02         0.13385E-02         0.00000E+00
    0.59466E-02         0.12888E-02         0.00000E+00
    0.57933E-02         0.12393E-02         0.00000E+00
    0.56365E-02         0.11903E-02         0.00000E+00
    0.54761E-02         0.11415E-02         0.00000E+00
    0.53123E-02         0.10932E-02         0.00000E+00
    0.51451E-02         0.10452E-02         0.00000E+00
    0.49746E-02         0.99768E-03         0.00000E+00
    0.48007E-02         0.95052E-03         0.00000E+00
    0.46235E-02         0.90378E-03         0.00000E+00
    0.44431E-02         0.85747E-03         0.00000E+00
    0.42596E-02         0.81159E-03         0.00000E+00
    0.40729E-02         0.76617E-03         0.00000E+00
    0.38832E-02         0.72120E-03         0.00000E+00
    0.36904E-02         0.67671E-03         0.00000E+00
    0.34947E-02         0.63269E-03         0.00000E+00
    0.32960E-02         0.58916E-03         0.00000E+00
    0.30945E-02         0.54612E-03         0.00000E+00
    0.28901E-02         0.50359E-03         0.00000E+00
    0.26830E-02         0.46157E-03         0.00000E+00
    0.24731E-02         0.42008E-03         0.00000E+00
    0.22606E-02         0.37911E-03         0.00000E+00
    0.20454E-02         0.33867E-03         0.00000E+00
    0.18277E-02         0.29878E-03         0.00000E+00
    0.16075E-02         0.25944E-03         0.00000E+00
    0.13848E-02         0.22066E-03         0.00000E+00
    0.11597E-02         0.18244E-03         0.00000E+00
    0.93228E-03         0.14479E-03         0.00000E+00
    0.70253E-03         0.10771E-03         0.00000E+00
    0.47053E-03         0.71219E-04         0.00000E+00
    0.23634E-03         0.35313E-04         0.00000E+00
    0.00000E+00         0.00000E+00         0.00000E+00
    0.80042E-02         0.19732E-02         0.00000E+00
    0.79322E-02         0.19281E-02         0.00000E+00
    0.78560E-02         0.18831E-02         0.00000E+00
    0.77757E-02         0.18381E-02         0.00000E+00
    0.76912E-02         0.17931E-02         0.00000E+00
    0.76026E-02         0.17482E-02         0.00000E+00
    0.75099E-02         0.17033E-02         0.00000E+00
    0.74132E-02         0.16586E-02         0.00000E+00
    0.73125E-02         0.16140E-02         0.00000E+00
    0.72078E-02         0.15695E-02         0.00000E+00
    0.70992E-02         0.15251E-02         0.00000E+00
    0.69867E-02         0.14809E-02         0.00000E+00
    0.68703E-02         0.14369E-02         0.00000E+00
    0.67500E-02         0.13931E-02         0.00000E+00
    0.66260E-02         0.13494E-02         0.00000E+00
    0.64982E-02         0.13060E-02         0.00000E+00
    0.63667E-02         0.12628E-02         0.00000E+00
    0.62316E-02         0.12198E-02         0.00000E+00
    0.60928E-02         0.11771E-02         0.00000E+00
    0.59503E-02         0.11346E-02         0.00000E+00
    0.58044E-02         0.10924E-02         0.00000E+00
    0.56549E-02         0.10505E-02         0.00000E+00
    0.55020E-02         0.10089E-02         0.00000E+00
    0.53456E-02         0.96759E-03         0.00000E+00
    0.51858E-02         0.92659E-03         0.00000E+00
    0.50227E-02         0.88592E-03         0.00000E+00
    0.48564E-02         0.84559E-03         0.00000E+00
    0.46867E-02         0.80560E-03         0.00000E+00
    0.45139E-02         0.76597E-03         0.00000E+00
    0.43379E-02         0.72670E-03         0.00000E+00
    0.41588E-02         0.68780E-03         0.00000E+00
    0.39767E-02         0.64929E-03         0.00000E+00
    0.37915E-02         0.61117E-03         0.00000E+00
    0.36034E-02         0.57345E-03         0.00000E+00
    0.34123E-02         0.53613E-03         0.00000E+00
    0.32184E-02         0.49923E-03         0.00000E+00
    0.30217E-02         0.46275E-03         0.00000E+00
    0.28222E-02         0.42670E-03         0.00000E+00
    0.26200E-02         0.39109E-03         0.00000E+00
    0.24151E-02         0.35591E-03         0.00000E+00
    0.22076E-02         0.32119E-03         0.00000E+00
    0.19975E-02         0.28693E-03         0.00000E+00
    0.17849E-02         0.25312E-03         0.00000E+00
    0.15699E-02         0.21979E-03         0.00000E+00
    0.13524E-02         0.18693E-03         0.00000E+00
    0.11326E-02         0.15454E-03         0.00000E+00
    0.91050E-03         0.12264E-03         0.00000E+00
    0.68613E-03         0.91236E-04         0.00000E+00
    0.45955E-03         0.60323E-04         0.00000E+00
    0.23082E-03         0.29909E-04         0.00000E+00
    0.00000E+00         0.00000E+00         0.00000E+00
    0.78367E-02         0.16278E-02         0.00000E+00
    0.77664E-02         0.15906E-02         0.00000E+00
    0.76919E-02         0.15534E-02         0.00000E+00
    0.76133E-02         0.15162E-02         0.00000E+00
    0.75307E-02         0.14791E-02         0.00000E+00
    0.74441E-02         0.14421E-02         0.00000E+00
    0.73535E-02         0.14051E-02         0.00000E+00
    0.72590E-02         0.13682E-02         0.00000E+00
    0.71605E-02         0.13314E-02         0.00000E+00
    0.70581E-02         0.12947E-02         0.00000E+00
    0.69519E-02         0.12581E-02         0.00000E+00
    0.68418E-02         0.12216E-02         0.00000E+00
    0.67280E-02         0.11853E-02         0.00000E+00
    0.66104E-02         0.11491E-02         0.00000E+00
    0.64891E-02         0.11131E-02         0.00000E+00
    0.63641E-02         0.10773E-02         0.00000E+00
    0.62354E-02         0.10416E-02         0.00000E+00
    0.61032E-02         0.10062E-02         0.00000E+00
    0.59674E-02         0.97092E-03         0.00000E+00
    0.58280E-02         0.93589E-03         0.00000E+00
    0.56852E-02         0.90108E-03         0.00000E+00
    0.55389E-02         0.86650E-03         0.00000E+00
    0.53892E-02         0.83217E-03         0.00000E+00
    0.52362E-02         0.79808E-03         0.00000E+00
    0.50798E-02         0.76426E-03         0.00000E+00
    0.49201E-02         0.73071E-03         0.00000E+00
    0.47573E-02         0.69744E-03         0.00000E+00
    0.45912E-02         0.66445E-03         0.00000E+00
    0.44220E-02         0.63175E-03         0.00000E+00
    0.42497E-02         0.59936E-03         0.00000E+00
    0.40743E-02         0.56727E-03         0.00000E+00
    0.38959E-02         0.53550E-03         0.00000E+00
    0.37146E-02         0.50405E-03         0.00000E+00
    0.35303E-02         0.47294E-03         0.00000E+00
    0.33432E-02         0.44216E-03         0.00000E+00
    0.31533E-02         0.41172E-03         0.00000E+00
    0.29606E-02         0.38163E-03         0.00000E+00
    0.27652E-02         0.35189E-03         0.00000E+00
    0.25671E-02         0.32252E-03         0.00000E+00
    0.23664E-02         0.29351E-03         0.00000E+00
    0.21631E-02         0.26487E-03         0.00000E+00
    0.19573E-02         0.23661E-03         0.00000E+00
    0.17490E-02         0.20873E-03         0.00000E+00
    0.15383E-02         0.18124E-03         0.00000E+00
    0.13253E-02         0.15414E-03         0.00000E+00
    0.11099E-02         0.12743E-03         0.00000E+00
    0.89223E-03         0.10113E-03         0.00000E+00
    0.67236E-03         0.75228E-04         0.00000E+00
    0.45034E-03         0.49738E-04         0.00000E+00
    0.22620E-03         0.24661E-04         0.00000E+00
    0.00000E+00         0.00000E+00         0.00000E+00
    0.77013E-02         0.12894E-02         0.00000E+00
    0.76322E-02         0.12599E-02         0.00000E+00
    0.75591E-02         0.12305E-02         0.00000E+00
    0.74820E-02         0.12010E-02         0.00000E+00
    0.74009E-02         0.11716E-02         0.00000E+00
    0.73159E-02         0.11423E-02         0.00000E+00
    0.72269E-02         0.11130E-02         0.00000E+00
    0.71341E-02         0.10838E-02         0.00000E+00
    0.70374E-02         0.10546E-02         0.00000E+00
    0.69369E-02         0.10255E-02         0.00000E+00
    0.68327E-02         0.99656E-03         0.00000E+00
    0.67246E-02         0.96768E-03         0.00000E+00
    0.66128E-02         0.93891E-03         0.00000E+00
    0.64973E-02         0.91026E-03         0.00000E+00
    0.63782E-02         0.88174E-03         0.00000E+00
    0.62555E-02         0.85335E-03         0.00000E+00
    0.61291E-02         0.82511E-03         0.00000E+00
    0.59992E-02         0.79703E-03         0.00000E+00
    0.58658E-02         0.76911E-03         0.00000E+00
    0.57290E-02         0.74136E-03         0.00000E+00
    0.55886E-02         0.71378E-03         0.00000E+00
    0.54449E-02         0.68640E-03         0.00000E+00
    0.52979E-02         0.65920E-03         0.00000E+00
    0.51475E-02         0.63220E-03         0.00000E+00
    0.49939E-02         0.60541E-03         0.00000E+00
    0.48370E-02         0.57884E-03         0.00000E+00
    0.46770E-02         0.55248E-03         0.00000E+00
    0.45138E-02         0.52635E-03         0.00000E+00
    0.43475E-02         0.50045E-03         0.00000E+00
    0.41782E-02         0.47479E-03         0.00000E+00
    0.40058E-02         0.44938E-03         0.00000E+00
    0.38305E-02         0.42421E-03         0.00000E+00
    0.36523E-02         0.39930E-03         0.00000E+00
    0.34712E-02         0.37465E-03         0.00000E+00
    0.32872E-02         0.35027E-03         0.00000E+00
    0.31005E-02         0.32616E-03         0.00000E+00
    0.29111E-02         0.30232E-03         0.00000E+00
    0.27190E-02         0.27877E-03         0.00000E+00
    0.25242E-02         0.25550E-03         0.00000E+00
    0.23269E-02         0.23252E-03         0.00000E+00
    0.21270E-02         0.20983E-03         0.00000E+00
    0.19247E-02         0.18744E-03         0.00000E+00
    0.17199E-02         0.16536E-03         0.00000E+00
    0.15127E-02         0.14358E-03         0.00000E+00
    0.13032E-02         0.12211E-03         0.00000E+00
    0.10914E-02         0.10096E-03         0.00000E+00
    0.87741E-03         0.80117E-04         0.00000E+00
    0.66120E-03         0.59599E-04         0.00000E+00
    0.44286E-03         0.39405E-04         0.00000E+00
    0.22245E-03         0.19537E-04         0.00000E+00
    0.00000E+00         0.00000E+00         0.00000E+00
    0.75973E-02         0.95652E-03         0.00000E+00
    0.75291E-02         0.93468E-03         0.00000E+00
    0.74571E-02         0.91284E-03         0.00000E+00
    0.73811E-02         0.89102E-03         0.00000E+00
    0.73012E-02         0.86922E-03         0.00000E+00
    0.72174E-02         0.84746E-03         0.00000E+00
    0.71297E-02         0.82574E-03         0.00000E+00
    0.70382E-02         0.80406E-03         0.00000E+00
    0.69429E-02         0.78243E-03         0.00000E+00
    0.68439E-02         0.76087E-03         0.00000E+00
    0.67410E-02         0.73938E-03         0.00000E+00
    0.66345E-02         0.71796E-03         0.00000E+00
    0.65243E-02         0.69662E-03         0.00000E+00
    0.64105E-02         0.67538E-03         0.00000E+00
    0.62930E-02         0.65423E-03         0.00000E+00
    0.61720E-02         0.63318E-03         0.00000E+00
    0.60474E-02         0.61223E-03         0.00000E+00
    0.59193E-02         0.59141E-03         0.00000E+00
    0.57878E-02         0.57070E-03         0.00000E+00
    0.56528E-02         0.55012E-03         0.00000E+00
    0.55145E-02         0.52967E-03         0.00000E+00
    0.53728E-02         0.50935E-03         0.00000E+00
    0.52277E-02         0.48918E-03         0.00000E+00
    0.50794E-02         0.46916E-03         0.00000E+00
    0.49279E-02         0.44929E-03         0.00000E+00
    0.47732E-02         0.42958E-03         0.00000E+00
    0.46153E-02         0.41003E-03         0.00000E+00
    0.44543E-02         0.39064E-03         0.00000E+00
    0.42903E-02         0.37143E-03         0.00000E+00
    0.41232E-02         0.35240E-03         0.00000E+00
    0.39532E-02         0.33354E-03         0.00000E+00
    0.37802E-02         0.31488E-03         0.00000E+00
    0.36044E-02         0.29639E-03         0.00000E+00
    0.34257E-02         0.27811E-03         0.00000E+00
    0.32442E-02         0.26002E-03         0.00000E+00
    0.30600E-02         0.24213E-03         0.00000E+00
    0.28731E-02         0.22444E-03         0.00000E+00
    0.26835E-02         0.20696E-03         0.00000E+00
    0.24913E-02         0.18969E-03         0.00000E+00
    0.22966E-02         0.17264E-03         0.00000E+00
    0.20993E-02         0.15580E-03         0.00000E+00
    0.18997E-02         0.13918E-03         0.00000E+00
    0.16975E-02         0.12279E-03         0.00000E+00
    0.14931E-02         0.10662E-03         0.00000E+00
    0.12863E-02         0.90681E-04         0.00000E+00
    0.10773E-02         0.74974E-04         0.00000E+00
    0.86603E-03         0.59501E-04         0.00000E+00
    0.65263E-03         0.44264E-04         0.00000E+00
    0.43712E-03         0.29267E-04         0.00000E+00
    0.21956E-03         0.14512E-04         0.00000E+00
    0.00000E+00         0.00000E+00         0.00000E+00
    0.75242E-02         0.62777E-03         0.00000E+00
    0.74568E-02         0.61345E-03         0.00000E+00
    0.73854E-02         0.59913E-03         0.00000E+00
    0.73102E-02         0.58483E-03         0.00000E+00
    0.72311E-02         0.57054E-03         0.00000E+00
    0.71482E-02         0.55627E-03         0.00000E+00
    0.70614E-02         0.54202E-03         0.00000E+00
    0.69708E-02         0.52781E-03         0.00000E+00
    0.68765E-02         0.51363E-03         0.00000E+00
    0.67785E-02         0.49949E-03         0.00000E+00
    0.66767E-02         0.48540E-03         0.00000E+00
    0.65713E-02         0.47136E-03         0.00000E+00
    0.64622E-02         0.45737E-03         0.00000E+00
    0.63495E-02         0.44344E-03         0.00000E+00
    0.62332E-02         0.42957E-03         0.00000E+00
    0.61134E-02         0.41577E-03         0.00000E+00
    0.59901E-02         0.40203E-03         0.00000E+00
    0.58633E-02         0.38838E-03         0.00000E+00
    0.57330E-02         0.37480E-03         0.00000E+00
    0.55994E-02         0.36130E-03         0.00000E+00
    0.54624E-02         0.34789E-03         0.00000E+00
    0.53221E-02         0.33457E-03         0.00000E+00
    0.51785E-02         0.32134E-03         0.00000E+00
    0.50316E-02         0.30821E-03         0.00000E+00
    0.48816E-02         0.29517E-03         0.00000E+00
    0.47284E-02         0.28224E-03         0.00000E+00
    0.45720E-02         0.26942E-03         0.00000E+00
    0.44126E-02         0.25670E-03         0.00000E+00
    0.42501E-02         0.24410E-03         0.00000E+00
    0.40847E-02         0.23161E-03         0.00000E+00
    0.39163E-02         0.21923E-03         0.00000E+00
    0.37450E-02         0.20698E-03         0.00000E+00
    0.35708E-02         0.19485E-03         0.00000E+00
    0.33938E-02         0.18284E-03         0.00000E+00
    0.32141E-02         0.17097E-03         0.00000E+00
    0.30316E-02         0.15922E-03         0.00000E+00
    0.28464E-02         0.14760E-03         0.00000E+00
    0.26586E-02         0.13612E-03         0.00000E+00
    0.24682E-02         0.12478E-03         0.00000E+00
    0.22753E-02         0.11357E-03         0.00000E+00
    0.20799E-02         0.10251E-03         0.00000E+00
    0.18821E-02         0.91584E-04         0.00000E+00
    0.16819E-02         0.80806E-04         0.00000E+00
    0.14793E-02         0.70174E-04         0.00000E+00
    0.12744E-02         0.59691E-04         0.00000E+00
    0.10673E-02         0.49358E-04         0.00000E+00
    0.85805E-03         0.39176E-04         0.00000E+00
    0.64662E-03         0.29148E-04         0.00000E+00
    0.43310E-03         0.19275E-04         0.00000E+00
    0.21755E-03         0.95586E-05         0.00000E+00
    0.00000E+00         0.00000E+00         0.00000E+00
    0.74817E-02         0.30171E-03         0.00000E+00
    0.74147E-02         0.29485E-03         0.00000E+00
    0.73438E-02         0.28799E-03         0.00000E+00
    0.72690E-02         0.28114E-03         0.00000E+00
    0.71904E-02         0.27430E-03         0.00000E+00
    0.71080E-02         0.26746E-03         0.00000E+00
    0.70217E-02         0.26064E-03         0.00000E+00
    0.69317E-02         0.25383E-03         0.00000E+00
    0.68380E-02         0.24704E-03         0.00000E+00
    0.67405E-02         0.24027E-03         0.00000E+00
    0.66394E-02         0.23352E-03         0.00000E+00
    0.65346E-02         0.22680E-03         0.00000E+00
    0.64261E-02         0.22010E-03         0.00000E+00
    0.63141E-02         0.21343E-03         0.00000E+00
    0.61985E-02         0.20678E-03         0.00000E+00
    0.60794E-02         0.20017E-03         0.00000E+00
    0.59568E-02         0.19359E-03         0.00000E+00
    0.58308E-02         0.18705E-03         0.00000E+00
    0.57013E-02         0.18055E-03         0.00000E+00
    0.55685E-02         0.17408E-03         0.00000E+00
    0.54323E-02         0.16765E-03         0.00000E+00
    0.52928E-02         0.16127E-03         0.00000E+00
    0.51500E-02         0.15492E-03         0.00000E+00
    0.50040E-02         0.14863E-03         0.00000E+00
    0.48548E-02         0.14238E-03         0.00000E+00
    0.47025E-02         0.13617E-03         0.00000E+00
    0.45470E-02         0.13002E-03         0.00000E+00
    0.43885E-02         0.12392E-03         0.00000E+00
    0.42270E-02         0.11787E-03         0.00000E+00
    0.40625E-02         0.11187E-03         0.00000E+00
    0.38950E-02         0.10593E-03         0.00000E+00
    0.37246E-02         0.10004E-03         0.00000E+00
    0.35514E-02         0.94204E-04         0.00000E+00
    0.33754E-02         0.88430E-04         0.00000E+00
    0.31967E-02         0.82714E-04         0.00000E+00
    0.30152E-02         0.77057E-04         0.00000E+00
    0.28311E-02         0.71462E-04         0.00000E+00
    0.26443E-02         0.65928E-04         0.00000E+00
    0.24550E-02         0.60457E-04         0.00000E+00
    0.22631E-02         0.55049E-04         0.00000E+00
    0.20688E-02         0.49705E-04         0.00000E+00
    0.18720E-02         0.44427E-04         0.00000E+00
    0.16729E-02         0.39215E-04         0.00000E+00
    0.14714E-02         0.34071E-04         0.00000E+00
    0.12676E-02         0.28993E-04         0.00000E+00
    0.10616E-02         0.23985E-04         0.00000E+00
    0.85347E-03         0.19046E-04         0.00000E+00
    0.64317E-03         0.14177E-04         0.00000E+00
    0.43079E-03         0.93795E-05         0.00000E+00
    0.21639E-03         0.46535E-05         0.00000E+00
    0.00000E+00         0.00000E+00         0.00000E+00
    0.74696E-02        -0.23047E-04         0.00000E+00
    0.74027E-02        -0.22472E-04         0.00000E+00
    0.73320E-02        -0.21898E-04         0.00000E+00
    0.72574E-02        -0.21323E-04         0.00000E+00
    0.71789E-02        -0.20749E-04         0.00000E+00
    0.70966E-02        -0.20176E-04         0.00000E+00
    0.70105E-02        -0.19604E-04         0.00000E+00
    0.69207E-02        -0.19033E-04         0.00000E+00
    0.68271E-02        -0.18463E-04         0.00000E+00
    0.67299E-02        -0.17894E-04         0.00000E+00
    0.66289E-02        -0.17328E-04         0.00000E+00
    0.65243E-02        -0.16763E-04         0.00000E+00
    0.64161E-02        -0.16201E-04         0.00000E+00
    0.63043E-02        -0.15642E-04         0.00000E+00
    0.61889E-02        -0.15086E-04         0.00000E+00
    0.60700E-02        -0.14533E-04         0.00000E+00
    0.59476E-02        -0.13984E-04         0.00000E+00
    0.58218E-02        -0.13438E-04         0.00000E+00
    0.56926E-02        -0.12898E-04         0.00000E+00
    0.55600E-02        -0.12361E-04         0.00000E+00
    0.54240E-02        -0.11830E-04         0.00000E+00
    0.52847E-02        -0.11305E-04         0.00000E+00
    0.51422E-02        -0.10785E-04         0.00000E+00
    0.49965E-02        -0.10271E-04         0.00000E+00
    0.48475E-02        -0.97642E-05         0.00000E+00
    0.46954E-02        -0.92641E-05         0.00000E+00
    0.45403E-02        -0.87714E-05         0.00000E+00
    0.43820E-02        -0.82864E-05         0.00000E+00
    0.42207E-02        -0.78094E-05         0.00000E+00
    0.40565E-02        -0.73410E-05         0.00000E+00
    0.38893E-02        -0.68813E-05         0.00000E+00
    0.37192E-02        -0.64309E-05         0.00000E+00
    0.35463E-02        -0.59899E-05         0.00000E+00
    0.33705E-02        -0.55589E-05         0.00000E+00
    0.31921E-02        -0.51380E-05         0.00000E+00
    0.30109E-02        -0.47277E-05         0.00000E+00
    0.28270E-02        -0.43282E-05         0.00000E+00
    0.26405E-02        -0.39399E-05         0.00000E+00
    0.24515E-02        -0.35629E-05         0.00000E+00
    0.22599E-02        -0.31976E-05         0.00000E+00
    0.20658E-02        -0.28441E-05         0.00000E+00
    0.18694E-02        -0.25028E-05         0.00000E+00
    0.16705E-02        -0.21738E-05         0.00000E+00
    0.14693E-02        -0.18572E-05         0.00000E+00
    0.12658E-02        -0.15533E-05         0.00000E+00
    0.10602E-02        -0.12621E-05         0.00000E+00
    0.85228E-03        -0.98377E-06         0.00000E+00
    0.64228E-03        -0.71837E-06         0.00000E+00
    0.43019E-03        -0.46594E-06         0.00000E+00
    0.21609E-03        -0.22648E-06         0.00000E+00
    0.00000E+00         0.00000E+00         0.00000E+00
    0.74878E-02        -0.34786E-03         0.00000E+00
    0.74208E-02        -0.33985E-03         0.00000E+00
    0.73499E-02        -0.33184E-03         0.00000E+00
    0.72751E-02        -0.32384E-03         0.00000E+00
    0.71965E-02        -0.31584E-03         0.00000E+00
    0.71140E-02        -0.30786E-03         0.00000E+00
    0.70278E-02        -0.29989E-03         0.00000E+00
    0.69377E-02        -0.29194E-03         0.00000E+00
    0.68440E-02        -0.28401E-03         0.00000E+00
    0.67465E-02        -0.27610E-03         0.00000E+00
    0.66453E-02        -0.26821E-03         0.00000E+00
    0.65404E-02        -0.26035E-03         0.00000E+00
    0.64319E-02        -0.25253E-03         0.00000E+00
    0.63199E-02        -0.24473E-03         0.00000E+00
    0.62043E-02        -0.23698E-03         0.00000E+00
    0.60851E-02        -0.22926E-03         0.00000E+00
    0.59624E-02        -0.22158E-03         0.00000E+00
    0.58363E-02        -0.21394E-03         0.00000E+00
    0.57068E-02        -0.20635E-03         0.00000E+00
    0.55739E-02        -0.19881E-03         0.00000E+00
    0.54376E-02        -0.19132E-03         0.00000E+00
    0.52980E-02        -0.18388E-03         0.00000E+00
    0.51551E-02        -0.17649E-03         0.00000E+00
    0.50090E-02        -0.16917E-03         0.00000E+00
    0.48597E-02        -0.16190E-03         0.00000E+00
    0.47073E-02        -0.15470E-03         0.00000E+00
    0.45517E-02        -0.14756E-03         0.00000E+00
    0.43931E-02        -0.14048E-03         0.00000E+00
    0.42314E-02        -0.13348E-03         0.00000E+00
    0.40668E-02        -0.12654E-03         0.00000E+00
    0.38992E-02        -0.11967E-03         0.00000E+00
    0.37287E-02        -0.11288E-03         0.00000E+00
    0.35553E-02        -0.10617E-03         0.00000E+00
    0.33791E-02        -0.99530E-04         0.00000E+00
    0.32002E-02        -0.92972E-04         0.00000E+00
    0.30185E-02        -0.86495E-04         0.00000E+00
    0.28342E-02        -0.80100E-04         0.00000E+00
    0.26473E-02        -0.73789E-04         0.00000E+00
    0.24577E-02        -0.67564E-04         0.00000E+00
    0.22657E-02        -0.61426E-04         0.00000E+00
    0.20711E-02        -0.55376E-04         0.00000E+00
    0.18742E-02        -0.49416E-04         0.00000E+00
    0.16748E-02        -0.43547E-04         0.00000E+00
    0.14731E-02        -0.37770E-04         0.00000E+00
    0.12691E-02        -0.32086E-04         0.00000E+00
    0.10629E-02        -0.26497E-04         0.00000E+00
    0.85448E-03        -0.21004E-04         0.00000E+00
    0.64393E-03        -0.15606E-04         0.00000E+00
    0.43131E-03        -0.10306E-04         0.00000E+00
    0.21664E-03        -0.51036E-05         0.00000E+00
    0.00000E+00         0.00000E+00         0.00000E+00
    0.75365E-02        -0.67408E-03         0.00000E+00
    0.74691E-02        -0.65860E-03         0.00000E+00
    0.73977E-02        -0.64312E-03         0.00000E+00
    0.73224E-02        -0.62766E-03         0.00000E+00
    0.72433E-02        -0.61221E-03         0.00000E+00
    0.71603E-02        -0.59678E-03         0.00000E+00
    0.70735E-02        -0.58138E-03         0.00000E+00
    0.69829E-02        -0.56602E-03         0.00000E+00
    0.68885E-02        -0.55069E-03         0.00000E+00
    0.67904E-02        -0.53541E-03         0.00000E+00
    0.66885E-02        -0.52017E-03         0.00000E+00
    0.65830E-02        -0.50499E-03         0.00000E+00
    0.64738E-02        -0.48986E-03         0.00000E+00
    0.63610E-02        -0.47480E-03         0.00000E+00
    0.62447E-02        -0.45981E-03         0.00000E+00
    0.61247E-02        -0.44489E-03         0.00000E+00
    0.60013E-02        -0.43005E-03         0.00000E+00
    0.58744E-02        -0.41530E-03         0.00000E+00
    0.57440E-02        -0.40063E-03         0.00000E+00
    0.56102E-02        -0.38605E-03         0.00000E+00
    0.54731E-02        -0.37156E-03         0.00000E+00
    0.53326E-02        -0.35718E-03         0.00000E+00
    0.51888E-02        -0.34290E-03         0.00000E+00
    0.50417E-02        -0.32874E-03         0.00000E+00
    0.48915E-02        -0.31468E-03         0.00000E+00
    0.47380E-02        -0.30074E-03         0.00000E+00
    0.45815E-02        -0.28692E-03         0.00000E+00
    0.44218E-02        -0.27323E-03         0.00000E+00
    0.42591E-02        -0.25967E-03         0.00000E+00
    0.40933E-02        -0.24623E-03         0.00000E+00
    0.39247E-02        -0.23293E-03         0.00000E+00
    0.37530E-02        -0.21978E-03         0.00000E+00
    0.35786E-02        -0.20676E-03         0.00000E+00
    0.34012E-02        -0.19389E-03         0.00000E+00
    0.32211E-02        -0.18117E-03         0.00000E+00
    0.30383E-02        -0.16860E-03         0.00000E+00
    0.28528E-02        -0.15618E-03         0.00000E+00
    0.26646E-02        -0.14392E-03         0.00000E+00
    0.24738E-02        -0.13182E-03         0.00000E+00
    0.22805E-02        -0.11989E-03         0.00000E+00
    0.20847E-02        -0.10812E-03         0.00000E+00
    0.18864E-02        -0.96517E-04         0.00000E+00
    0.16858E-02        -0.85085E-04         0.00000E+00
    0.14828E-02        -0.73826E-04         0.00000E+00
    0.12774E-02        -0.62741E-04         0.00000E+00
    0.10699E-02        -0.51832E-04         0.00000E+00
    0.86008E-03        -0.41102E-04         0.00000E+00
    0.64816E-03        -0.30552E-04         0.00000E+00
    0.43413E-03        -0.20184E-04         0.00000E+00
    0.21806E-03        -0.99996E-05         0.00000E+00
    0.00000E+00         0.00000E+00         0.00000E+00
    0.76157E-02        -0.10031E-02         0.00000E+00
    0.75476E-02        -0.98004E-03         0.00000E+00
    0.74755E-02        -0.95703E-03         0.00000E+00
    0.73994E-02        -0.93404E-03         0.00000E+00
    0.73194E-02        -0.91108E-03         0.00000E+00
    0.72356E-02        -0.88814E-03         0.00000E+00
    0.71479E-02        -0.86525E-03         0.00000E+00
    0.70563E-02        -0.84241E-03         0.00000E+00
    0.69609E-02        -0.81962E-03         0.00000E+00
    0.68618E-02        -0.79690E-03         0.00000E+00
    0.67589E-02        -0.77425E-03         0.00000E+00
    0.66522E-02        -0.75168E-03         0.00000E+00
    0.65419E-02        -0.72920E-03         0.00000E+00
    0.64279E-02        -0.70681E-03         0.00000E+00
    0.63103E-02        -0.68453E-03         0.00000E+00
    0.61891E-02        -0.66235E-03         0.00000E+00
    0.60644E-02        -0.64029E-03         0.00000E+00
    0.59361E-02        -0.61835E-03         0.00000E+00
    0.58044E-02        -0.59653E-03         0.00000E+00
    0.56692E-02        -0.57486E-03         0.00000E+00
    0.55306E-02        -0.55333E-03         0.00000E+00
    0.53886E-02        -0.53194E-03         0.00000E+00
    0.52433E-02        -0.51071E-03         0.00000E+00
    0.50947E-02        -0.48964E-03         0.00000E+00
    0.49429E-02        -0.46874E-03         0.00000E+00
    0.47878E-02        -0.44801E-03         0.00000E+00
    0.46296E-02        -0.42746E-03         0.00000E+00
    0.44683E-02        -0.40709E-03         0.00000E+00
    0.43038E-02        -0.38691E-03         0.00000E+00
    0.41364E-02        -0.36693E-03         0.00000E+00
    0.39659E-02        -0.34714E-03         0.00000E+00
    0.37925E-02        -0.32756E-03         0.00000E+00
    0.36162E-02        -0.30819E-03         0.00000E+00
    0.34370E-02        -0.28904E-03         0.00000E+00
    0.32550E-02        -0.27010E-03         0.00000E+00
    0.30702E-02        -0.25138E-03         0.00000E+00
    0.28828E-02        -0.23290E-03         0.00000E+00
    0.26926E-02        -0.21464E-03         0.00000E+00
    0.24998E-02        -0.19662E-03         0.00000E+00
    0.23045E-02        -0.17884E-03         0.00000E+00
    0.21066E-02        -0.16130E-03         0.00000E+00
    0.19063E-02        -0.14401E-03         0.00000E+00
    0.17035E-02        -0.12697E-03         0.00000E+00
    0.14983E-02        -0.11018E-03         0.00000E+00
    0.12909E-02        -0.93650E-04         0.00000E+00
    0.10811E-02        -0.77378E-04         0.00000E+00
    0.86912E-03        -0.61368E-04         0.00000E+00
    0.65497E-03        -0.45623E-04         0.00000E+00
    0.43870E-03        -0.30145E-04         0.00000E+00
    0.22036E-03        -0.14936E-04         0.00000E+00
    0.00000E+00         0.00000E+00         0.00000E+00
    0.77259E-02        -0.13361E-02         0.00000E+00
    0.76567E-02        -0.13055E-02         0.00000E+00
    0.75836E-02        -0.12749E-02         0.00000E+00
    0.75064E-02        -0.12443E-02         0.00000E+00
    0.74253E-02        -0.12137E-02         0.00000E+00
    0.73402E-02        -0.11831E-02         0.00000E+00
    0.72512E-02        -0.11527E-02         0.00000E+00
    0.71583E-02        -0.11223E-02         0.00000E+00
    0.70615E-02        -0.10919E-02         0.00000E+00
    0.69609E-02        -0.10617E-02         0.00000E+00
    0.68565E-02        -0.10315E-02         0.00000E+00
    0.67484E-02        -0.10015E-02         0.00000E+00
    0.66364E-02        -0.97153E-03         0.00000E+00
    0.65208E-02        -0.94172E-03         0.00000E+00
    0.64015E-02        -0.91205E-03         0.00000E+00
    0.62785E-02        -0.88252E-03         0.00000E+00
    0.61520E-02        -0.85315E-03         0.00000E+00
    0.60219E-02        -0.82393E-03         0.00000E+00
    0.58882E-02        -0.79489E-03         0.00000E+00
    0.57510E-02        -0.76603E-03         0.00000E+00
    0.56104E-02        -0.73736E-03         0.00000E+00
    0.54664E-02        -0.70889E-03         0.00000E+00
    0.53190E-02        -0.68062E-03         0.00000E+00
    0.51682E-02        -0.65256E-03         0.00000E+00
    0.50142E-02        -0.62473E-03         0.00000E+00
    0.48569E-02        -0.59712E-03         0.00000E+00
    0.46964E-02        -0.56975E-03         0.00000E+00
    0.45327E-02        -0.54263E-03         0.00000E+00
    0.43659E-02        -0.51575E-03         0.00000E+00
    0.41960E-02        -0.48914E-03         0.00000E+00
    0.40230E-02        -0.46278E-03         0.00000E+00
    0.38471E-02        -0.43670E-03         0.00000E+00
    0.36683E-02        -0.41090E-03         0.00000E+00
    0.34865E-02        -0.38538E-03         0.00000E+00
    0.33019E-02        -0.36015E-03         0.00000E+00
    0.31144E-02        -0.33521E-03         0.00000E+00
    0.29243E-02        -0.31058E-03         0.00000E+00
    0.27314E-02        -0.28625E-03         0.00000E+00
    0.25358E-02        -0.26223E-03         0.00000E+00
    0.23377E-02        -0.23853E-03         0.00000E+00
    0.21369E-02        -0.21516E-03         0.00000E+00
    0.19337E-02        -0.19210E-03         0.00000E+00
    0.17280E-02        -0.16938E-03         0.00000E+00
    0.15199E-02        -0.14700E-03         0.00000E+00
    0.13094E-02        -0.12495E-03         0.00000E+00
    0.10966E-02        -0.10325E-03         0.00000E+00
    0.88162E-03        -0.81890E-04         0.00000E+00
    0.66439E-03        -0.60884E-04         0.00000E+00
    0.44500E-03        -0.40231E-04         0.00000E+00
    0.22352E-03        -0.19936E-04         0.00000E+00
    0.00000E+00         0.00000E+00         0.00000E+00
    0.78674E-02        -0.16747E-02         0.00000E+00
    0.77970E-02        -0.16363E-02         0.00000E+00
    0.77225E-02        -0.15979E-02         0.00000E+00
    0.76439E-02        -0.15596E-02         0.00000E+00
    0.75613E-02        -0.15213E-02         0.00000E+00
    0.74746E-02        -0.14830E-02         0.00000E+00
    0.73840E-02        -0.14448E-02         0.00000E+00
    0.72893E-02        -0.14067E-02         0.00000E+00
    0.71908E-02        -0.13687E-02         0.00000E+00
    0.70883E-02        -0.13308E-02         0.00000E+00
    0.69820E-02        -0.12930E-02         0.00000E+00
    0.68718E-02        -0.12554E-02         0.00000E+00
    0.67578E-02        -0.12179E-02         0.00000E+00
    0.66400E-02        -0.11805E-02         0.00000E+00
    0.65185E-02        -0.11433E-02         0.00000E+00
    0.63933E-02        -0.11063E-02         0.00000E+00
    0.62644E-02        -0.10695E-02         0.00000E+00
    0.61319E-02        -0.10329E-02         0.00000E+00
    0.59957E-02        -0.99653E-03         0.00000E+00
    0.58560E-02        -0.96037E-03         0.00000E+00
    0.57128E-02        -0.92444E-03         0.00000E+00
    0.55662E-02        -0.88876E-03         0.00000E+00
    0.54160E-02        -0.85334E-03         0.00000E+00
    0.52625E-02        -0.81818E-03         0.00000E+00
    0.51056E-02        -0.78330E-03         0.00000E+00
    0.49454E-02        -0.74871E-03         0.00000E+00
    0.47820E-02        -0.71441E-03         0.00000E+00
    0.46153E-02        -0.68041E-03         0.00000E+00
    0.44454E-02        -0.64673E-03         0.00000E+00
    0.42724E-02        -0.61337E-03         0.00000E+00
    0.40963E-02        -0.58035E-03         0.00000E+00
    0.39172E-02        -0.54766E-03         0.00000E+00
    0.37350E-02        -0.51531E-03         0.00000E+00
    0.35499E-02        -0.48332E-03         0.00000E+00
    0.33620E-02        -0.45170E-03         0.00000E+00
    0.31711E-02        -0.42044E-03         0.00000E+00
    0.29774E-02        -0.38956E-03         0.00000E+00
    0.27810E-02        -0.35905E-03         0.00000E+00
    0.25819E-02        -0.32894E-03         0.00000E+00
    0.23801E-02        -0.29923E-03         0.00000E+00
    0.21758E-02        -0.26991E-03         0.00000E+00
    0.19688E-02        -0.24100E-03         0.00000E+00
    0.17594E-02        -0.21251E-03         0.00000E+00
    0.15475E-02        -0.18443E-03         0.00000E+00
    0.13332E-02        -0.15678E-03         0.00000E+00
    0.11166E-02        -0.12955E-03         0.00000E+00
    0.89763E-03        -0.10276E-03         0.00000E+00
    0.67645E-03        -0.76403E-04         0.00000E+00
    0.45308E-03        -0.50489E-04         0.00000E+00
    0.22758E-03        -0.25020E-04         0.00000E+00
    0.00000E+00         0.00000E+00         0.00000E+00
    0.80409E-02        -0.20202E-02         0.00000E+00
    0.79689E-02        -0.19739E-02         0.00000E+00
    0.78927E-02        -0.19276E-02         0.00000E+00
    0.78124E-02        -0.18814E-02         0.00000E+00
    0.77279E-02        -0.18351E-02         0.00000E+00
    0.76393E-02        -0.17890E-02         0.00000E+00
    0.75466E-02        -0.17429E-02         0.00000E+00
    0.74499E-02        -0.16970E-02         0.00000E+00
    0.73492E-02        -0.16511E-02         0.00000E+00
    0.72444E-02        -0.16054E-02         0.00000E+00
    0.71357E-02        -0.15599E-02         0.00000E+00
    0.70230E-02        -0.15144E-02         0.00000E+00
    0.69065E-02        -0.14692E-02         0.00000E+00
    0.67861E-02        -0.14242E-02         0.00000E+00
    0.66619E-02        -0.13793E-02         0.00000E+00
    0.65339E-02        -0.13347E-02         0.00000E+00
    0.64021E-02        -0.12903E-02         0.00000E+00
    0.62666E-02        -0.12462E-02         0.00000E+00
    0.61274E-02        -0.12023E-02         0.00000E+00
    0.59847E-02        -0.11587E-02         0.00000E+00
    0.58383E-02        -0.11154E-02         0.00000E+00
    0.56883E-02        -0.10723E-02         0.00000E+00
    0.55349E-02        -0.10296E-02         0.00000E+00
    0.53779E-02        -0.98720E-03         0.00000E+00
    0.52176E-02        -0.94513E-03         0.00000E+00
    0.50539E-02        -0.90341E-03         0.00000E+00
    0.48868E-02        -0.86204E-03         0.00000E+00
    0.47164E-02        -0.82104E-03         0.00000E+00
    0.45428E-02        -0.78041E-03         0.00000E+00
    0.43660E-02        -0.74018E-03         0.00000E+00
    0.41860E-02        -0.70034E-03         0.00000E+00
    0.40029E-02        -0.66091E-03         0.00000E+00
    0.38167E-02        -0.62189E-03         0.00000E+00
    0.36276E-02        -0.58330E-03         0.00000E+00
    0.34355E-02        -0.54515E-03         0.00000E+00
    0.32404E-02        -0.50743E-03         0.00000E+00
    0.30425E-02        -0.47018E-03         0.00000E+00
    0.28418E-02        -0.43338E-03         0.00000E+00
    0.26383E-02        -0.39704E-03         0.00000E+00
    0.24321E-02        -0.36119E-03         0.00000E+00
    0.22233E-02        -0.32581E-03         0.00000E+00
    0.20118E-02        -0.29093E-03         0.00000E+00
    0.17978E-02        -0.25654E-03         0.00000E+00
    0.15813E-02        -0.22265E-03         0.00000E+00
    0.13623E-02        -0.18927E-03         0.00000E+00
    0.11409E-02        -0.15641E-03         0.00000E+00
    0.91720E-03        -0.12407E-03         0.00000E+00
    0.69120E-03        -0.92250E-04         0.00000E+00
    0.46296E-03        -0.60963E-04         0.00000E+00
    0.23254E-03        -0.30212E-04         0.00000E+00
    0.00000E+00         0.00000E+00         0.00000E+00
    0.82471E-02        -0.23740E-02         0.00000E+00
    0.81733E-02        -0.23196E-02         0.00000E+00
    0.80951E-02        -0.22652E-02         0.00000E+00
    0.80127E-02        -0.22109E-02         0.00000E+00
    0.79260E-02        -0.21566E-02         0.00000E+00
    0.78351E-02        -0.21024E-02         0.00000E+00
    0.77400E-02        -0.20483E-02         0.00000E+00
    0.76407E-02        -0.19943E-02         0.00000E+00
    0.75373E-02        -0.19404E-02         0.00000E+00
    0.74298E-02        -0.18867E-02         0.00000E+00
    0.73183E-02        -0.18332E-02         0.00000E+00
    0.72027E-02        -0.17798E-02         0.00000E+00
    0.70831E-02        -0.17267E-02         0.00000E+00
    0.69596E-02        -0.16737E-02         0.00000E+00
    0.68321E-02        -0.16211E-02         0.00000E+00
    0.67008E-02        -0.15686E-02         0.00000E+00
    0.65656E-02        -0.15165E-02         0.00000E+00
    0.64266E-02        -0.14646E-02         0.00000E+00
    0.62838E-02        -0.14131E-02         0.00000E+00
    0.61373E-02        -0.13618E-02         0.00000E+00
    0.59872E-02        -0.13109E-02         0.00000E+00
    0.58333E-02        -0.12604E-02         0.00000E+00
    0.56759E-02        -0.12102E-02         0.00000E+00
    0.55150E-02        -0.11603E-02         0.00000E+00
    0.53505E-02        -0.11109E-02         0.00000E+00
    0.51825E-02        -0.10619E-02         0.00000E+00
    0.50111E-02        -0.10133E-02         0.00000E+00
    0.48364E-02        -0.96511E-03         0.00000E+00
    0.46583E-02        -0.91737E-03         0.00000E+00
    0.44770E-02        -0.87009E-03         0.00000E+00
    0.42924E-02        -0.82328E-03         0.00000E+00
    0.41046E-02        -0.77694E-03         0.00000E+00
    0.39137E-02        -0.73109E-03         0.00000E+00
    0.37197E-02        -0.68574E-03         0.00000E+00
    0.35227E-02        -0.64090E-03         0.00000E+00
    0.33226E-02        -0.59658E-03         0.00000E+00
    0.31197E-02        -0.55279E-03         0.00000E+00
    0.29139E-02        -0.50954E-03         0.00000E+00
    0.27052E-02        -0.46684E-03         0.00000E+00
    0.24938E-02        -0.42469E-03         0.00000E+00
    0.22796E-02        -0.38311E-03         0.00000E+00
    0.20628E-02        -0.34210E-03         0.00000E+00
    0.18433E-02        -0.30167E-03         0.00000E+00
    0.16213E-02        -0.26183E-03         0.00000E+00
    0.13968E-02        -0.22259E-03         0.00000E+00
    0.11698E-02        -0.18395E-03         0.00000E+00
    0.94041E-03        -0.14591E-03         0.00000E+00
    0.70869E-03        -0.10850E-03         0.00000E+00
    0.47467E-03        -0.71703E-04         0.00000E+00
    0.23843E-03        -0.35535E-04         0.00000E+00
    0.00000E+00         0.00000E+00         0.00000E+00
    0.84869E-02        -0.27377E-02         0.00000E+00
    0.84109E-02        -0.26750E-02         0.00000E+00
    0.83304E-02        -0.26123E-02         0.00000E+00
    0.82455E-02        -0.25496E-02         0.00000E+00
    0.81562E-02        -0.24870E-02         0.00000E+00
    0.80626E-02        -0.24245E-02         0.00000E+00
    0.79647E-02        -0.23621E-02         0.00000E+00
    0.78625E-02        -0.22999E-02         0.00000E+00
    0.77560E-02        -0.22378E-02         0.00000E+00
    0.76454E-02        -0.21758E-02         0.00000E+00
    0.75305E-02        -0.21141E-02         0.00000E+00
    0.74115E-02        -0.20526E-02         0.00000E+00
    0.72884E-02        -0.19913E-02         0.00000E+00
    0.71612E-02        -0.19303E-02         0.00000E+00
    0.70300E-02        -0.18696E-02         0.00000E+00
    0.68947E-02        -0.18091E-02         0.00000E+00
    0.67556E-02        -0.17490E-02         0.00000E+00
    0.66125E-02        -0.16892E-02         0.00000E+00
    0.64655E-02        -0.16297E-02         0.00000E+00
    0.63147E-02        -0.15707E-02         0.00000E+00
    0.61601E-02        -0.15120E-02         0.00000E+00
    0.60018E-02        -0.14537E-02         0.00000E+00
    0.58397E-02        -0.13958E-02         0.00000E+00
    0.56741E-02        -0.13384E-02         0.00000E+00
    0.55048E-02        -0.12814E-02         0.00000E+00
    0.53319E-02        -0.12249E-02         0.00000E+00
    0.51555E-02        -0.11688E-02         0.00000E+00
    0.49757E-02        -0.11133E-02         0.00000E+00
    0.47924E-02        -0.10582E-02         0.00000E+00
    0.46058E-02        -0.10037E-02         0.00000E+00
    0.44158E-02        -0.94972E-03         0.00000E+00
    0.42226E-02        -0.89628E-03         0.00000E+00
    0.40262E-02        -0.84341E-03         0.00000E+00
    0.38266E-02        -0.79112E-03         0.00000E+00
    0.36238E-02        -0.73940E-03         0.00000E+00
    0.34180E-02        -0.68829E-03         0.00000E+00
    0.32092E-02        -0.63779E-03         0.00000E+00
    0.29975E-02        -0.58790E-03         0.00000E+00
    0.27828E-02        -0.53864E-03         0.00000E+00
    0.25653E-02        -0.49003E-03         0.00000E+00
    0.23449E-02        -0.44206E-03         0.00000E+00
    0.21219E-02        -0.39475E-03         0.00000E+00
    0.18961E-02        -0.34811E-03         0.00000E+00
    0.16677E-02        -0.30215E-03         0.00000E+00
    0.14368E-02        -0.25687E-03         0.00000E+00
    0.12033E-02        -0.21229E-03         0.00000E+00
    0.96733E-03        -0.16840E-03         0.00000E+00
    0.72897E-03        -0.12522E-03         0.00000E+00
    0.48825E-03        -0.82759E-04         0.00000E+00
    0.24525E-03        -0.41016E-04         0.00000E+00
    0.00000E+00         0.00000E+00         0.00000E+00
    0.87613E-02        -0.31129E-02         0.00000E+00
    0.86828E-02        -0.30415E-02         0.00000E+00
    0.85996E-02        -0.29702E-02         0.00000E+00
    0.85119E-02        -0.28990E-02         0.00000E+00
    0.84197E-02        -0.28278E-02         0.00000E+00
    0.83230E-02        -0.27568E-02         0.00000E+00
    0.82218E-02        -0.26859E-02         0.00000E+00
    0.81162E-02        -0.26151E-02         0.00000E+00
    0.80062E-02        -0.25445E-02         0.00000E+00
    0.78919E-02        -0.24741E-02         0.00000E+00
    0.77732E-02        -0.24039E-02         0.00000E+00
    0.76503E-02        -0.23340E-02         0.00000E+00
    0.75231E-02        -0.22643E-02         0.00000E+00
    0.73917E-02        -0.21950E-02         0.00000E+00
    0.72561E-02        -0.21259E-02         0.00000E+00
    0.71165E-02        -0.20572E-02         0.00000E+00
    0.69727E-02        -0.19889E-02         0.00000E+00
    0.68249E-02        -0.19209E-02         0.00000E+00
    0.66731E-02        -0.18533E-02         0.00000E+00
    0.65174E-02        -0.17862E-02         0.00000E+00
    0.63578E-02        -0.17194E-02         0.00000E+00
    0.61942E-02        -0.16532E-02         0.00000E+00
    0.60269E-02        -0.15874E-02         0.00000E+00
    0.58558E-02        -0.15221E-02         0.00000E+00
    0.56810E-02        -0.14573E-02         0.00000E+00
    0.55026E-02        -0.13930E-02         0.00000E+00
    0.53205E-02        -0.13293E-02         0.00000E+00
    0.51348E-02        -0.12662E-02         0.00000E+00
    0.49456E-02        -0.12036E-02         0.00000E+00
    0.47529E-02        -0.11416E-02         0.00000E+00
    0.45568E-02        -0.10802E-02         0.00000E+00
    0.43574E-02        -0.10195E-02         0.00000E+00
    0.41546E-02        -0.95937E-03         0.00000E+00
    0.39486E-02        -0.89990E-03         0.00000E+00
    0.37393E-02        -0.84110E-03         0.00000E+00
    0.35269E-02        -0.78298E-03         0.00000E+00
    0.33114E-02        -0.72555E-03         0.00000E+00
    0.30929E-02        -0.66882E-03         0.00000E+00
    0.28714E-02        -0.61280E-03         0.00000E+00
    0.26469E-02        -0.55751E-03         0.00000E+00
    0.24195E-02        -0.50295E-03         0.00000E+00
    0.21893E-02        -0.44915E-03         0.00000E+00
    0.19564E-02        -0.39609E-03         0.00000E+00
    0.17207E-02        -0.34381E-03         0.00000E+00
    0.14824E-02        -0.29230E-03         0.00000E+00
    0.12415E-02        -0.24157E-03         0.00000E+00
    0.99804E-03        -0.19164E-03         0.00000E+00
    0.75210E-03        -0.14251E-03         0.00000E+00
    0.50375E-03        -0.94186E-04         0.00000E+00
    0.25303E-03        -0.46681E-04         0.00000E+00
    0.00000E+00         0.00000E+00         0.00000E+00
    0.90716E-02        -0.35010E-02         0.00000E+00
    0.89901E-02        -0.34209E-02         0.00000E+00
    0.89039E-02        -0.33407E-02         0.00000E+00
    0.88130E-02        -0.32606E-02         0.00000E+00
    0.87174E-02        -0.31806E-02         0.00000E+00
    0.86172E-02        -0.31007E-02         0.00000E+00
    0.85123E-02        -0.30209E-02         0.00000E+00
    0.84028E-02        -0.29413E-02         0.00000E+00
    0.82889E-02        -0.28619E-02         0.00000E+00
    0.81703E-02        -0.27828E-02         0.00000E+00
    0.80474E-02        -0.27039E-02         0.00000E+00
    0.79200E-02        -0.26253E-02         0.00000E+00
    0.77882E-02        -0.25469E-02         0.00000E+00
    0.76520E-02        -0.24689E-02         0.00000E+00
    0.75116E-02        -0.23913E-02         0.00000E+00
    0.73668E-02        -0.23141E-02         0.00000E+00
    0.72179E-02        -0.22372E-02         0.00000E+00
    0.70648E-02        -0.21608E-02         0.00000E+00
    0.69075E-02        -0.20848E-02         0.00000E+00
    0.67462E-02        -0.20093E-02         0.00000E+00
    0.65808E-02        -0.19342E-02         0.00000E+00
    0.64114E-02        -0.18597E-02         0.00000E+00
    0.62381E-02        -0.17857E-02         0.00000E+00
    0.60609E-02        -0.17123E-02         0.00000E+00
    0.58799E-02        -0.16395E-02         0.00000E+00
    0.56951E-02        -0.15672E-02         0.00000E+00
    0.55065E-02        -0.14956E-02         0.00000E+00
    0.53142E-02        -0.14245E-02         0.00000E+00
    0.51183E-02        -0.13542E-02         0.00000E+00
    0.49189E-02        -0.12845E-02         0.00000E+00
    0.47159E-02        -0.12155E-02         0.00000E+00
    0.45094E-02        -0.11471E-02         0.00000E+00
    0.42994E-02        -0.10795E-02         0.00000E+00
    0.40862E-02        -0.10126E-02         0.00000E+00
    0.38696E-02        -0.94650E-03         0.00000E+00
    0.36497E-02        -0.88112E-03         0.00000E+00
    0.34267E-02        -0.81651E-03         0.00000E+00
    0.32005E-02        -0.75270E-03         0.00000E+00
    0.29712E-02        -0.68968E-03         0.00000E+00
    0.27389E-02        -0.62747E-03         0.00000E+00
    0.25036E-02        -0.56609E-03         0.00000E+00
    0.22654E-02        -0.50555E-03         0.00000E+00
    0.20243E-02        -0.44585E-03         0.00000E+00
    0.17804E-02        -0.38701E-03         0.00000E+00
    0.15338E-02        -0.32904E-03         0.00000E+00
    0.12845E-02        -0.27195E-03         0.00000E+00
    0.10326E-02        -0.21575E-03         0.00000E+00
    0.77817E-03        -0.16044E-03         0.00000E+00
    0.52120E-03        -0.10604E-03         0.00000E+00
    0.26179E-03        -0.52560E-04         0.00000E+00
    0.00000E+00         0.00000E+00         0.00000E+00
    0.94190E-02        -0.39041E-02         0.00000E+00
    0.93343E-02        -0.38147E-02         0.00000E+00
    0.92446E-02        -0.37253E-02         0.00000E+00
    0.91501E-02        -0.36360E-02         0.00000E+00
    0.90507E-02        -0.35468E-02         0.00000E+00
    0.89465E-02        -0.34577E-02         0.00000E+00
    0.88374E-02        -0.33688E-02         0.00000E+00
    0.87236E-02        -0.32801E-02         0.00000E+00
    0.86051E-02        -0.31916E-02         0.00000E+00
    0.84819E-02        -0.31034E-02         0.00000E+00
    0.83541E-02        -0.30154E-02         0.00000E+00
    0.82216E-02        -0.29277E-02         0.00000E+00
    0.80847E-02        -0.28404E-02         0.00000E+00
    0.79431E-02        -0.27535E-02         0.00000E+00
    0.77972E-02        -0.26669E-02         0.00000E+00
    0.76468E-02        -0.25808E-02         0.00000E+00
    0.74920E-02        -0.24951E-02         0.00000E+00
    0.73329E-02        -0.24099E-02         0.00000E+00
    0.71695E-02        -0.23252E-02         0.00000E+00
    0.70019E-02        -0.22410E-02         0.00000E+00
    0.68301E-02        -0.21574E-02         0.00000E+00
    0.66542E-02        -0.20743E-02         0.00000E+00
    0.64741E-02        -0.19919E-02         0.00000E+00
    0.62901E-02        -0.19100E-02         0.00000E+00
    0.61021E-02        -0.18288E-02         0.00000E+00
    0.59101E-02        -0.17482E-02         0.00000E+00
    0.57143E-02        -0.16684E-02         0.00000E+00
    0.55147E-02        -0.15892E-02         0.00000E+00
    0.53113E-02        -0.15107E-02         0.00000E+00
    0.51042E-02        -0.14330E-02         0.00000E+00
    0.48934E-02        -0.13560E-02         0.00000E+00
    0.46790E-02        -0.12798E-02         0.00000E+00
    0.44611E-02        -0.12045E-02         0.00000E+00
    0.42397E-02        -0.11299E-02         0.00000E+00
    0.40149E-02        -0.10561E-02         0.00000E+00
    0.37867E-02        -0.98320E-03         0.00000E+00
    0.35552E-02        -0.91114E-03         0.00000E+00
    0.33205E-02        -0.83996E-03         0.00000E+00
    0.30825E-02        -0.76967E-03         0.00000E+00
    0.28415E-02        -0.70027E-03         0.00000E+00
    0.25973E-02        -0.63180E-03         0.00000E+00
    0.23502E-02        -0.56425E-03         0.00000E+00
    0.21000E-02        -0.49764E-03         0.00000E+00
    0.18470E-02        -0.43199E-03         0.00000E+00
    0.15912E-02        -0.36730E-03         0.00000E+00
    0.13326E-02        -0.30358E-03         0.00000E+00
    0.10712E-02        -0.24085E-03         0.00000E+00
    0.80724E-03        -0.17912E-03         0.00000E+00
    0.54066E-03        -0.11839E-03         0.00000E+00
    0.27156E-03        -0.58685E-04         0.00000E+00
    0.00000E+00         0.00000E+00         0.00000E+00
    0.98050E-02        -0.43238E-02         0.00000E+00
    0.97167E-02        -0.42248E-02         0.00000E+00
    0.96232E-02        -0.41259E-02         0.00000E+00
    0.95246E-02        -0.40270E-02         0.00000E+00
    0.94209E-02        -0.39283E-02         0.00000E+00
    0.93122E-02        -0.38296E-02         0.00000E+00
    0.91985E-02        -0.37312E-02         0.00000E+00
    0.90799E-02        -0.36330E-02         0.00000E+00
    0.89563E-02        -0.35350E-02         0.00000E+00
    0.88278E-02        -0.34373E-02         0.00000E+00
    0.86946E-02        -0.33399E-02         0.00000E+00
    0.85565E-02        -0.32429E-02         0.00000E+00
    0.84137E-02        -0.31463E-02         0.00000E+00
    0.82662E-02        -0.30500E-02         0.00000E+00
    0.81141E-02        -0.29542E-02         0.00000E+00
    0.79574E-02        -0.28588E-02         0.00000E+00
    0.77961E-02        -0.27640E-02         0.00000E+00
    0.76303E-02        -0.26696E-02         0.00000E+00
    0.74601E-02        -0.25759E-02         0.00000E+00
    0.72855E-02        -0.24827E-02         0.00000E+00
    0.71065E-02        -0.23901E-02         0.00000E+00
    0.69232E-02        -0.22981E-02         0.00000E+00
    0.67358E-02        -0.22068E-02         0.00000E+00
    0.65441E-02        -0.21162E-02         0.00000E+00
    0.63483E-02        -0.20262E-02         0.00000E+00
    0.61484E-02        -0.19370E-02         0.00000E+00
    0.59446E-02        -0.18486E-02         0.00000E+00
    0.57367E-02        -0.17609E-02         0.00000E+00
    0.55250E-02        -0.16740E-02         0.00000E+00
    0.53094E-02        -0.15880E-02         0.00000E+00
    0.50900E-02        -0.15027E-02         0.00000E+00
    0.48669E-02        -0.14183E-02         0.00000E+00
    0.46401E-02        -0.13348E-02         0.00000E+00
    0.44098E-02        -0.12522E-02         0.00000E+00
    0.41758E-02        -0.11705E-02         0.00000E+00
    0.39384E-02        -0.10898E-02         0.00000E+00
    0.36976E-02        -0.10100E-02         0.00000E+00
    0.34533E-02        -0.93109E-03         0.00000E+00
    0.32058E-02        -0.85321E-03         0.00000E+00
    0.29550E-02        -0.77632E-03         0.00000E+00
    0.27011E-02        -0.70044E-03         0.00000E+00
    0.24440E-02        -0.62558E-03         0.00000E+00
    0.21838E-02        -0.55176E-03         0.00000E+00
    0.19207E-02        -0.47899E-03         0.00000E+00
    0.16546E-02        -0.40728E-03         0.00000E+00
    0.13857E-02        -0.33665E-03         0.00000E+00
    0.11139E-02        -0.26710E-03         0.00000E+00
    0.83939E-03        -0.19865E-03         0.00000E+00
    0.56219E-03        -0.13131E-03         0.00000E+00
    0.28237E-03        -0.65092E-04         0.00000E+00
    0.00000E+00         0.00000E+00         0.00000E+00
    0.10231E-01        -0.47623E-02         0.00000E+00
    0.10139E-01        -0.46533E-02         0.00000E+00
    0.10041E-01        -0.45444E-02         0.00000E+00
    0.99381E-02        -0.44355E-02         0.00000E+00
    0.98297E-02        -0.43268E-02         0.00000E+00
    0.97160E-02        -0.42183E-02         0.00000E+00
    0.95971E-02        -0.41099E-02         0.00000E+00
    0.94730E-02        -0.40018E-02         0.00000E+00
    0.93438E-02        -0.38939E-02         0.00000E+00
    0.92095E-02        -0.37863E-02         0.00000E+00
    0.90701E-02        -0.36791E-02         0.00000E+00
    0.89258E-02        -0.35723E-02         0.00000E+00
    0.87766E-02        -0.34659E-02         0.00000E+00
    0.86224E-02        -0.33599E-02         0.00000E+00
    0.84635E-02        -0.32545E-02         0.00000E+00
    0.82997E-02        -0.31495E-02         0.00000E+00
    0.81312E-02        -0.30451E-02         0.00000E+00
    0.79580E-02        -0.29412E-02         0.00000E+00
    0.77802E-02        -0.28380E-02         0.00000E+00
    0.75979E-02        -0.27354E-02         0.00000E+00
    0.74110E-02        -0.26334E-02         0.00000E+00
    0.72196E-02        -0.25322E-02         0.00000E+00
    0.70239E-02        -0.24316E-02         0.00000E+00
    0.68238E-02        -0.23318E-02         0.00000E+00
    0.66194E-02        -0.22328E-02         0.00000E+00
    0.64108E-02        -0.21346E-02         0.00000E+00
    0.61980E-02        -0.20372E-02         0.00000E+00
    0.59811E-02        -0.19407E-02         0.00000E+00
    0.57601E-02        -0.18450E-02         0.00000E+00
    0.55352E-02        -0.17502E-02         0.00000E+00
    0.53063E-02        -0.16563E-02         0.00000E+00
    0.50736E-02        -0.15634E-02         0.00000E+00
    0.48371E-02        -0.14714E-02         0.00000E+00
    0.45968E-02        -0.13804E-02         0.00000E+00
    0.43528E-02        -0.12904E-02         0.00000E+00
    0.41052E-02        -0.12014E-02         0.00000E+00
    0.38540E-02        -0.11135E-02         0.00000E+00
    0.35994E-02        -0.10266E-02         0.00000E+00
    0.33413E-02        -0.94079E-03         0.00000E+00
    0.30799E-02        -0.85605E-03         0.00000E+00
    0.28151E-02        -0.77242E-03         0.00000E+00
    0.25471E-02        -0.68991E-03         0.00000E+00
    0.22759E-02        -0.60854E-03         0.00000E+00
    0.20017E-02        -0.52831E-03         0.00000E+00
    0.17243E-02        -0.44924E-03         0.00000E+00
    0.14440E-02        -0.37136E-03         0.00000E+00
    0.11608E-02        -0.29466E-03         0.00000E+00
    0.87471E-03        -0.21916E-03         0.00000E+00
    0.58584E-03        -0.14488E-03         0.00000E+00
    0.29425E-03        -0.71822E-04         0.00000E+00
    0.00000E+00         0.00000E+00         0.00000E+00
    0.10700E-01        -0.52217E-02         0.00000E+00
    0.10603E-01        -0.51023E-02         0.00000E+00
    0.10500E-01        -0.49829E-02         0.00000E+00
    0.10392E-01        -0.48636E-02         0.00000E+00
    0.10279E-01        -0.47445E-02         0.00000E+00
    0.10159E-01        -0.46255E-02         0.00000E+00
    0.10035E-01        -0.45068E-02         0.00000E+00
    0.99045E-02        -0.43883E-02         0.00000E+00
    0.97691E-02        -0.42701E-02         0.00000E+00
    0.96283E-02        -0.41522E-02         0.00000E+00
    0.94823E-02        -0.40348E-02         0.00000E+00
    0.93310E-02        -0.39177E-02         0.00000E+00
    0.91746E-02        -0.38011E-02         0.00000E+00
    0.90131E-02        -0.36850E-02         0.00000E+00
    0.88466E-02        -0.35694E-02         0.00000E+00
    0.86751E-02        -0.34544E-02         0.00000E+00
    0.84986E-02        -0.33399E-02         0.00000E+00
    0.83172E-02        -0.32261E-02         0.00000E+00
    0.81311E-02        -0.31130E-02         0.00000E+00
    0.79402E-02        -0.30005E-02         0.00000E+00
    0.77445E-02        -0.28888E-02         0.00000E+00
    0.75443E-02        -0.27778E-02         0.00000E+00
    0.73394E-02        -0.26676E-02         0.00000E+00
    0.71300E-02        -0.25583E-02         0.00000E+00
    0.69162E-02        -0.24497E-02         0.00000E+00
    0.66980E-02        -0.23421E-02         0.00000E+00
    0.64754E-02        -0.22353E-02         0.00000E+00
    0.62485E-02        -0.21295E-02         0.00000E+00
    0.60175E-02        -0.20246E-02         0.00000E+00
    0.57823E-02        -0.19207E-02         0.00000E+00
    0.55430E-02        -0.18177E-02         0.00000E+00
    0.52997E-02        -0.17158E-02         0.00000E+00
    0.50524E-02        -0.16150E-02         0.00000E+00
    0.48013E-02        -0.15152E-02         0.00000E+00
    0.45463E-02        -0.14165E-02         0.00000E+00
    0.42875E-02        -0.13189E-02         0.00000E+00
    0.40251E-02        -0.12224E-02         0.00000E+00
    0.37590E-02        -0.11271E-02         0.00000E+00
    0.34894E-02        -0.10329E-02         0.00000E+00
    0.32163E-02        -0.93997E-03         0.00000E+00
    0.29397E-02        -0.84820E-03         0.00000E+00
    0.26598E-02        -0.75765E-03         0.00000E+00
    0.23766E-02        -0.66833E-03         0.00000E+00
    0.20901E-02        -0.58026E-03         0.00000E+00
    0.18005E-02        -0.49345E-03         0.00000E+00
    0.15078E-02        -0.40793E-03         0.00000E+00
    0.12120E-02        -0.32370E-03         0.00000E+00
    0.91328E-03        -0.24078E-03         0.00000E+00
    0.61166E-03        -0.15918E-03         0.00000E+00
    0.30721E-03        -0.78919E-04         0.00000E+00
    0.00000E+00         0.00000E+00         0.00000E+00
    0.11213E-01        -0.57045E-02         0.00000E+00
    0.11111E-01        -0.55741E-02         0.00000E+00
    0.11003E-01        -0.54438E-02         0.00000E+00
    0.10889E-01        -0.53136E-02         0.00000E+00
    0.10770E-01        -0.51835E-02         0.00000E+00
    0.10644E-01        -0.50537E-02         0.00000E+00
    0.10513E-01        -0.49240E-02         0.00000E+00
    0.10376E-01        -0.47947E-02         0.00000E+00
    0.10234E-01        -0.46657E-02         0.00000E+00
    0.10086E-01        -0.45370E-02         0.00000E+00
    0.99325E-02        -0.44088E-02         0.00000E+00
    0.97736E-02        -0.42810E-02         0.00000E+00
    0.96093E-02        -0.41537E-02         0.00000E+00
    0.94397E-02        -0.40269E-02         0.00000E+00
    0.92648E-02        -0.39007E-02         0.00000E+00
    0.90847E-02        -0.37752E-02         0.00000E+00
    0.88995E-02        -0.36502E-02         0.00000E+00
    0.87091E-02        -0.35260E-02         0.00000E+00
    0.85138E-02        -0.34025E-02         0.00000E+00
    0.83135E-02        -0.32797E-02         0.00000E+00
    0.81082E-02        -0.31577E-02         0.00000E+00
    0.78982E-02        -0.30365E-02         0.00000E+00
    0.76834E-02        -0.29162E-02         0.00000E+00
    0.74638E-02        -0.27968E-02         0.00000E+00
    0.72396E-02        -0.26783E-02         0.00000E+00
    0.70109E-02        -0.25607E-02         0.00000E+00
    0.67776E-02        -0.24441E-02         0.00000E+00
    0.65398E-02        -0.23285E-02         0.00000E+00
    0.62977E-02        -0.22139E-02         0.00000E+00
    0.60513E-02        -0.21004E-02         0.00000E+00
    0.58006E-02        -0.19880E-02         0.00000E+00
    0.55458E-02        -0.18767E-02         0.00000E+00
    0.52868E-02        -0.17665E-02         0.00000E+00
    0.50238E-02        -0.16574E-02         0.00000E+00
    0.47568E-02        -0.15496E-02         0.00000E+00
    0.44859E-02        -0.14429E-02         0.00000E+00
    0.42112E-02        -0.13375E-02         0.00000E+00
    0.39327E-02        -0.12332E-02         0.00000E+00
    0.36505E-02        -0.11303E-02         0.00000E+00
    0.33646E-02        -0.10286E-02         0.00000E+00
    0.30752E-02        -0.92829E-03         0.00000E+00
    0.27823E-02        -0.82925E-03         0.00000E+00
    0.24860E-02        -0.73155E-03         0.00000E+00
    0.21862E-02        -0.63520E-03         0.00000E+00
    0.18832E-02        -0.54022E-03         0.00000E+00
    0.15770E-02        -0.44663E-03         0.00000E+00
    0.12677E-02        -0.35444E-03         0.00000E+00
    0.95520E-03        -0.26367E-03         0.00000E+00
    0.63972E-03        -0.17433E-03         0.00000E+00
    0.32130E-03        -0.86436E-04         0.00000E+00
    0.00000E+00         0.00000E+00         0.00000E+00
    0.11772E-01        -0.62133E-02         0.00000E+00
    0.11665E-01        -0.60714E-02         0.00000E+00
    0.11551E-01        -0.59296E-02         0.00000E+00
    0.11431E-01        -0.57879E-02         0.00000E+00
    0.11305E-01        -0.56464E-02         0.00000E+00
    0.11172E-01        -0.55051E-02         0.00000E+00
    0.11034E-01        -0.53640E-02         0.00000E+00
    0.10890E-01        -0.52233E-02         0.00000E+00
    0.10740E-01        -0.50829E-02         0.00000E+00
    0.10584E-01        -0.49429E-02         0.00000E+00
    0.10422E-01        -0.48033E-02         0.00000E+00
    0.10255E-01        -0.46643E-02         0.00000E+00
    0.10082E-01        -0.45257E-02         0.00000E+00
    0.99036E-02        -0.43878E-02         0.00000E+00
    0.97196E-02        -0.42505E-02         0.00000E+00
    0.95301E-02        -0.41138E-02         0.00000E+00
    0.93352E-02        -0.39779E-02         0.00000E+00
    0.91350E-02        -0.38426E-02         0.00000E+00
    0.89296E-02        -0.37082E-02         0.00000E+00
    0.87190E-02        -0.35746E-02         0.00000E+00
    0.85032E-02        -0.34418E-02         0.00000E+00
    0.82825E-02        -0.33099E-02         0.00000E+00
    0.80567E-02        -0.31789E-02         0.00000E+00
    0.78261E-02        -0.30489E-02         0.00000E+00
    0.75906E-02        -0.29199E-02         0.00000E+00
    0.73503E-02        -0.27919E-02         0.00000E+00
    0.71054E-02        -0.26650E-02         0.00000E+00
    0.68558E-02        -0.25391E-02         0.00000E+00
    0.66016E-02        -0.24143E-02         0.00000E+00
    0.63430E-02        -0.22907E-02         0.00000E+00
    0.60799E-02        -0.21682E-02         0.00000E+00
    0.58125E-02        -0.20470E-02         0.00000E+00
    0.55408E-02        -0.19269E-02         0.00000E+00
    0.52649E-02        -0.18081E-02         0.00000E+00
    0.49849E-02        -0.16906E-02         0.00000E+00
    0.47008E-02        -0.15743E-02         0.00000E+00
    0.44127E-02        -0.14594E-02         0.00000E+00
    0.41207E-02        -0.13458E-02         0.00000E+00
    0.38249E-02        -0.12336E-02         0.00000E+00
    0.35252E-02        -0.11227E-02         0.00000E+00
    0.32219E-02        -0.10133E-02         0.00000E+00
    0.29149E-02        -0.90526E-03         0.00000E+00
    0.26043E-02        -0.79868E-03         0.00000E+00
    0.22903E-02        -0.69355E-03         0.00000E+00
    0.19728E-02        -0.58991E-03         0.00000E+00
    0.16520E-02        -0.48776E-03         0.00000E+00
    0.13279E-02        -0.38712E-03         0.00000E+00
    0.10005E-02        -0.28801E-03         0.00000E+00
    0.67007E-03        -0.19044E-03         0.00000E+00
    0.33654E-03        -0.94433E-04         0.00000E+00
    0.00000E+00         0.00000E+00         0.00000E+00
    0.12381E-01        -0.67511E-02         0.00000E+00
    0.12267E-01        -0.65971E-02         0.00000E+00
    0.12146E-01        -0.64432E-02         0.00000E+00
    0.12019E-01        -0.62895E-02         0.00000E+00
    0.11886E-01        -0.61359E-02         0.00000E+00
    0.11746E-01        -0.59825E-02         0.00000E+00
    0.11600E-01        -0.58294E-02         0.00000E+00
    0.11448E-01        -0.56767E-02         0.00000E+00
    0.11289E-01        -0.55243E-02         0.00000E+00
    0.11124E-01        -0.53724E-02         0.00000E+00
    0.10954E-01        -0.52209E-02         0.00000E+00
    0.10777E-01        -0.50700E-02         0.00000E+00
    0.10595E-01        -0.49196E-02         0.00000E+00
    0.10406E-01        -0.47699E-02         0.00000E+00
    0.10212E-01        -0.46209E-02         0.00000E+00
    0.10013E-01        -0.44725E-02         0.00000E+00
    0.98071E-02        -0.43250E-02         0.00000E+00
    0.95961E-02        -0.41782E-02         0.00000E+00
    0.93797E-02        -0.40322E-02         0.00000E+00
    0.91579E-02        -0.38872E-02         0.00000E+00
    0.89307E-02        -0.37430E-02         0.00000E+00
    0.86982E-02        -0.35998E-02         0.00000E+00
    0.84606E-02        -0.34576E-02         0.00000E+00
    0.82178E-02        -0.33164E-02         0.00000E+00
    0.79700E-02        -0.31763E-02         0.00000E+00
    0.77173E-02        -0.30373E-02         0.00000E+00
    0.74596E-02        -0.28994E-02         0.00000E+00
    0.71971E-02        -0.27627E-02         0.00000E+00
    0.69299E-02        -0.26271E-02         0.00000E+00
    0.66580E-02        -0.24928E-02         0.00000E+00
    0.63815E-02        -0.23598E-02         0.00000E+00
    0.61005E-02        -0.22280E-02         0.00000E+00
    0.58150E-02        -0.20975E-02         0.00000E+00
    0.55252E-02        -0.19683E-02         0.00000E+00
    0.52310E-02        -0.18406E-02         0.00000E+00
    0.49327E-02        -0.17142E-02         0.00000E+00
    0.46301E-02        -0.15892E-02         0.00000E+00
    0.43235E-02        -0.14656E-02         0.00000E+00
    0.40129E-02        -0.13436E-02         0.00000E+00
    0.36984E-02        -0.12230E-02         0.00000E+00
    0.33800E-02        -0.11039E-02         0.00000E+00
    0.30578E-02        -0.98628E-03         0.00000E+00
    0.27319E-02        -0.87025E-03         0.00000E+00
    0.24024E-02        -0.75579E-03         0.00000E+00
    0.20693E-02        -0.64292E-03         0.00000E+00
    0.17327E-02        -0.53165E-03         0.00000E+00
    0.13927E-02        -0.42200E-03         0.00000E+00
    0.10494E-02        -0.31400E-03         0.00000E+00
    0.70277E-03        -0.20765E-03         0.00000E+00
    0.35295E-03        -0.10298E-03         0.00000E+00
    0.00000E+00         0.00000E+00         0.00000E+00
    0.13040E-01        -0.73212E-02         0.00000E+00
    0.12919E-01        -0.71545E-02         0.00000E+00
    0.12791E-01        -0.69879E-02         0.00000E+00
    0.12657E-01        -0.68214E-02         0.00000E+00
    0.12515E-01        -0.66551E-02         0.00000E+00
    0.12367E-01        -0.64890E-02         0.00000E+00
    0.12212E-01        -0.63232E-02         0.00000E+00
    0.12051E-01        -0.61578E-02         0.00000E+00
    0.11883E-01        -0.59928E-02         0.00000E+00
    0.11709E-01        -0.58283E-02         0.00000E+00
    0.11529E-01        -0.56643E-02         0.00000E+00
    0.11342E-01        -0.55008E-02         0.00000E+00
    0.11149E-01        -0.53380E-02         0.00000E+00
    0.10950E-01        -0.51759E-02         0.00000E+00
    0.10745E-01        -0.50144E-02         0.00000E+00
    0.10534E-01        -0.48538E-02         0.00000E+00
    0.10317E-01        -0.46939E-02         0.00000E+00
    0.10094E-01        -0.45349E-02         0.00000E+00
    0.98654E-02        -0.43768E-02         0.00000E+00
    0.96313E-02        -0.42197E-02         0.00000E+00
    0.93916E-02        -0.40635E-02         0.00000E+00
    0.91465E-02        -0.39084E-02         0.00000E+00
    0.88959E-02        -0.37543E-02         0.00000E+00
    0.86400E-02        -0.36013E-02         0.00000E+00
    0.83789E-02        -0.34494E-02         0.00000E+00
    0.81125E-02        -0.32987E-02         0.00000E+00
    0.78411E-02        -0.31493E-02         0.00000E+00
    0.75647E-02        -0.30010E-02         0.00000E+00
    0.72833E-02        -0.28541E-02         0.00000E+00
    0.69970E-02        -0.27084E-02         0.00000E+00
    0.67060E-02        -0.25641E-02         0.00000E+00
    0.64103E-02        -0.24211E-02         0.00000E+00
    0.61099E-02        -0.22796E-02         0.00000E+00
    0.58050E-02        -0.21395E-02         0.00000E+00
    0.54957E-02        -0.20008E-02         0.00000E+00
    0.51819E-02        -0.18636E-02         0.00000E+00
    0.48638E-02        -0.17279E-02         0.00000E+00
    0.45415E-02        -0.15938E-02         0.00000E+00
    0.42150E-02        -0.14612E-02         0.00000E+00
    0.38844E-02        -0.13302E-02         0.00000E+00
    0.35498E-02        -0.12008E-02         0.00000E+00
    0.32113E-02        -0.10730E-02         0.00000E+00
    0.28690E-02        -0.94691E-03         0.00000E+00
    0.25228E-02        -0.82248E-03         0.00000E+00
    0.21729E-02        -0.69973E-03         0.00000E+00
    0.18194E-02        -0.57871E-03         0.00000E+00
    0.14624E-02        -0.45942E-03         0.00000E+00
    0.11018E-02        -0.34188E-03         0.00000E+00
    0.73785E-03        -0.22612E-03         0.00000E+00
    0.37056E-03        -0.11216E-03         0.00000E+00
    0.00000E+00         0.00000E+00         0.00000E+00
    0.13754E-01        -0.79276E-02         0.00000E+00
    0.13625E-01        -0.77474E-02         0.00000E+00
    0.13489E-01        -0.75673E-02         0.00000E+00
    0.13346E-01        -0.73873E-02         0.00000E+00
    0.13196E-01        -0.72076E-02         0.00000E+00
    0.13038E-01        -0.70281E-02         0.00000E+00
    0.12874E-01        -0.68489E-02         0.00000E+00
    0.12703E-01        -0.66701E-02         0.00000E+00
    0.12525E-01        -0.64917E-02         0.00000E+00
    0.12340E-01        -0.63139E-02         0.00000E+00
    0.12148E-01        -0.61366E-02         0.00000E+00
    0.11950E-01        -0.59599E-02         0.00000E+00
    0.11746E-01        -0.57839E-02         0.00000E+00
    0.11535E-01        -0.56086E-02         0.00000E+00
    0.11318E-01        -0.54341E-02         0.00000E+00
    0.11095E-01        -0.52604E-02         0.00000E+00
    0.10865E-01        -0.50875E-02         0.00000E+00
    0.10630E-01        -0.49156E-02         0.00000E+00
    0.10388E-01        -0.47446E-02         0.00000E+00
    0.10141E-01        -0.45747E-02         0.00000E+00
    0.98873E-02        -0.44058E-02         0.00000E+00
    0.96283E-02        -0.42379E-02         0.00000E+00
    0.93637E-02        -0.40712E-02         0.00000E+00
    0.90936E-02        -0.39057E-02         0.00000E+00
    0.88180E-02        -0.37414E-02         0.00000E+00
    0.85369E-02        -0.35783E-02         0.00000E+00
    0.82506E-02        -0.34166E-02         0.00000E+00
    0.79591E-02        -0.32561E-02         0.00000E+00
    0.76624E-02        -0.30970E-02         0.00000E+00
    0.73607E-02        -0.29393E-02         0.00000E+00
    0.70540E-02        -0.27830E-02         0.00000E+00
    0.67425E-02        -0.26281E-02         0.00000E+00
    0.64261E-02        -0.24748E-02         0.00000E+00
    0.61050E-02        -0.23230E-02         0.00000E+00
    0.57792E-02        -0.21727E-02         0.00000E+00
    0.54489E-02        -0.20240E-02         0.00000E+00
    0.51141E-02        -0.18769E-02         0.00000E+00
    0.47749E-02        -0.17314E-02         0.00000E+00
    0.44314E-02        -0.15876E-02         0.00000E+00
    0.40836E-02        -0.14454E-02         0.00000E+00
    0.37317E-02        -0.13050E-02         0.00000E+00
    0.33756E-02        -0.11663E-02         0.00000E+00
    0.30156E-02        -0.10294E-02         0.00000E+00
    0.26516E-02        -0.89425E-03         0.00000E+00
    0.22838E-02        -0.76091E-03         0.00000E+00
    0.19122E-02        -0.62939E-03         0.00000E+00
    0.15368E-02        -0.49973E-03         0.00000E+00
    0.11579E-02        -0.37194E-03         0.00000E+00
    0.77537E-03        -0.24604E-03         0.00000E+00
    0.38939E-03        -0.12205E-03         0.00000E+00
    0.00000E+00         0.00000E+00         0.00000E+00
    0.14525E-01        -0.85743E-02         0.00000E+00
    0.14388E-01        -0.83799E-02         0.00000E+00
    0.14243E-01        -0.81855E-02         0.00000E+00
    0.14090E-01        -0.79913E-02         0.00000E+00
    0.13929E-01        -0.77973E-02         0.00000E+00
    0.13762E-01        -0.76036E-02         0.00000E+00
    0.13587E-01        -0.74102E-02         0.00000E+00
    0.13405E-01        -0.72172E-02         0.00000E+00
    0.13215E-01        -0.70248E-02         0.00000E+00
    0.13019E-01        -0.68328E-02         0.00000E+00
    0.12815E-01        -0.66415E-02         0.00000E+00
    0.12605E-01        -0.64507E-02         0.00000E+00
    0.12388E-01        -0.62608E-02         0.00000E+00
    0.12164E-01        -0.60715E-02         0.00000E+00
    0.11934E-01        -0.58831E-02         0.00000E+00
    0.11697E-01        -0.56956E-02         0.00000E+00
    0.11454E-01        -0.55089E-02         0.00000E+00
    0.11204E-01        -0.53233E-02         0.00000E+00
    0.10949E-01        -0.51387E-02         0.00000E+00
    0.10687E-01        -0.49551E-02         0.00000E+00
    0.10419E-01        -0.47726E-02         0.00000E+00
    0.10145E-01        -0.45914E-02         0.00000E+00
    0.98650E-02        -0.44113E-02         0.00000E+00
    0.95794E-02        -0.42324E-02         0.00000E+00
    0.92881E-02        -0.40548E-02         0.00000E+00
    0.89913E-02        -0.38786E-02         0.00000E+00
    0.86889E-02        -0.37037E-02         0.00000E+00
    0.83811E-02        -0.35302E-02         0.00000E+00
    0.80680E-02        -0.33581E-02         0.00000E+00
    0.77496E-02        -0.31875E-02         0.00000E+00
    0.74261E-02        -0.30184E-02         0.00000E+00
    0.70975E-02        -0.28509E-02         0.00000E+00
    0.67639E-02        -0.26849E-02         0.00000E+00
    0.64254E-02        -0.25206E-02         0.00000E+00
    0.60821E-02        -0.23579E-02         0.00000E+00
    0.57340E-02        -0.21968E-02         0.00000E+00
    0.53813E-02        -0.20374E-02         0.00000E+00
    0.50241E-02        -0.18798E-02         0.00000E+00
    0.46623E-02        -0.17239E-02         0.00000E+00
    0.42961E-02        -0.15698E-02         0.00000E+00
    0.39256E-02        -0.14176E-02         0.00000E+00
    0.35509E-02        -0.12671E-02         0.00000E+00
    0.31720E-02        -0.11185E-02         0.00000E+00
    0.27890E-02        -0.97186E-03         0.00000E+00
    0.24019E-02        -0.82709E-03         0.00000E+00
    0.20110E-02        -0.68425E-03         0.00000E+00
    0.16162E-02        -0.54339E-03         0.00000E+00
    0.12176E-02        -0.40450E-03         0.00000E+00
    0.81535E-03        -0.26763E-03         0.00000E+00
    0.40945E-03        -0.13279E-03         0.00000E+00
    0.00000E+00         0.00000E+00         0.00000E+00
    0.15357E-01        -0.92664E-02         0.00000E+00
    0.15209E-01        -0.90568E-02         0.00000E+00
    0.15054E-01        -0.88473E-02         0.00000E+00
    0.14890E-01        -0.86380E-02         0.00000E+00
    0.14719E-01        -0.84289E-02         0.00000E+00
    0.14540E-01        -0.82201E-02         0.00000E+00
    0.14353E-01        -0.80117E-02         0.00000E+00
    0.14159E-01        -0.78037E-02         0.00000E+00
    0.13957E-01        -0.75962E-02         0.00000E+00
    0.13748E-01        -0.73893E-02         0.00000E+00
    0.13531E-01        -0.71830E-02         0.00000E+00
    0.13307E-01        -0.69774E-02         0.00000E+00
    0.13076E-01        -0.67726E-02         0.00000E+00
    0.12839E-01        -0.65685E-02         0.00000E+00
    0.12594E-01        -0.63653E-02         0.00000E+00
    0.12342E-01        -0.61631E-02         0.00000E+00
    0.12084E-01        -0.59618E-02         0.00000E+00
    0.11820E-01        -0.57616E-02         0.00000E+00
    0.11548E-01        -0.55624E-02         0.00000E+00
    0.11271E-01        -0.53643E-02         0.00000E+00
    0.10987E-01        -0.51675E-02         0.00000E+00
    0.10697E-01        -0.49718E-02         0.00000E+00
    0.10400E-01        -0.47774E-02         0.00000E+00
    0.10098E-01        -0.45843E-02         0.00000E+00
    0.97901E-02        -0.43926E-02         0.00000E+00
    0.94762E-02        -0.42023E-02         0.00000E+00
    0.91565E-02        -0.40133E-02         0.00000E+00
    0.88313E-02        -0.38259E-02         0.00000E+00
    0.85005E-02        -0.36400E-02         0.00000E+00
    0.81642E-02        -0.34556E-02         0.00000E+00
    0.78226E-02        -0.32728E-02         0.00000E+00
    0.74758E-02        -0.30917E-02         0.00000E+00
    0.71237E-02        -0.29122E-02         0.00000E+00
    0.67666E-02        -0.27343E-02         0.00000E+00
    0.64045E-02        -0.25582E-02         0.00000E+00
    0.60375E-02        -0.23839E-02         0.00000E+00
    0.56657E-02        -0.22114E-02         0.00000E+00
    0.52891E-02        -0.20406E-02         0.00000E+00
    0.49079E-02        -0.18718E-02         0.00000E+00
    0.45221E-02        -0.17048E-02         0.00000E+00
    0.41319E-02        -0.15397E-02         0.00000E+00
    0.37372E-02        -0.13765E-02         0.00000E+00
    0.33382E-02        -0.12154E-02         0.00000E+00
    0.29349E-02        -0.10562E-02         0.00000E+00
    0.25275E-02        -0.89903E-03         0.00000E+00
    0.21160E-02        -0.74392E-03         0.00000E+00
    0.17005E-02        -0.59088E-03         0.00000E+00
    0.12811E-02        -0.43995E-03         0.00000E+00
    0.85782E-03        -0.29114E-03         0.00000E+00
    0.43076E-03        -0.14448E-03         0.00000E+00
    0.00000E+00         0.00000E+00         0.00000E+00
    0.16251E-01        -0.10009E-01         0.00000E+00
    0.16093E-01        -0.97838E-02         0.00000E+00
    0.15926E-01        -0.95582E-02         0.00000E+00
    0.15750E-01        -0.93328E-02         0.00000E+00
    0.15567E-01        -0.91077E-02         0.00000E+00
    0.15375E-01        -0.88829E-02         0.00000E+00
    0.15175E-01        -0.86584E-02         0.00000E+00
    0.14967E-01        -0.84344E-02         0.00000E+00
    0.14752E-01        -0.82110E-02         0.00000E+00
    0.14528E-01        -0.79882E-02         0.00000E+00
    0.14297E-01        -0.77660E-02         0.00000E+00
    0.14059E-01        -0.75445E-02         0.00000E+00
    0.13813E-01        -0.73239E-02         0.00000E+00
    0.13560E-01        -0.71041E-02         0.00000E+00
    0.13299E-01        -0.68852E-02         0.00000E+00
    0.13032E-01        -0.66673E-02         0.00000E+00
    0.12757E-01        -0.64504E-02         0.00000E+00
    0.12476E-01        -0.62345E-02         0.00000E+00
    0.12188E-01        -0.60198E-02         0.00000E+00
    0.11894E-01        -0.58063E-02         0.00000E+00
    0.11592E-01        -0.55940E-02         0.00000E+00
    0.11285E-01        -0.53830E-02         0.00000E+00
    0.10971E-01        -0.51733E-02         0.00000E+00
    0.10651E-01        -0.49650E-02         0.00000E+00
    0.10324E-01        -0.47581E-02         0.00000E+00
    0.99921E-02        -0.45527E-02         0.00000E+00
    0.96539E-02        -0.43488E-02         0.00000E+00
    0.93099E-02        -0.41464E-02         0.00000E+00
    0.89601E-02        -0.39456E-02         0.00000E+00
    0.86047E-02        -0.37464E-02         0.00000E+00
    0.82438E-02        -0.35489E-02         0.00000E+00
    0.78775E-02        -0.33530E-02         0.00000E+00
    0.75058E-02        -0.31589E-02         0.00000E+00
    0.71288E-02        -0.29666E-02         0.00000E+00
    0.67467E-02        -0.27761E-02         0.00000E+00
    0.63595E-02        -0.25874E-02         0.00000E+00
    0.59673E-02        -0.24006E-02         0.00000E+00
    0.55702E-02        -0.22157E-02         0.00000E+00
    0.51683E-02        -0.20328E-02         0.00000E+00
    0.47617E-02        -0.18518E-02         0.00000E+00
    0.43504E-02        -0.16728E-02         0.00000E+00
    0.39346E-02        -0.14959E-02         0.00000E+00
    0.35142E-02        -0.13210E-02         0.00000E+00
    0.30895E-02        -0.11483E-02         0.00000E+00
    0.26605E-02        -0.97761E-03         0.00000E+00
    0.22272E-02        -0.80912E-03         0.00000E+00
    0.17898E-02        -0.64281E-03         0.00000E+00
    0.13483E-02        -0.47872E-03         0.00000E+00
    0.90276E-03        -0.31687E-03         0.00000E+00
    0.45331E-03        -0.15729E-03         0.00000E+00
    0.00000E+00         0.00000E+00         0.00000E+00
    0.17212E-01        -0.10810E-01         0.00000E+00
    0.17041E-01        -0.10567E-01         0.00000E+00
    0.16861E-01        -0.10324E-01         0.00000E+00
    0.16673E-01        -0.10082E-01         0.00000E+00
    0.16475E-01        -0.98396E-02         0.00000E+00
    0.16270E-01        -0.95977E-02         0.00000E+00
    0.16055E-01        -0.93562E-02         0.00000E+00
    0.15833E-01        -0.91153E-02         0.00000E+00
    0.15602E-01        -0.88748E-02         0.00000E+00
    0.15363E-01        -0.86350E-02         0.00000E+00
    0.15116E-01        -0.83959E-02         0.00000E+00
    0.14861E-01        -0.81575E-02         0.00000E+00
    0.14599E-01        -0.79200E-02         0.00000E+00
    0.14329E-01        -0.76834E-02         0.00000E+00
    0.14051E-01        -0.74477E-02         0.00000E+00
    0.13766E-01        -0.72130E-02         0.00000E+00
    0.13474E-01        -0.69794E-02         0.00000E+00
    0.13175E-01        -0.67469E-02         0.00000E+00
    0.12869E-01        -0.65156E-02         0.00000E+00
    0.12556E-01        -0.62856E-02         0.00000E+00
    0.12236E-01        -0.60568E-02         0.00000E+00
    0.11910E-01        -0.58293E-02         0.00000E+00
    0.11577E-01        -0.56032E-02         0.00000E+00
    0.11237E-01        -0.53786E-02         0.00000E+00
    0.10891E-01        -0.51554E-02         0.00000E+00
    0.10539E-01        -0.49337E-02         0.00000E+00
    0.10181E-01        -0.47136E-02         0.00000E+00
    0.98172E-02        -0.44951E-02         0.00000E+00
    0.94472E-02        -0.42783E-02         0.00000E+00
    0.90714E-02        -0.40631E-02         0.00000E+00
    0.86898E-02        -0.38497E-02         0.00000E+00
    0.83027E-02        -0.36380E-02         0.00000E+00
    0.79100E-02        -0.34281E-02         0.00000E+00
    0.75119E-02        -0.32201E-02         0.00000E+00
    0.71085E-02        -0.30140E-02         0.00000E+00
    0.66999E-02        -0.28098E-02         0.00000E+00
    0.62861E-02        -0.26075E-02         0.00000E+00
    0.58672E-02        -0.24072E-02         0.00000E+00
    0.54434E-02        -0.22090E-02         0.00000E+00
    0.50147E-02        -0.20128E-02         0.00000E+00
    0.45812E-02        -0.18187E-02         0.00000E+00
    0.41430E-02        -0.16267E-02         0.00000E+00
    0.37001E-02        -0.14369E-02         0.00000E+00
    0.32527E-02        -0.12493E-02         0.00000E+00
    0.28008E-02        -0.10639E-02         0.00000E+00
    0.23445E-02        -0.88072E-03         0.00000E+00
    0.18840E-02        -0.69987E-03         0.00000E+00
    0.14191E-02        -0.52134E-03         0.00000E+00
    0.95016E-03        -0.34517E-03         0.00000E+00
    0.47709E-03        -0.17138E-03         0.00000E+00
    0.00000E+00         0.00000E+00         0.00000E+00
    0.18242E-01        -0.11675E-01         0.00000E+00
    0.18057E-01        -0.11414E-01         0.00000E+00
    0.17863E-01        -0.11153E-01         0.00000E+00
    0.17660E-01        -0.10892E-01         0.00000E+00
    0.17447E-01        -0.10632E-01         0.00000E+00
    0.17225E-01        -0.10372E-01         0.00000E+00
    0.16995E-01        -0.10112E-01         0.00000E+00
    0.16756E-01        -0.98528E-02         0.00000E+00
    0.16508E-01        -0.95942E-02         0.00000E+00
    0.16252E-01        -0.93362E-02         0.00000E+00
    0.15988E-01        -0.90790E-02         0.00000E+00
    0.15715E-01        -0.88226E-02         0.00000E+00
    0.15435E-01        -0.85671E-02         0.00000E+00
    0.15146E-01        -0.83124E-02         0.00000E+00
    0.14850E-01        -0.80588E-02         0.00000E+00
    0.14547E-01        -0.78062E-02         0.00000E+00
    0.14235E-01        -0.75547E-02         0.00000E+00
    0.13917E-01        -0.73043E-02         0.00000E+00
    0.13591E-01        -0.70552E-02         0.00000E+00
    0.13258E-01        -0.68073E-02         0.00000E+00
    0.12918E-01        -0.65608E-02         0.00000E+00
    0.12571E-01        -0.63157E-02         0.00000E+00
    0.12218E-01        -0.60719E-02         0.00000E+00
    0.11858E-01        -0.58297E-02         0.00000E+00
    0.11491E-01        -0.55889E-02         0.00000E+00
    0.11118E-01        -0.53498E-02         0.00000E+00
    0.10739E-01        -0.51122E-02         0.00000E+00
    0.10353E-01        -0.48763E-02         0.00000E+00
    0.99615E-02        -0.46421E-02         0.00000E+00
    0.95639E-02        -0.44096E-02         0.00000E+00
    0.91604E-02        -0.41790E-02         0.00000E+00
    0.87512E-02        -0.39501E-02         0.00000E+00
    0.83363E-02        -0.37231E-02         0.00000E+00
    0.79158E-02        -0.34981E-02         0.00000E+00
    0.74898E-02        -0.32749E-02         0.00000E+00
    0.70585E-02        -0.30538E-02         0.00000E+00
    0.66218E-02        -0.28347E-02         0.00000E+00
    0.61799E-02        -0.26176E-02         0.00000E+00
    0.57330E-02        -0.24026E-02         0.00000E+00
    0.52810E-02        -0.21898E-02         0.00000E+00
    0.48240E-02        -0.19791E-02         0.00000E+00
    0.43622E-02        -0.17707E-02         0.00000E+00
    0.38956E-02        -0.15645E-02         0.00000E+00
    0.34243E-02        -0.13606E-02         0.00000E+00
    0.29484E-02        -0.11590E-02         0.00000E+00
    0.24679E-02        -0.95972E-03         0.00000E+00
    0.19829E-02        -0.76285E-03         0.00000E+00
    0.14936E-02        -0.56841E-03         0.00000E+00
    0.99997E-03        -0.37644E-03         0.00000E+00
    0.50207E-03        -0.18695E-03         0.00000E+00
    0.00000E+00         0.00000E+00         0.00000E+00
    0.19344E-01        -0.12613E-01         0.00000E+00
    0.19144E-01        -0.12333E-01         0.00000E+00
    0.18933E-01        -0.12052E-01         0.00000E+00
    0.18713E-01        -0.11772E-01         0.00000E+00
    0.18484E-01        -0.11492E-01         0.00000E+00
    0.18245E-01        -0.11212E-01         0.00000E+00
    0.17996E-01        -0.10933E-01         0.00000E+00
    0.17739E-01        -0.10655E-01         0.00000E+00
    0.17473E-01        -0.10377E-01         0.00000E+00
    0.17198E-01        -0.10099E-01         0.00000E+00
    0.16914E-01        -0.98227E-02         0.00000E+00
    0.16622E-01        -0.95469E-02         0.00000E+00
    0.16322E-01        -0.92720E-02         0.00000E+00
    0.16014E-01        -0.89981E-02         0.00000E+00
    0.15697E-01        -0.87251E-02         0.00000E+00
    0.15373E-01        -0.84533E-02         0.00000E+00
    0.15041E-01        -0.81825E-02         0.00000E+00
    0.14701E-01        -0.79130E-02         0.00000E+00
    0.14354E-01        -0.76447E-02         0.00000E+00
    0.14000E-01        -0.73777E-02         0.00000E+00
    0.13638E-01        -0.71121E-02         0.00000E+00
    0.13270E-01        -0.68478E-02         0.00000E+00
    0.12894E-01        -0.65850E-02         0.00000E+00
    0.12512E-01        -0.63238E-02         0.00000E+00
    0.12123E-01        -0.60641E-02         0.00000E+00
    0.11728E-01        -0.58059E-02         0.00000E+00
    0.11326E-01        -0.55495E-02         0.00000E+00
    0.10917E-01        -0.52947E-02         0.00000E+00
    0.10503E-01        -0.50417E-02         0.00000E+00
    0.10082E-01        -0.47904E-02         0.00000E+00
    0.96552E-02        -0.45410E-02         0.00000E+00
    0.92226E-02        -0.42934E-02         0.00000E+00
    0.87841E-02        -0.40478E-02         0.00000E+00
    0.83399E-02        -0.38041E-02         0.00000E+00
    0.78901E-02        -0.35624E-02         0.00000E+00
    0.74348E-02        -0.33228E-02         0.00000E+00
    0.69741E-02        -0.30852E-02         0.00000E+00
    0.65080E-02        -0.28498E-02         0.00000E+00
    0.60366E-02        -0.26165E-02         0.00000E+00
    0.55601E-02        -0.23854E-02         0.00000E+00
    0.50785E-02        -0.21565E-02         0.00000E+00
    0.45919E-02        -0.19299E-02         0.00000E+00
    0.41004E-02        -0.17057E-02         0.00000E+00
    0.36040E-02        -0.14838E-02         0.00000E+00
    0.31029E-02        -0.12643E-02         0.00000E+00
    0.25970E-02        -0.10473E-02         0.00000E+00
    0.20866E-02        -0.83269E-03         0.00000E+00
    0.15716E-02        -0.62064E-03         0.00000E+00
    0.10521E-02        -0.41115E-03         0.00000E+00
    0.52822E-03        -0.20425E-03         0.00000E+00
    0.00000E+00         0.00000E+00         0.00000E+00
    0.20522E-01        -0.13634E-01         0.00000E+00
    0.20303E-01        -0.13333E-01         0.00000E+00
    0.20075E-01        -0.13031E-01         0.00000E+00
    0.19836E-01        -0.12730E-01         0.00000E+00
    0.19587E-01        -0.12430E-01         0.00000E+00
    0.19328E-01        -0.12129E-01         0.00000E+00
    0.19060E-01        -0.11829E-01         0.00000E+00
    0.18783E-01        -0.11530E-01         0.00000E+00
    0.18496E-01        -0.11231E-01         0.00000E+00
    0.18200E-01        -0.10933E-01         0.00000E+00
    0.17896E-01        -0.10635E-01         0.00000E+00
    0.17582E-01        -0.10339E-01         0.00000E+00
    0.17260E-01        -0.10043E-01         0.00000E+00
    0.16930E-01        -0.97483E-02         0.00000E+00
    0.16592E-01        -0.94546E-02         0.00000E+00
    0.16245E-01        -0.91620E-02         0.00000E+00
    0.15891E-01        -0.88706E-02         0.00000E+00
    0.15528E-01        -0.85803E-02         0.00000E+00
    0.15159E-01        -0.82913E-02         0.00000E+00
    0.14781E-01        -0.80036E-02         0.00000E+00
    0.14397E-01        -0.77173E-02         0.00000E+00
    0.14005E-01        -0.74324E-02         0.00000E+00
    0.13606E-01        -0.71490E-02         0.00000E+00
    0.13200E-01        -0.68671E-02         0.00000E+00
    0.12787E-01        -0.65868E-02         0.00000E+00
    0.12367E-01        -0.63081E-02         0.00000E+00
    0.11941E-01        -0.60311E-02         0.00000E+00
    0.11509E-01        -0.57558E-02         0.00000E+00
    0.11070E-01        -0.54822E-02         0.00000E+00
    0.10625E-01        -0.52105E-02         0.00000E+00
    0.10173E-01        -0.49406E-02         0.00000E+00
    0.97159E-02        -0.46726E-02         0.00000E+00
    0.92527E-02        -0.44066E-02         0.00000E+00
    0.87836E-02        -0.41425E-02         0.00000E+00
    0.83087E-02        -0.38805E-02         0.00000E+00
    0.78282E-02        -0.36205E-02         0.00000E+00
    0.73422E-02        -0.33627E-02         0.00000E+00
    0.68507E-02        -0.31070E-02         0.00000E+00
    0.63538E-02        -0.28535E-02         0.00000E+00
    0.58516E-02        -0.26023E-02         0.00000E+00
    0.53442E-02        -0.23534E-02         0.00000E+00
    0.48316E-02        -0.21068E-02         0.00000E+00
    0.43141E-02        -0.18626E-02         0.00000E+00
    0.37915E-02        -0.16208E-02         0.00000E+00
    0.32640E-02        -0.13815E-02         0.00000E+00
    0.27317E-02        -0.11447E-02         0.00000E+00
    0.21946E-02        -0.91047E-03         0.00000E+00
    0.16528E-02        -0.67883E-03         0.00000E+00
    0.11064E-02        -0.44984E-03         0.00000E+00
    0.55547E-03        -0.22355E-03         0.00000E+00
    0.00000E+00         0.00000E+00         0.00000E+00
    0.21776E-01        -0.14749E-01         0.00000E+00
    0.21537E-01        -0.14425E-01         0.00000E+00
    0.21288E-01        -0.14102E-01         0.00000E+00
    0.21028E-01        -0.13778E-01         0.00000E+00
    0.20758E-01        -0.13455E-01         0.00000E+00
    0.20478E-01        -0.13132E-01         0.00000E+00
    0.20187E-01        -0.12810E-01         0.00000E+00
    0.19888E-01        -0.12488E-01         0.00000E+00
    0.19578E-01        -0.12167E-01         0.00000E+00
    0.19260E-01        -0.11846E-01         0.00000E+00
    0.18932E-01        -0.11526E-01         0.00000E+00
    0.18595E-01        -0.11207E-01         0.00000E+00
    0.18250E-01        -0.10889E-01         0.00000E+00
    0.17896E-01        -0.10572E-01         0.00000E+00
    0.17533E-01        -0.10256E-01         0.00000E+00
    0.17163E-01        -0.99411E-02         0.00000E+00
    0.16784E-01        -0.96273E-02         0.00000E+00
    0.16397E-01        -0.93146E-02         0.00000E+00
    0.16003E-01        -0.90032E-02         0.00000E+00
    0.15601E-01        -0.86932E-02         0.00000E+00
    0.15191E-01        -0.83844E-02         0.00000E+00
    0.14774E-01        -0.80771E-02         0.00000E+00
    0.14350E-01        -0.77713E-02         0.00000E+00
    0.13919E-01        -0.74670E-02         0.00000E+00
    0.13481E-01        -0.71643E-02         0.00000E+00
    0.13036E-01        -0.68631E-02         0.00000E+00
    0.12584E-01        -0.65637E-02         0.00000E+00
    0.12126E-01        -0.62660E-02         0.00000E+00
    0.11661E-01        -0.59700E-02         0.00000E+00
    0.11191E-01        -0.56758E-02         0.00000E+00
    0.10713E-01        -0.53835E-02         0.00000E+00
    0.10230E-01        -0.50931E-02         0.00000E+00
    0.97407E-02        -0.48046E-02         0.00000E+00
    0.92455E-02        -0.45182E-02         0.00000E+00
    0.87444E-02        -0.42337E-02         0.00000E+00
    0.82375E-02        -0.39514E-02         0.00000E+00
    0.77250E-02        -0.36712E-02         0.00000E+00
    0.72070E-02        -0.33932E-02         0.00000E+00
    0.66834E-02        -0.31174E-02         0.00000E+00
    0.61545E-02        -0.28439E-02         0.00000E+00
    0.56202E-02        -0.25728E-02         0.00000E+00
    0.50807E-02        -0.23040E-02         0.00000E+00
    0.45360E-02        -0.20376E-02         0.00000E+00
    0.39862E-02        -0.17737E-02         0.00000E+00
    0.34313E-02        -0.15124E-02         0.00000E+00
    0.28715E-02        -0.12536E-02         0.00000E+00
    0.23068E-02        -0.99740E-03         0.00000E+00
    0.17372E-02        -0.74391E-03         0.00000E+00
    0.11628E-02        -0.49314E-03         0.00000E+00
    0.58375E-03        -0.24516E-03         0.00000E+00
    0.00000E+00         0.00000E+00         0.00000E+00
    0.23109E-01        -0.15971E-01         0.00000E+00
    0.22847E-01        -0.15623E-01         0.00000E+00
    0.22574E-01        -0.15275E-01         0.00000E+00
    0.22291E-01        -0.14928E-01         0.00000E+00
    0.21997E-01        -0.14580E-01         0.00000E+00
    0.21692E-01        -0.14233E-01         0.00000E+00
    0.21378E-01        -0.13887E-01         0.00000E+00
    0.21053E-01        -0.13541E-01         0.00000E+00
    0.20719E-01        -0.13196E-01         0.00000E+00
    0.20375E-01        -0.12851E-01         0.00000E+00
    0.20022E-01        -0.12507E-01         0.00000E+00
    0.19660E-01        -0.12164E-01         0.00000E+00
    0.19288E-01        -0.11822E-01         0.00000E+00
    0.18909E-01        -0.11480E-01         0.00000E+00
    0.18520E-01        -0.11140E-01         0.00000E+00
    0.18123E-01        -0.10801E-01         0.00000E+00
    0.17718E-01        -0.10463E-01         0.00000E+00
    0.17305E-01        -0.10126E-01         0.00000E+00
    0.16885E-01        -0.97899E-02         0.00000E+00
    0.16456E-01        -0.94555E-02         0.00000E+00
    0.16020E-01        -0.91224E-02         0.00000E+00
    0.15576E-01        -0.87907E-02         0.00000E+00
    0.15126E-01        -0.84604E-02         0.00000E+00
    0.14668E-01        -0.81316E-02         0.00000E+00
    0.14203E-01        -0.78044E-02         0.00000E+00
    0.13731E-01        -0.74787E-02         0.00000E+00
    0.13253E-01        -0.71547E-02         0.00000E+00
    0.12768E-01        -0.68324E-02         0.00000E+00
    0.12276E-01        -0.65118E-02         0.00000E+00
    0.11778E-01        -0.61930E-02         0.00000E+00
    0.11274E-01        -0.58760E-02         0.00000E+00
    0.10763E-01        -0.55610E-02         0.00000E+00
    0.10247E-01        -0.52478E-02         0.00000E+00
    0.97240E-02        -0.49366E-02         0.00000E+00
    0.91956E-02        -0.46275E-02         0.00000E+00
    0.86613E-02        -0.43204E-02         0.00000E+00
    0.81213E-02        -0.40155E-02         0.00000E+00
    0.75756E-02        -0.37127E-02         0.00000E+00
    0.70244E-02        -0.34122E-02         0.00000E+00
    0.64677E-02        -0.31140E-02         0.00000E+00
    0.59055E-02        -0.28181E-02         0.00000E+00
    0.53380E-02        -0.25246E-02         0.00000E+00
    0.47653E-02        -0.22335E-02         0.00000E+00
    0.41873E-02        -0.19450E-02         0.00000E+00
    0.36041E-02        -0.16590E-02         0.00000E+00
    0.30159E-02        -0.13756E-02         0.00000E+00
    0.24226E-02        -0.10949E-02         0.00000E+00
    0.18243E-02        -0.81695E-03         0.00000E+00
    0.12210E-02        -0.54176E-03         0.00000E+00
    0.61294E-03        -0.26943E-03         0.00000E+00
    0.00000E+00         0.00000E+00         0.00000E+00
    0.24520E-01        -0.17314E-01         0.00000E+00
    0.24232E-01        -0.16940E-01         0.00000E+00
    0.23933E-01        -0.16566E-01         0.00000E+00
    0.23623E-01        -0.16193E-01         0.00000E+00
    0.23303E-01        -0.15819E-01         0.00000E+00
    0.22971E-01        -0.15446E-01         0.00000E+00
    0.22629E-01        -0.15074E-01         0.00000E+00
    0.22277E-01        -0.14702E-01         0.00000E+00
    0.21915E-01        -0.14330E-01         0.00000E+00
    0.21544E-01        -0.13960E-01         0.00000E+00
    0.21163E-01        -0.13589E-01         0.00000E+00
    0.20773E-01        -0.13220E-01         0.00000E+00
    0.20374E-01        -0.12852E-01         0.00000E+00
    0.19966E-01        -0.12484E-01         0.00000E+00
    0.19550E-01        -0.12118E-01         0.00000E+00
    0.19125E-01        -0.11752E-01         0.00000E+00
    0.18692E-01        -0.11388E-01         0.00000E+00
    0.18250E-01        -0.11024E-01         0.00000E+00
    0.17801E-01        -0.10662E-01         0.00000E+00
    0.17345E-01        -0.10301E-01         0.00000E+00
    0.16880E-01        -0.99413E-02         0.00000E+00
    0.16409E-01        -0.95829E-02         0.00000E+00
    0.15930E-01        -0.92259E-02         0.00000E+00
    0.15443E-01        -0.88704E-02         0.00000E+00
    0.14950E-01        -0.85163E-02         0.00000E+00
    0.14450E-01        -0.81637E-02         0.00000E+00
    0.13944E-01        -0.78128E-02         0.00000E+00
    0.13430E-01        -0.74634E-02         0.00000E+00
    0.12910E-01        -0.71157E-02         0.00000E+00
    0.12384E-01        -0.67698E-02         0.00000E+00
    0.11852E-01        -0.64256E-02         0.00000E+00
    0.11313E-01        -0.60833E-02         0.00000E+00
    0.10768E-01        -0.57428E-02         0.00000E+00
    0.10217E-01        -0.54043E-02         0.00000E+00
    0.96602E-02        -0.50677E-02         0.00000E+00
    0.90975E-02        -0.47332E-02         0.00000E+00
    0.85290E-02        -0.44008E-02         0.00000E+00
    0.79549E-02        -0.40705E-02         0.00000E+00
    0.73751E-02        -0.37424E-02         0.00000E+00
    0.67897E-02        -0.34167E-02         0.00000E+00
    0.61988E-02        -0.30932E-02         0.00000E+00
    0.56025E-02        -0.27721E-02         0.00000E+00
    0.50009E-02        -0.24535E-02         0.00000E+00
    0.43939E-02        -0.21373E-02         0.00000E+00
    0.37816E-02        -0.18238E-02         0.00000E+00
    0.31641E-02        -0.15128E-02         0.00000E+00
    0.25415E-02        -0.12046E-02         0.00000E+00
    0.19137E-02        -0.89914E-03         0.00000E+00
    0.12808E-02        -0.59650E-03         0.00000E+00
    0.64291E-03        -0.29677E-03         0.00000E+00
    0.00000E+00         0.00000E+00         0.00000E+00
    0.26009E-01        -0.18794E-01         0.00000E+00
    0.25692E-01        -0.18392E-01         0.00000E+00
    0.25364E-01        -0.17990E-01         0.00000E+00
    0.25024E-01        -0.17589E-01         0.00000E+00
    0.24673E-01        -0.17187E-01         0.00000E+00
    0.24312E-01        -0.16786E-01         0.00000E+00
    0.23940E-01        -0.16386E-01         0.00000E+00
    0.23557E-01        -0.15985E-01         0.00000E+00
    0.23165E-01        -0.15586E-01         0.00000E+00
    0.22764E-01        -0.15187E-01         0.00000E+00
    0.22352E-01        -0.14788E-01         0.00000E+00
    0.21932E-01        -0.14391E-01         0.00000E+00
    0.21503E-01        -0.13994E-01         0.00000E+00
    0.21065E-01        -0.13598E-01         0.00000E+00
    0.20618E-01        -0.13202E-01         0.00000E+00
    0.20163E-01        -0.12808E-01         0.00000E+00
    0.19699E-01        -0.12415E-01         0.00000E+00
    0.19228E-01        -0.12023E-01         0.00000E+00
    0.18749E-01        -0.11632E-01         0.00000E+00
    0.18262E-01        -0.11242E-01         0.00000E+00
    0.17768E-01        -0.10853E-01         0.00000E+00
    0.17267E-01        -0.10465E-01         0.00000E+00
    0.16758E-01        -0.10079E-01         0.00000E+00
    0.16242E-01        -0.96939E-02         0.00000E+00
    0.15719E-01        -0.93103E-02         0.00000E+00
    0.15190E-01        -0.89281E-02         0.00000E+00
    0.14654E-01        -0.85474E-02         0.00000E+00
    0.14111E-01        -0.81683E-02         0.00000E+00
    0.13561E-01        -0.77907E-02         0.00000E+00
    0.13006E-01        -0.74147E-02         0.00000E+00
    0.12444E-01        -0.70404E-02         0.00000E+00
    0.11876E-01        -0.66679E-02         0.00000E+00
    0.11302E-01        -0.62971E-02         0.00000E+00
    0.10722E-01        -0.59282E-02         0.00000E+00
    0.10136E-01        -0.55612E-02         0.00000E+00
    0.95436E-02        -0.51961E-02         0.00000E+00
    0.89459E-02        -0.48331E-02         0.00000E+00
    0.83425E-02        -0.44722E-02         0.00000E+00
    0.77334E-02        -0.41134E-02         0.00000E+00
    0.71187E-02        -0.37568E-02         0.00000E+00
    0.64984E-02        -0.34025E-02         0.00000E+00
    0.58727E-02        -0.30505E-02         0.00000E+00
    0.52414E-02        -0.27010E-02         0.00000E+00
    0.46048E-02        -0.23539E-02         0.00000E+00
    0.39628E-02        -0.20094E-02         0.00000E+00
    0.33155E-02        -0.16675E-02         0.00000E+00
    0.26628E-02        -0.13283E-02         0.00000E+00
    0.20049E-02        -0.99184E-03         0.00000E+00
    0.13418E-02        -0.65827E-03         0.00000E+00
    0.67349E-03        -0.32763E-03         0.00000E+00
    0.00000E+00         0.00000E+00         0.00000E+00
    0.27574E-01        -0.20431E-01         0.00000E+00
    0.27224E-01        -0.19998E-01         0.00000E+00
    0.26862E-01        -0.19566E-01         0.00000E+00
    0.26489E-01        -0.19134E-01         0.00000E+00
    0.26105E-01        -0.18702E-01         0.00000E+00
    0.25710E-01        -0.18271E-01         0.00000E+00
    0.25304E-01        -0.17839E-01         0.00000E+00
    0.24889E-01        -0.17408E-01         0.00000E+00
    0.24464E-01        -0.16978E-01         0.00000E+00
    0.24029E-01        -0.16548E-01         0.00000E+00
    0.23584E-01        -0.16119E-01         0.00000E+00
    0.23131E-01        -0.15691E-01         0.00000E+00
    0.22669E-01        -0.15263E-01         0.00000E+00
    0.22198E-01        -0.14836E-01         0.00000E+00
    0.21719E-01        -0.14409E-01         0.00000E+00
    0.21232E-01        -0.13984E-01         0.00000E+00
    0.20736E-01        -0.13559E-01         0.00000E+00
    0.20233E-01        -0.13135E-01         0.00000E+00
    0.19722E-01        -0.12712E-01         0.00000E+00
    0.19204E-01        -0.12290E-01         0.00000E+00
    0.18678E-01        -0.11870E-01         0.00000E+00
    0.18145E-01        -0.11450E-01         0.00000E+00
    0.17605E-01        -0.11031E-01         0.00000E+00
    0.17058E-01        -0.10614E-01         0.00000E+00
    0.16505E-01        -0.10198E-01         0.00000E+00
    0.15944E-01        -0.97831E-02         0.00000E+00
    0.15378E-01        -0.93695E-02         0.00000E+00
    0.14804E-01        -0.89574E-02         0.00000E+00
    0.14225E-01        -0.85467E-02         0.00000E+00
    0.13639E-01        -0.81374E-02         0.00000E+00
    0.13047E-01        -0.77297E-02         0.00000E+00
    0.12449E-01        -0.73236E-02         0.00000E+00
    0.11844E-01        -0.69192E-02         0.00000E+00
    0.11234E-01        -0.65165E-02         0.00000E+00
    0.10618E-01        -0.61155E-02         0.00000E+00
    0.99966E-02        -0.57164E-02         0.00000E+00
    0.93691E-02        -0.53192E-02         0.00000E+00
    0.87358E-02        -0.49240E-02         0.00000E+00
    0.80969E-02        -0.45308E-02         0.00000E+00
    0.74523E-02        -0.41397E-02         0.00000E+00
    0.68022E-02        -0.37508E-02         0.00000E+00
    0.61465E-02        -0.33642E-02         0.00000E+00
    0.54853E-02        -0.29799E-02         0.00000E+00
    0.48186E-02        -0.25981E-02         0.00000E+00
    0.41464E-02        -0.22187E-02         0.00000E+00
    0.34688E-02        -0.18420E-02         0.00000E+00
    0.27858E-02        -0.14679E-02         0.00000E+00
    0.20974E-02        -0.10966E-02         0.00000E+00
    0.14036E-02        -0.72807E-03         0.00000E+00
    0.70449E-03        -0.36252E-03         0.00000E+00
    0.00000E+00         0.00000E+00         0.00000E+00
    0.29209E-01        -0.22244E-01         0.00000E+00
    0.28822E-01        -0.21778E-01         0.00000E+00
    0.28422E-01        -0.21313E-01         0.00000E+00
    0.28012E-01        -0.20848E-01         0.00000E+00
    0.27590E-01        -0.20383E-01         0.00000E+00
    0.27159E-01        -0.19918E-01         0.00000E+00
    0.26716E-01        -0.19454E-01         0.00000E+00
    0.26264E-01        -0.18990E-01         0.00000E+00
    0.25803E-01        -0.18526E-01         0.00000E+00
    0.25332E-01        -0.18063E-01         0.00000E+00
    0.24852E-01        -0.17600E-01         0.00000E+00
    0.24363E-01        -0.17138E-01         0.00000E+00
    0.23865E-01        -0.16676E-01         0.00000E+00
    0.23360E-01        -0.16215E-01         0.00000E+00
    0.22846E-01        -0.15754E-01         0.00000E+00
    0.22324E-01        -0.15294E-01         0.00000E+00
    0.21794E-01        -0.14835E-01         0.00000E+00
    0.21257E-01        -0.14377E-01         0.00000E+00
    0.20713E-01        -0.13919E-01         0.00000E+00
    0.20161E-01        -0.13462E-01         0.00000E+00
    0.19603E-01        -0.13006E-01         0.00000E+00
    0.19037E-01        -0.12551E-01         0.00000E+00
    0.18465E-01        -0.12097E-01         0.00000E+00
    0.17886E-01        -0.11644E-01         0.00000E+00
    0.17300E-01        -0.11192E-01         0.00000E+00
    0.16708E-01        -0.10741E-01         0.00000E+00
    0.16110E-01        -0.10291E-01         0.00000E+00
    0.15505E-01        -0.98423E-02         0.00000E+00
    0.14894E-01        -0.93948E-02         0.00000E+00
    0.14277E-01        -0.89486E-02         0.00000E+00
    0.13655E-01        -0.85038E-02         0.00000E+00
    0.13026E-01        -0.80603E-02         0.00000E+00
    0.12391E-01        -0.76183E-02         0.00000E+00
    0.11751E-01        -0.71779E-02         0.00000E+00
    0.11105E-01        -0.67390E-02         0.00000E+00
    0.10453E-01        -0.63018E-02         0.00000E+00
    0.97948E-02        -0.58664E-02         0.00000E+00
    0.91314E-02        -0.54328E-02         0.00000E+00
    0.84624E-02        -0.50010E-02         0.00000E+00
    0.77878E-02        -0.45713E-02         0.00000E+00
    0.71075E-02        -0.41436E-02         0.00000E+00
    0.64217E-02        -0.37181E-02         0.00000E+00
    0.57304E-02        -0.32948E-02         0.00000E+00
    0.50334E-02        -0.28738E-02         0.00000E+00
    0.43310E-02        -0.24552E-02         0.00000E+00
    0.36230E-02        -0.20392E-02         0.00000E+00
    0.29094E-02        -0.16257E-02         0.00000E+00
    0.21904E-02        -0.12150E-02         0.00000E+00
    0.14658E-02        -0.80703E-03         0.00000E+00
    0.73566E-03        -0.40200E-03         0.00000E+00
    0.00000E+00         0.00000E+00         0.00000E+00
    0.30908E-01        -0.24256E-01         0.00000E+00
    0.30478E-01        -0.23755E-01         0.00000E+00
    0.30036E-01        -0.23254E-01         0.00000E+00
    0.29584E-01        -0.22753E-01         0.00000E+00
    0.29122E-01        -0.22252E-01         0.00000E+00
    0.28649E-01        -0.21751E-01         0.00000E+00
    0.28166E-01        -0.21250E-01         0.00000E+00
    0.27674E-01        -0.20750E-01         0.00000E+00
    0.27173E-01        -0.20250E-01         0.00000E+00
    0.26663E-01        -0.19750E-01         0.00000E+00
    0.26144E-01        -0.19250E-01         0.00000E+00
    0.25617E-01        -0.18751E-01         0.00000E+00
    0.25082E-01        -0.18253E-01         0.00000E+00
    0.24539E-01        -0.17754E-01         0.00000E+00
    0.23988E-01        -0.17256E-01         0.00000E+00
    0.23430E-01        -0.16759E-01         0.00000E+00
    0.22864E-01        -0.16262E-01         0.00000E+00
    0.22292E-01        -0.15765E-01         0.00000E+00
    0.21712E-01        -0.15269E-01         0.00000E+00
    0.21126E-01        -0.14774E-01         0.00000E+00
    0.20533E-01        -0.14279E-01         0.00000E+00
    0.19934E-01        -0.13785E-01         0.00000E+00
    0.19328E-01        -0.13291E-01         0.00000E+00
    0.18716E-01        -0.12799E-01         0.00000E+00
    0.18097E-01        -0.12307E-01         0.00000E+00
    0.17473E-01        -0.11815E-01         0.00000E+00
    0.16842E-01        -0.11325E-01         0.00000E+00
    0.16206E-01        -0.10836E-01         0.00000E+00
    0.15564E-01        -0.10347E-01         0.00000E+00
    0.14915E-01        -0.98600E-02         0.00000E+00
    0.14262E-01        -0.93737E-02         0.00000E+00
    0.13602E-01        -0.88886E-02         0.00000E+00
    0.12937E-01        -0.84047E-02         0.00000E+00
    0.12266E-01        -0.79221E-02         0.00000E+00
    0.11589E-01        -0.74409E-02         0.00000E+00
    0.10907E-01        -0.69611E-02         0.00000E+00
    0.10219E-01        -0.64828E-02         0.00000E+00
    0.95254E-02        -0.60061E-02         0.00000E+00
    0.88264E-02        -0.55312E-02         0.00000E+00
    0.81218E-02        -0.50580E-02         0.00000E+00
    0.74115E-02        -0.45867E-02         0.00000E+00
    0.66957E-02        -0.41174E-02         0.00000E+00
    0.59743E-02        -0.36502E-02         0.00000E+00
    0.52473E-02        -0.31851E-02         0.00000E+00
    0.45147E-02        -0.27224E-02         0.00000E+00
    0.37765E-02        -0.22620E-02         0.00000E+00
    0.30325E-02        -0.18041E-02         0.00000E+00
    0.22830E-02        -0.13489E-02         0.00000E+00
    0.15277E-02        -0.89635E-03         0.00000E+00
    0.76672E-03        -0.44668E-03         0.00000E+00
    0.00000E+00         0.00000E+00         0.00000E+00
    0.32658E-01        -0.26494E-01         0.00000E+00
    0.32180E-01        -0.25953E-01         0.00000E+00
    0.31692E-01        -0.25413E-01         0.00000E+00
    0.31194E-01        -0.24873E-01         0.00000E+00
    0.30686E-01        -0.24332E-01         0.00000E+00
    0.30168E-01        -0.23792E-01         0.00000E+00
    0.29641E-01        -0.23252E-01         0.00000E+00
    0.29106E-01        -0.22712E-01         0.00000E+00
    0.28562E-01        -0.22172E-01         0.00000E+00
    0.28009E-01        -0.21632E-01         0.00000E+00
    0.27449E-01        -0.21092E-01         0.00000E+00
    0.26881E-01        -0.20553E-01         0.00000E+00
    0.26306E-01        -0.20013E-01         0.00000E+00
    0.25723E-01        -0.19474E-01         0.00000E+00
    0.25134E-01        -0.18935E-01         0.00000E+00
    0.24537E-01        -0.18396E-01         0.00000E+00
    0.23934E-01        -0.17857E-01         0.00000E+00
    0.23325E-01        -0.17318E-01         0.00000E+00
    0.22709E-01        -0.16780E-01         0.00000E+00
    0.22087E-01        -0.16242E-01         0.00000E+00
    0.21458E-01        -0.15704E-01         0.00000E+00
    0.20824E-01        -0.15167E-01         0.00000E+00
    0.20184E-01        -0.14630E-01         0.00000E+00
    0.19538E-01        -0.14093E-01         0.00000E+00
    0.18887E-01        -0.13557E-01         0.00000E+00
    0.18229E-01        -0.13021E-01         0.00000E+00
    0.17567E-01        -0.12486E-01         0.00000E+00
    0.16898E-01        -0.11951E-01         0.00000E+00
    0.16224E-01        -0.11418E-01         0.00000E+00
    0.15545E-01        -0.10884E-01         0.00000E+00
    0.14860E-01        -0.10352E-01         0.00000E+00
    0.14170E-01        -0.98201E-02         0.00000E+00
    0.13474E-01        -0.92893E-02         0.00000E+00
    0.12773E-01        -0.87596E-02         0.00000E+00
    0.12066E-01        -0.82309E-02         0.00000E+00
    0.11354E-01        -0.77034E-02         0.00000E+00
    0.10636E-01        -0.71771E-02         0.00000E+00
    0.99131E-02        -0.66522E-02         0.00000E+00
    0.91845E-02        -0.61287E-02         0.00000E+00
    0.84503E-02        -0.56068E-02         0.00000E+00
    0.77106E-02        -0.50865E-02         0.00000E+00
    0.69653E-02        -0.45679E-02         0.00000E+00
    0.62144E-02        -0.40513E-02         0.00000E+00
    0.54579E-02        -0.35366E-02         0.00000E+00
    0.46956E-02        -0.30240E-02         0.00000E+00
    0.39276E-02        -0.25137E-02         0.00000E+00
    0.31538E-02        -0.20057E-02         0.00000E+00
    0.23742E-02        -0.15002E-02         0.00000E+00
    0.15887E-02        -0.99733E-03         0.00000E+00
    0.79734E-03        -0.49721E-03         0.00000E+00
    0.00000E+00         0.00000E+00         0.00000E+00
    0.34444E-01        -0.28983E-01         0.00000E+00
    0.33914E-01        -0.28400E-01         0.00000E+00
    0.33374E-01        -0.27817E-01         0.00000E+00
    0.32824E-01        -0.27233E-01         0.00000E+00
    0.32266E-01        -0.26650E-01         0.00000E+00
    0.31700E-01        -0.26067E-01         0.00000E+00
    0.31125E-01        -0.25483E-01         0.00000E+00
    0.30542E-01        -0.24900E-01         0.00000E+00
    0.29952E-01        -0.24316E-01         0.00000E+00
    0.29354E-01        -0.23732E-01         0.00000E+00
    0.28750E-01        -0.23148E-01         0.00000E+00
    0.28138E-01        -0.22564E-01         0.00000E+00
    0.27521E-01        -0.21980E-01         0.00000E+00
    0.26897E-01        -0.21396E-01         0.00000E+00
    0.26266E-01        -0.20811E-01         0.00000E+00
    0.25630E-01        -0.20227E-01         0.00000E+00
    0.24988E-01        -0.19642E-01         0.00000E+00
    0.24341E-01        -0.19057E-01         0.00000E+00
    0.23687E-01        -0.18472E-01         0.00000E+00
    0.23029E-01        -0.17887E-01         0.00000E+00
    0.22365E-01        -0.17301E-01         0.00000E+00
    0.21696E-01        -0.16716E-01         0.00000E+00
    0.21021E-01        -0.16130E-01         0.00000E+00
    0.20341E-01        -0.15545E-01         0.00000E+00
    0.19657E-01        -0.14960E-01         0.00000E+00
    0.18967E-01        -0.14374E-01         0.00000E+00
    0.18272E-01        -0.13789E-01         0.00000E+00
    0.17572E-01        -0.13204E-01         0.00000E+00
    0.16867E-01        -0.12619E-01         0.00000E+00
    0.16156E-01        -0.12035E-01         0.00000E+00
    0.15441E-01        -0.11451E-01         0.00000E+00
    0.14721E-01        -0.10867E-01         0.00000E+00
    0.13995E-01        -0.10284E-01         0.00000E+00
    0.13264E-01        -0.97014E-02         0.00000E+00
    0.12528E-01        -0.91196E-02         0.00000E+00
    0.11787E-01        -0.85386E-02         0.00000E+00
    0.11041E-01        -0.79585E-02         0.00000E+00
    0.10289E-01        -0.73795E-02         0.00000E+00
    0.95317E-02        -0.68015E-02         0.00000E+00
    0.87690E-02        -0.62248E-02         0.00000E+00
    0.80007E-02        -0.56495E-02         0.00000E+00
    0.72269E-02        -0.50756E-02         0.00000E+00
    0.64474E-02        -0.45034E-02         0.00000E+00
    0.56622E-02        -0.39329E-02         0.00000E+00
    0.48713E-02        -0.33642E-02         0.00000E+00
    0.40744E-02        -0.27976E-02         0.00000E+00
    0.32717E-02        -0.22331E-02         0.00000E+00
    0.24629E-02        -0.16710E-02         0.00000E+00
    0.16481E-02        -0.11113E-02         0.00000E+00
    0.82716E-03        -0.55428E-03         0.00000E+00
    0.00000E+00         0.00000E+00         0.00000E+00
    0.36245E-01        -0.31754E-01         0.00000E+00
    0.35656E-01        -0.31124E-01         0.00000E+00
    0.35059E-01        -0.30494E-01         0.00000E+00
    0.34454E-01        -0.29863E-01         0.00000E+00
    0.33841E-01        -0.29233E-01         0.00000E+00
    0.33221E-01        -0.28602E-01         0.00000E+00
    0.32594E-01        -0.27971E-01         0.00000E+00
    0.31961E-01        -0.27340E-01         0.00000E+00
    0.31321E-01        -0.26708E-01         0.00000E+00
    0.30676E-01        -0.26076E-01         0.00000E+00
    0.30025E-01        -0.25443E-01         0.00000E+00
    0.29368E-01        -0.24810E-01         0.00000E+00
    0.28706E-01        -0.24177E-01         0.00000E+00
    0.28039E-01        -0.23543E-01         0.00000E+00
    0.27367E-01        -0.22908E-01         0.00000E+00
    0.26690E-01        -0.22273E-01         0.00000E+00
    0.26009E-01        -0.21638E-01         0.00000E+00
    0.25322E-01        -0.21001E-01         0.00000E+00
    0.24632E-01        -0.20364E-01         0.00000E+00
    0.23936E-01        -0.19727E-01         0.00000E+00
    0.23236E-01        -0.19089E-01         0.00000E+00
    0.22532E-01        -0.18450E-01         0.00000E+00
    0.21824E-01        -0.17811E-01         0.00000E+00
    0.21111E-01        -0.17171E-01         0.00000E+00
    0.20393E-01        -0.16531E-01         0.00000E+00
    0.19671E-01        -0.15891E-01         0.00000E+00
    0.18945E-01        -0.15250E-01         0.00000E+00
    0.18214E-01        -0.14609E-01         0.00000E+00
    0.17479E-01        -0.13967E-01         0.00000E+00
    0.16739E-01        -0.13325E-01         0.00000E+00
    0.15995E-01        -0.12684E-01         0.00000E+00
    0.15245E-01        -0.12042E-01         0.00000E+00
    0.14491E-01        -0.11400E-01         0.00000E+00
    0.13732E-01        -0.10759E-01         0.00000E+00
    0.12969E-01        -0.10118E-01         0.00000E+00
    0.12200E-01        -0.94768E-02         0.00000E+00
    0.11426E-01        -0.88365E-02         0.00000E+00
    0.10647E-01        -0.81968E-02         0.00000E+00
    0.98623E-02        -0.75578E-02         0.00000E+00
    0.90725E-02        -0.69197E-02         0.00000E+00
    0.82772E-02        -0.62826E-02         0.00000E+00
    0.74763E-02        -0.56467E-02         0.00000E+00
    0.66697E-02        -0.50120E-02         0.00000E+00
    0.58573E-02        -0.43788E-02         0.00000E+00
    0.50390E-02        -0.37471E-02         0.00000E+00
    0.42148E-02        -0.31173E-02         0.00000E+00
    0.33844E-02        -0.24893E-02         0.00000E+00
    0.25479E-02        -0.18634E-02         0.00000E+00
    0.17050E-02        -0.12398E-02         0.00000E+00
    0.85576E-03        -0.61858E-03         0.00000E+00
    0.00000E+00         0.00000E+00         0.00000E+00
    0.38033E-01        -0.34837E-01         0.00000E+00
    0.37380E-01        -0.34155E-01         0.00000E+00
    0.36720E-01        -0.33473E-01         0.00000E+00
    0.36054E-01        -0.32791E-01         0.00000E+00
    0.35382E-01        -0.32109E-01         0.00000E+00
    0.34705E-01        -0.31426E-01         0.00000E+00
    0.34023E-01        -0.30743E-01         0.00000E+00
    0.33336E-01        -0.30059E-01         0.00000E+00
    0.32645E-01        -0.29375E-01         0.00000E+00
    0.31949E-01        -0.28689E-01         0.00000E+00
    0.31249E-01        -0.28003E-01         0.00000E+00
    0.30545E-01        -0.27316E-01         0.00000E+00
    0.29838E-01        -0.26628E-01         0.00000E+00
    0.29127E-01        -0.25940E-01         0.00000E+00
    0.28412E-01        -0.25250E-01         0.00000E+00
    0.27694E-01        -0.24559E-01         0.00000E+00
    0.26973E-01        -0.23867E-01         0.00000E+00
    0.26248E-01        -0.23173E-01         0.00000E+00
    0.25520E-01        -0.22479E-01         0.00000E+00
    0.24789E-01        -0.21783E-01         0.00000E+00
    0.24054E-01        -0.21087E-01         0.00000E+00
    0.23316E-01        -0.20389E-01         0.00000E+00
    0.22574E-01        -0.19690E-01         0.00000E+00
    0.21829E-01        -0.18990E-01         0.00000E+00
    0.21080E-01        -0.18289E-01         0.00000E+00
    0.20328E-01        -0.17587E-01         0.00000E+00
    0.19572E-01        -0.16884E-01         0.00000E+00
    0.18812E-01        -0.16181E-01         0.00000E+00
    0.18048E-01        -0.15476E-01         0.00000E+00
    0.17281E-01        -0.14771E-01         0.00000E+00
    0.16509E-01        -0.14065E-01         0.00000E+00
    0.15733E-01        -0.13358E-01         0.00000E+00
    0.14952E-01        -0.12651E-01         0.00000E+00
    0.14167E-01        -0.11944E-01         0.00000E+00
    0.13377E-01        -0.11236E-01         0.00000E+00
    0.12583E-01        -0.10528E-01         0.00000E+00
    0.11784E-01        -0.98207E-02         0.00000E+00
    0.10979E-01        -0.91131E-02         0.00000E+00
    0.10170E-01        -0.84059E-02         0.00000E+00
    0.93550E-02        -0.76991E-02         0.00000E+00
    0.85346E-02        -0.69928E-02         0.00000E+00
    0.77087E-02        -0.62873E-02         0.00000E+00
    0.68771E-02        -0.55827E-02         0.00000E+00
    0.60395E-02        -0.48792E-02         0.00000E+00
    0.51959E-02        -0.41770E-02         0.00000E+00
    0.43462E-02        -0.34761E-02         0.00000E+00
    0.34901E-02        -0.27769E-02         0.00000E+00
    0.26276E-02        -0.20795E-02         0.00000E+00
    0.17585E-02        -0.13841E-02         0.00000E+00
    0.88267E-03        -0.69083E-03         0.00000E+00
    0.00000E+00         0.00000E+00         0.00000E+00
    0.39774E-01        -0.38263E-01         0.00000E+00
    0.39050E-01        -0.37525E-01         0.00000E+00
    0.38322E-01        -0.36786E-01         0.00000E+00
    0.37591E-01        -0.36047E-01         0.00000E+00
    0.36856E-01        -0.35308E-01         0.00000E+00
    0.36118E-01        -0.34568E-01         0.00000E+00
    0.35377E-01        -0.33827E-01         0.00000E+00
    0.34634E-01        -0.33085E-01         0.00000E+00
    0.33888E-01        -0.32342E-01         0.00000E+00
    0.33141E-01        -0.31599E-01         0.00000E+00
    0.32391E-01        -0.30853E-01         0.00000E+00
    0.31639E-01        -0.30107E-01         0.00000E+00
    0.30886E-01        -0.29359E-01         0.00000E+00
    0.30131E-01        -0.28609E-01         0.00000E+00
    0.29374E-01        -0.27858E-01         0.00000E+00
    0.28615E-01        -0.27105E-01         0.00000E+00
    0.27855E-01        -0.26351E-01         0.00000E+00
    0.27093E-01        -0.25595E-01         0.00000E+00
    0.26329E-01        -0.24837E-01         0.00000E+00
    0.25563E-01        -0.24077E-01         0.00000E+00
    0.24794E-01        -0.23315E-01         0.00000E+00
    0.24024E-01        -0.22552E-01         0.00000E+00
    0.23251E-01        -0.21787E-01         0.00000E+00
    0.22476E-01        -0.21020E-01         0.00000E+00
    0.21699E-01        -0.20251E-01         0.00000E+00
    0.20918E-01        -0.19481E-01         0.00000E+00
    0.20135E-01        -0.18709E-01         0.00000E+00
    0.19349E-01        -0.17935E-01         0.00000E+00
    0.18559E-01        -0.17160E-01         0.00000E+00
    0.17767E-01        -0.16384E-01         0.00000E+00
    0.16970E-01        -0.15606E-01         0.00000E+00
    0.16170E-01        -0.14828E-01         0.00000E+00
    0.15366E-01        -0.14048E-01         0.00000E+00
    0.14557E-01        -0.13267E-01         0.00000E+00
    0.13745E-01        -0.12485E-01         0.00000E+00
    0.12928E-01        -0.11703E-01         0.00000E+00
    0.12106E-01        -0.10920E-01         0.00000E+00
    0.11279E-01        -0.10137E-01         0.00000E+00
    0.10447E-01        -0.93537E-02         0.00000E+00
    0.96099E-02        -0.85702E-02         0.00000E+00
    0.87673E-02        -0.77868E-02         0.00000E+00
    0.79190E-02        -0.70036E-02         0.00000E+00
    0.70649E-02        -0.62210E-02         0.00000E+00
    0.62048E-02        -0.54389E-02         0.00000E+00
    0.53385E-02        -0.46578E-02         0.00000E+00
    0.44658E-02        -0.38776E-02         0.00000E+00
    0.35865E-02        -0.30988E-02         0.00000E+00
    0.27004E-02        -0.23213E-02         0.00000E+00
    0.18074E-02        -0.15456E-02         0.00000E+00
    0.90736E-03        -0.77172E-03         0.00000E+00
    0.00000E+00         0.00000E+00         0.00000E+00
    0.41421E-01        -0.42063E-01         0.00000E+00
    0.40621E-01        -0.41262E-01         0.00000E+00
    0.39820E-01        -0.40461E-01         0.00000E+00
    0.39019E-01        -0.39659E-01         0.00000E+00
    0.38218E-01        -0.38857E-01         0.00000E+00
    0.37416E-01        -0.38054E-01         0.00000E+00
    0.36615E-01        -0.37250E-01         0.00000E+00
    0.35813E-01        -0.36444E-01         0.00000E+00
    0.35013E-01        -0.35637E-01         0.00000E+00
    0.34213E-01        -0.34829E-01         0.00000E+00
    0.33413E-01        -0.34018E-01         0.00000E+00
    0.32614E-01        -0.33206E-01         0.00000E+00
    0.31815E-01        -0.32392E-01         0.00000E+00
    0.31017E-01        -0.31575E-01         0.00000E+00
    0.30219E-01        -0.30756E-01         0.00000E+00
    0.29422E-01        -0.29935E-01         0.00000E+00
    0.28624E-01        -0.29111E-01         0.00000E+00
    0.27827E-01        -0.28285E-01         0.00000E+00
    0.27029E-01        -0.27457E-01         0.00000E+00
    0.26231E-01        -0.26626E-01         0.00000E+00
    0.25432E-01        -0.25792E-01         0.00000E+00
    0.24633E-01        -0.24956E-01         0.00000E+00
    0.23832E-01        -0.24117E-01         0.00000E+00
    0.23031E-01        -0.23276E-01         0.00000E+00
    0.22228E-01        -0.22432E-01         0.00000E+00
    0.21423E-01        -0.21586E-01         0.00000E+00
    0.20616E-01        -0.20738E-01         0.00000E+00
    0.19807E-01        -0.19887E-01         0.00000E+00
    0.18995E-01        -0.19034E-01         0.00000E+00
    0.18181E-01        -0.18179E-01         0.00000E+00
    0.17364E-01        -0.17322E-01         0.00000E+00
    0.16543E-01        -0.16463E-01         0.00000E+00
    0.15719E-01        -0.15602E-01         0.00000E+00
    0.14891E-01        -0.14740E-01         0.00000E+00
    0.14059E-01        -0.13876E-01         0.00000E+00
    0.13223E-01        -0.13011E-01         0.00000E+00
    0.12382E-01        -0.12144E-01         0.00000E+00
    0.11536E-01        -0.11277E-01         0.00000E+00
    0.10686E-01        -0.10409E-01         0.00000E+00
    0.98298E-02        -0.95400E-02         0.00000E+00
    0.89684E-02        -0.86708E-02         0.00000E+00
    0.81012E-02        -0.78013E-02         0.00000E+00
    0.72281E-02        -0.69318E-02         0.00000E+00
    0.63487E-02        -0.60624E-02         0.00000E+00
    0.54629E-02        -0.51934E-02         0.00000E+00
    0.45704E-02        -0.43250E-02         0.00000E+00
    0.36710E-02        -0.34574E-02         0.00000E+00
    0.27645E-02        -0.25909E-02         0.00000E+00
    0.18506E-02        -0.17256E-02         0.00000E+00
    0.92919E-03        -0.86192E-03         0.00000E+00
    0.00000E+00         0.00000E+00         0.00000E+00
    0.42919E-01        -0.46264E-01         0.00000E+00
    0.42038E-01        -0.45394E-01         0.00000E+00
    0.41161E-01        -0.44525E-01         0.00000E+00
    0.40287E-01        -0.43654E-01         0.00000E+00
    0.39416E-01        -0.42783E-01         0.00000E+00
    0.38549E-01        -0.41910E-01         0.00000E+00
    0.37686E-01        -0.41036E-01         0.00000E+00
    0.36827E-01        -0.40160E-01         0.00000E+00
    0.35971E-01        -0.39282E-01         0.00000E+00
    0.35119E-01        -0.38402E-01         0.00000E+00
    0.34270E-01        -0.37520E-01         0.00000E+00
    0.33425E-01        -0.36635E-01         0.00000E+00
    0.32583E-01        -0.35747E-01         0.00000E+00
    0.31745E-01        -0.34857E-01         0.00000E+00
    0.30909E-01        -0.33963E-01         0.00000E+00
    0.30075E-01        -0.33066E-01         0.00000E+00
    0.29244E-01        -0.32167E-01         0.00000E+00
    0.28416E-01        -0.31263E-01         0.00000E+00
    0.27588E-01        -0.30357E-01         0.00000E+00
    0.26762E-01        -0.29447E-01         0.00000E+00
    0.25938E-01        -0.28534E-01         0.00000E+00
    0.25114E-01        -0.27618E-01         0.00000E+00
    0.24290E-01        -0.26698E-01         0.00000E+00
    0.23467E-01        -0.25774E-01         0.00000E+00
    0.22643E-01        -0.24848E-01         0.00000E+00
    0.21818E-01        -0.23918E-01         0.00000E+00
    0.20993E-01        -0.22985E-01         0.00000E+00
    0.20166E-01        -0.22048E-01         0.00000E+00
    0.19337E-01        -0.21109E-01         0.00000E+00
    0.18506E-01        -0.20167E-01         0.00000E+00
    0.17673E-01        -0.19222E-01         0.00000E+00
    0.16837E-01        -0.18274E-01         0.00000E+00
    0.15998E-01        -0.17324E-01         0.00000E+00
    0.15155E-01        -0.16371E-01         0.00000E+00
    0.14308E-01        -0.15416E-01         0.00000E+00
    0.13457E-01        -0.14459E-01         0.00000E+00
    0.12602E-01        -0.13501E-01         0.00000E+00
    0.11742E-01        -0.12540E-01         0.00000E+00
    0.10877E-01        -0.11578E-01         0.00000E+00
    0.10007E-01        -0.10615E-01         0.00000E+00
    0.91307E-02        -0.96507E-02         0.00000E+00
    0.82488E-02        -0.86856E-02         0.00000E+00
    0.73606E-02        -0.77199E-02         0.00000E+00
    0.64660E-02        -0.67537E-02         0.00000E+00
    0.55646E-02        -0.57875E-02         0.00000E+00
    0.46563E-02        -0.48212E-02         0.00000E+00
    0.37406E-02        -0.38553E-02         0.00000E+00
    0.28174E-02        -0.28900E-02         0.00000E+00
    0.18865E-02        -0.19255E-02         0.00000E+00
    0.94744E-03        -0.96207E-03         0.00000E+00
    0.00000E+00         0.00000E+00         0.00000E+00
    0.44198E-01        -0.50890E-01         0.00000E+00
    0.43233E-01        -0.49945E-01         0.00000E+00
    0.42277E-01        -0.48999E-01         0.00000E+00
    0.41328E-01        -0.48052E-01         0.00000E+00
    0.40388E-01        -0.47105E-01         0.00000E+00
    0.39456E-01        -0.46155E-01         0.00000E+00
    0.38532E-01        -0.45204E-01         0.00000E+00
    0.37615E-01        -0.44251E-01         0.00000E+00
    0.36707E-01        -0.43295E-01         0.00000E+00
    0.35805E-01        -0.42336E-01         0.00000E+00
    0.34911E-01        -0.41374E-01         0.00000E+00
    0.34024E-01        -0.40409E-01         0.00000E+00
    0.33143E-01        -0.39441E-01         0.00000E+00
    0.32268E-01        -0.38469E-01         0.00000E+00
    0.31398E-01        -0.37493E-01         0.00000E+00
    0.30534E-01        -0.36513E-01         0.00000E+00
    0.29675E-01        -0.35530E-01         0.00000E+00
    0.28820E-01        -0.34542E-01         0.00000E+00
    0.27969E-01        -0.33550E-01         0.00000E+00
    0.27122E-01        -0.32553E-01         0.00000E+00
    0.26277E-01        -0.31553E-01         0.00000E+00
    0.25435E-01        -0.30548E-01         0.00000E+00
    0.24594E-01        -0.29539E-01         0.00000E+00
    0.23755E-01        -0.28525E-01         0.00000E+00
    0.22917E-01        -0.27508E-01         0.00000E+00
    0.22080E-01        -0.26486E-01         0.00000E+00
    0.21242E-01        -0.25460E-01         0.00000E+00
    0.20404E-01        -0.24430E-01         0.00000E+00
    0.19564E-01        -0.23395E-01         0.00000E+00
    0.18723E-01        -0.22358E-01         0.00000E+00
    0.17880E-01        -0.21316E-01         0.00000E+00
    0.17035E-01        -0.20271E-01         0.00000E+00
    0.16186E-01        -0.19222E-01         0.00000E+00
    0.15335E-01        -0.18170E-01         0.00000E+00
    0.14479E-01        -0.17115E-01         0.00000E+00
    0.13620E-01        -0.16057E-01         0.00000E+00
    0.12755E-01        -0.14997E-01         0.00000E+00
    0.11886E-01        -0.13934E-01         0.00000E+00
    0.11012E-01        -0.12869E-01         0.00000E+00
    0.10132E-01        -0.11801E-01         0.00000E+00
    0.92463E-02        -0.10732E-01         0.00000E+00
    0.83543E-02        -0.96618E-02         0.00000E+00
    0.74559E-02        -0.85900E-02         0.00000E+00
    0.65507E-02        -0.75172E-02         0.00000E+00
    0.56384E-02        -0.64436E-02         0.00000E+00
    0.47189E-02        -0.53695E-02         0.00000E+00
    0.37917E-02        -0.42951E-02         0.00000E+00
    0.28565E-02        -0.32207E-02         0.00000E+00
    0.19130E-02        -0.21465E-02         0.00000E+00
    0.96088E-03        -0.10728E-02         0.00000E+00
    0.00000E+00         0.00000E+00         0.00000E+00
    0.45176E-01        -0.55955E-01         0.00000E+00
    0.44126E-01        -0.54926E-01         0.00000E+00
    0.43090E-01        -0.53897E-01         0.00000E+00
    0.42068E-01        -0.52866E-01         0.00000E+00
    0.41059E-01        -0.51835E-01         0.00000E+00
    0.40064E-01        -0.50801E-01         0.00000E+00
    0.39082E-01        -0.49765E-01         0.00000E+00
    0.38113E-01        -0.48726E-01         0.00000E+00
    0.37155E-01        -0.47684E-01         0.00000E+00
    0.36210E-01        -0.46639E-01         0.00000E+00
    0.35275E-01        -0.45590E-01         0.00000E+00
    0.34351E-01        -0.44537E-01         0.00000E+00
    0.33437E-01        -0.43480E-01         0.00000E+00
    0.32533E-01        -0.42419E-01         0.00000E+00
    0.31637E-01        -0.41353E-01         0.00000E+00
    0.30750E-01        -0.40282E-01         0.00000E+00
    0.29870E-01        -0.39207E-01         0.00000E+00
    0.28997E-01        -0.38126E-01         0.00000E+00
    0.28130E-01        -0.37041E-01         0.00000E+00
    0.27268E-01        -0.35950E-01         0.00000E+00
    0.26412E-01        -0.34854E-01         0.00000E+00
    0.25559E-01        -0.33753E-01         0.00000E+00
    0.24711E-01        -0.32647E-01         0.00000E+00
    0.23865E-01        -0.31535E-01         0.00000E+00
    0.23021E-01        -0.30418E-01         0.00000E+00
    0.22178E-01        -0.29296E-01         0.00000E+00
    0.21337E-01        -0.28169E-01         0.00000E+00
    0.20495E-01        -0.27037E-01         0.00000E+00
    0.19653E-01        -0.25900E-01         0.00000E+00
    0.18810E-01        -0.24758E-01         0.00000E+00
    0.17965E-01        -0.23611E-01         0.00000E+00
    0.17118E-01        -0.22460E-01         0.00000E+00
    0.16268E-01        -0.21305E-01         0.00000E+00
    0.15415E-01        -0.20145E-01         0.00000E+00
    0.14558E-01        -0.18981E-01         0.00000E+00
    0.13696E-01        -0.17813E-01         0.00000E+00
    0.12830E-01        -0.16642E-01         0.00000E+00
    0.11958E-01        -0.15467E-01         0.00000E+00
    0.11080E-01        -0.14289E-01         0.00000E+00
    0.10197E-01        -0.13108E-01         0.00000E+00
    0.93070E-02        -0.11924E-01         0.00000E+00
    0.84105E-02        -0.10738E-01         0.00000E+00
    0.75070E-02        -0.95492E-02         0.00000E+00
    0.65962E-02        -0.83590E-02         0.00000E+00
    0.56780E-02        -0.71673E-02         0.00000E+00
    0.47521E-02        -0.59743E-02         0.00000E+00
    0.38185E-02        -0.47804E-02         0.00000E+00
    0.28769E-02        -0.35860E-02         0.00000E+00
    0.19273E-02        -0.23910E-02         0.00000E+00
    0.96888E-03        -0.11956E-02         0.00000E+00
    0.00000E+00         0.00000E+00         0.00000E+00
    0.45754E-01        -0.61460E-01         0.00000E+00
    0.44621E-01        -0.60339E-01         0.00000E+00
    0.43508E-01        -0.59218E-01         0.00000E+00
    0.42416E-01        -0.58095E-01         0.00000E+00
    0.41344E-01        -0.56971E-01         0.00000E+00
    0.40292E-01        -0.55844E-01         0.00000E+00
    0.39258E-01        -0.54715E-01         0.00000E+00
    0.38242E-01        -0.53582E-01         0.00000E+00
    0.37243E-01        -0.52446E-01         0.00000E+00
    0.36261E-01        -0.51306E-01         0.00000E+00
    0.35294E-01        -0.50162E-01         0.00000E+00
    0.34342E-01        -0.49013E-01         0.00000E+00
    0.33404E-01        -0.47859E-01         0.00000E+00
    0.32480E-01        -0.46700E-01         0.00000E+00
    0.31567E-01        -0.45536E-01         0.00000E+00
    0.30666E-01        -0.44367E-01         0.00000E+00
    0.29775E-01        -0.43192E-01         0.00000E+00
    0.28894E-01        -0.42011E-01         0.00000E+00
    0.28022E-01        -0.40824E-01         0.00000E+00
    0.27157E-01        -0.39631E-01         0.00000E+00
    0.26299E-01        -0.38433E-01         0.00000E+00
    0.25447E-01        -0.37228E-01         0.00000E+00
    0.24600E-01        -0.36017E-01         0.00000E+00
    0.23758E-01        -0.34800E-01         0.00000E+00
    0.22918E-01        -0.33577E-01         0.00000E+00
    0.22081E-01        -0.32348E-01         0.00000E+00
    0.21246E-01        -0.31112E-01         0.00000E+00
    0.20412E-01        -0.29871E-01         0.00000E+00
    0.19577E-01        -0.28624E-01         0.00000E+00
    0.18742E-01        -0.27371E-01         0.00000E+00
    0.17905E-01        -0.26112E-01         0.00000E+00
    0.17066E-01        -0.24848E-01         0.00000E+00
    0.16223E-01        -0.23578E-01         0.00000E+00
    0.15378E-01        -0.22303E-01         0.00000E+00
    0.14527E-01        -0.21023E-01         0.00000E+00
    0.13672E-01        -0.19737E-01         0.00000E+00
    0.12811E-01        -0.18447E-01         0.00000E+00
    0.11945E-01        -0.17152E-01         0.00000E+00
    0.11072E-01        -0.15853E-01         0.00000E+00
    0.10191E-01        -0.14550E-01         0.00000E+00
    0.93040E-02        -0.13242E-01         0.00000E+00
    0.84090E-02        -0.11931E-01         0.00000E+00
    0.75062E-02        -0.10616E-01         0.00000E+00
    0.65957E-02        -0.92979E-02         0.00000E+00
    0.56774E-02        -0.79763E-02         0.00000E+00
    0.47512E-02        -0.66516E-02         0.00000E+00
    0.38165E-02        -0.53238E-02         0.00000E+00
    0.28732E-02        -0.39936E-02         0.00000E+00
    0.19215E-02        -0.26627E-02         0.00000E+00
    0.96218E-03        -0.13315E-02         0.00000E+00
    0.00000E+00         0.00000E+00         0.00000E+00
    0.45819E-01        -0.67389E-01         0.00000E+00
    0.44609E-01        -0.66167E-01         0.00000E+00
    0.43427E-01        -0.64944E-01         0.00000E+00
    0.42273E-01        -0.63720E-01         0.00000E+00
    0.41146E-01        -0.62494E-01         0.00000E+00
    0.40045E-01        -0.61265E-01         0.00000E+00
    0.38969E-01        -0.60034E-01         0.00000E+00
    0.37917E-01        -0.58799E-01         0.00000E+00
    0.36887E-01        -0.57559E-01         0.00000E+00
    0.35880E-01        -0.56316E-01         0.00000E+00
    0.34892E-01        -0.55067E-01         0.00000E+00
    0.33925E-01        -0.53814E-01         0.00000E+00
    0.32975E-01        -0.52555E-01         0.00000E+00
    0.32042E-01        -0.51291E-01         0.00000E+00
    0.31125E-01        -0.50021E-01         0.00000E+00
    0.30223E-01        -0.48745E-01         0.00000E+00
    0.29334E-01        -0.47462E-01         0.00000E+00
    0.28457E-01        -0.46174E-01         0.00000E+00
    0.27592E-01        -0.44879E-01         0.00000E+00
    0.26737E-01        -0.43577E-01         0.00000E+00
    0.25890E-01        -0.42269E-01         0.00000E+00
    0.25052E-01        -0.40954E-01         0.00000E+00
    0.24219E-01        -0.39632E-01         0.00000E+00
    0.23393E-01        -0.38303E-01         0.00000E+00
    0.22571E-01        -0.36968E-01         0.00000E+00
    0.21752E-01        -0.35626E-01         0.00000E+00
    0.20935E-01        -0.34277E-01         0.00000E+00
    0.20120E-01        -0.32921E-01         0.00000E+00
    0.19305E-01        -0.31559E-01         0.00000E+00
    0.18489E-01        -0.30190E-01         0.00000E+00
    0.17671E-01        -0.28815E-01         0.00000E+00
    0.16851E-01        -0.27433E-01         0.00000E+00
    0.16028E-01        -0.26044E-01         0.00000E+00
    0.15200E-01        -0.24649E-01         0.00000E+00
    0.14367E-01        -0.23248E-01         0.00000E+00
    0.13528E-01        -0.21841E-01         0.00000E+00
    0.12683E-01        -0.20429E-01         0.00000E+00
    0.11830E-01        -0.19010E-01         0.00000E+00
    0.10969E-01        -0.17586E-01         0.00000E+00
    0.10101E-01        -0.16156E-01         0.00000E+00
    0.92236E-02        -0.14720E-01         0.00000E+00
    0.83377E-02        -0.13279E-01         0.00000E+00
    0.74419E-02        -0.11833E-01         0.00000E+00
    0.65362E-02        -0.10381E-01         0.00000E+00
    0.56198E-02        -0.89264E-02         0.00000E+00
    0.46938E-02        -0.74680E-02         0.00000E+00
    0.37618E-02        -0.60056E-02         0.00000E+00
    0.28254E-02        -0.45358E-02         0.00000E+00
    0.18868E-02        -0.30510E-02         0.00000E+00
    0.94443E-03        -0.15405E-02         0.00000E+00
    0.00000E+00         0.00000E+00         0.00000E+00
    0.45244E-01        -0.73699E-01         0.00000E+00
    0.43968E-01        -0.72366E-01         0.00000E+00
    0.42729E-01        -0.71032E-01         0.00000E+00
    0.41526E-01        -0.69697E-01         0.00000E+00
    0.40357E-01        -0.68360E-01         0.00000E+00
    0.39222E-01        -0.67020E-01         0.00000E+00
    0.38118E-01        -0.65676E-01         0.00000E+00
    0.37044E-01        -0.64329E-01         0.00000E+00
    0.35999E-01        -0.62977E-01         0.00000E+00
    0.34981E-01        -0.61621E-01         0.00000E+00
    0.33988E-01        -0.60260E-01         0.00000E+00
    0.33020E-01        -0.58894E-01         0.00000E+00
    0.32073E-01        -0.57522E-01         0.00000E+00
    0.31148E-01        -0.56144E-01         0.00000E+00
    0.30242E-01        -0.54760E-01         0.00000E+00
    0.29354E-01        -0.53370E-01         0.00000E+00
    0.28482E-01        -0.51973E-01         0.00000E+00
    0.27626E-01        -0.50570E-01         0.00000E+00
    0.26783E-01        -0.49160E-01         0.00000E+00
    0.25952E-01        -0.47744E-01         0.00000E+00
    0.25132E-01        -0.46320E-01         0.00000E+00
    0.24321E-01        -0.44890E-01         0.00000E+00
    0.23519E-01        -0.43452E-01         0.00000E+00
    0.22723E-01        -0.42008E-01         0.00000E+00
    0.21932E-01        -0.40556E-01         0.00000E+00
    0.21145E-01        -0.39098E-01         0.00000E+00
    0.20362E-01        -0.37632E-01         0.00000E+00
    0.19579E-01        -0.36159E-01         0.00000E+00
    0.18798E-01        -0.34679E-01         0.00000E+00
    0.18015E-01        -0.33192E-01         0.00000E+00
    0.17230E-01        -0.31699E-01         0.00000E+00
    0.16442E-01        -0.30198E-01         0.00000E+00
    0.15650E-01        -0.28690E-01         0.00000E+00
    0.14852E-01        -0.27176E-01         0.00000E+00
    0.14048E-01        -0.25654E-01         0.00000E+00
    0.13236E-01        -0.24127E-01         0.00000E+00
    0.12417E-01        -0.22592E-01         0.00000E+00
    0.11588E-01        -0.21051E-01         0.00000E+00
    0.10749E-01        -0.19503E-01         0.00000E+00
    0.98994E-02        -0.17950E-01         0.00000E+00
    0.90368E-02        -0.16392E-01         0.00000E+00
    0.81623E-02        -0.14829E-01         0.00000E+00
    0.72788E-02        -0.13263E-01         0.00000E+00
    0.63865E-02        -0.11687E-01         0.00000E+00
    0.54889E-02        -0.10097E-01         0.00000E+00
    0.45839E-02        -0.84814E-02         0.00000E+00
    0.36742E-02        -0.68384E-02         0.00000E+00
    0.27626E-02        -0.51679E-02         0.00000E+00
    0.18475E-02        -0.34692E-02         0.00000E+00
    0.92780E-03        -0.17459E-02         0.00000E+00
    0.00000E+00         0.00000E+00         0.00000E+00
    0.43891E-01        -0.80318E-01         0.00000E+00
    0.42566E-01        -0.78864E-01         0.00000E+00
    0.41289E-01        -0.77409E-01         0.00000E+00
    0.40055E-01        -0.75952E-01         0.00000E+00
    0.38865E-01        -0.74493E-01         0.00000E+00
    0.37714E-01        -0.73032E-01         0.00000E+00
    0.36602E-01        -0.71567E-01         0.00000E+00
    0.35526E-01        -0.70098E-01         0.00000E+00
    0.34485E-01        -0.68625E-01         0.00000E+00
    0.33475E-01        -0.67147E-01         0.00000E+00
    0.32496E-01        -0.65664E-01         0.00000E+00
    0.31546E-01        -0.64176E-01         0.00000E+00
    0.30622E-01        -0.62683E-01         0.00000E+00
    0.29723E-01        -0.61184E-01         0.00000E+00
    0.28846E-01        -0.59679E-01         0.00000E+00
    0.27991E-01        -0.58167E-01         0.00000E+00
    0.27154E-01        -0.56650E-01         0.00000E+00
    0.26335E-01        -0.55126E-01         0.00000E+00
    0.25532E-01        -0.53596E-01         0.00000E+00
    0.24743E-01        -0.52060E-01         0.00000E+00
    0.23967E-01        -0.50516E-01         0.00000E+00
    0.23201E-01        -0.48967E-01         0.00000E+00
    0.22444E-01        -0.47410E-01         0.00000E+00
    0.21695E-01        -0.45847E-01         0.00000E+00
    0.20952E-01        -0.44277E-01         0.00000E+00
    0.20214E-01        -0.42701E-01         0.00000E+00
    0.19478E-01        -0.41117E-01         0.00000E+00
    0.18745E-01        -0.39527E-01         0.00000E+00
    0.18011E-01        -0.37930E-01         0.00000E+00
    0.17277E-01        -0.36327E-01         0.00000E+00
    0.16539E-01        -0.34716E-01         0.00000E+00
    0.15797E-01        -0.33099E-01         0.00000E+00
    0.15050E-01        -0.31475E-01         0.00000E+00
    0.14297E-01        -0.29845E-01         0.00000E+00
    0.13535E-01        -0.28208E-01         0.00000E+00
    0.12763E-01        -0.26564E-01         0.00000E+00
    0.11979E-01        -0.24914E-01         0.00000E+00
    0.11182E-01        -0.23260E-01         0.00000E+00
    0.10374E-01        -0.21602E-01         0.00000E+00
    0.95560E-02        -0.19935E-01         0.00000E+00
    0.87297E-02        -0.18253E-01         0.00000E+00
    0.78944E-02        -0.16545E-01         0.00000E+00
    0.70529E-02        -0.14810E-01         0.00000E+00
    0.62068E-02        -0.13046E-01         0.00000E+00
    0.53548E-02        -0.11252E-01         0.00000E+00
    0.44955E-02        -0.94331E-02         0.00000E+00
    0.36258E-02        -0.75884E-02         0.00000E+00
    0.27426E-02        -0.57205E-02         0.00000E+00
    0.18447E-02        -0.38319E-02         0.00000E+00
    0.93080E-03        -0.19245E-02         0.00000E+00
    0.00000E+00         0.00000E+00         0.00000E+00
    0.41613E-01        -0.87138E-01         0.00000E+00
    0.40267E-01        -0.85552E-01         0.00000E+00
    0.38976E-01        -0.83965E-01         0.00000E+00
    0.37738E-01        -0.82376E-01         0.00000E+00
    0.36551E-01        -0.80785E-01         0.00000E+00
    0.35411E-01        -0.79192E-01         0.00000E+00
    0.34315E-01        -0.77595E-01         0.00000E+00
    0.33262E-01        -0.75995E-01         0.00000E+00
    0.32249E-01        -0.74390E-01         0.00000E+00
    0.31272E-01        -0.72782E-01         0.00000E+00
    0.30331E-01        -0.71168E-01         0.00000E+00
    0.29422E-01        -0.69550E-01         0.00000E+00
    0.28543E-01        -0.67927E-01         0.00000E+00
    0.27692E-01        -0.66299E-01         0.00000E+00
    0.26866E-01        -0.64666E-01         0.00000E+00
    0.26064E-01        -0.63027E-01         0.00000E+00
    0.25284E-01        -0.61383E-01         0.00000E+00
    0.24522E-01        -0.59734E-01         0.00000E+00
    0.23779E-01        -0.58078E-01         0.00000E+00
    0.23050E-01        -0.56418E-01         0.00000E+00
    0.22336E-01        -0.54752E-01         0.00000E+00
    0.21633E-01        -0.53080E-01         0.00000E+00
    0.20940E-01        -0.51402E-01         0.00000E+00
    0.20255E-01        -0.49719E-01         0.00000E+00
    0.19577E-01        -0.48031E-01         0.00000E+00
    0.18904E-01        -0.46336E-01         0.00000E+00
    0.18234E-01        -0.44636E-01         0.00000E+00
    0.17565E-01        -0.42931E-01         0.00000E+00
    0.16896E-01        -0.41219E-01         0.00000E+00
    0.16226E-01        -0.39503E-01         0.00000E+00
    0.15552E-01        -0.37780E-01         0.00000E+00
    0.14874E-01        -0.36052E-01         0.00000E+00
    0.14187E-01        -0.34317E-01         0.00000E+00
    0.13491E-01        -0.32578E-01         0.00000E+00
    0.12785E-01        -0.30834E-01         0.00000E+00
    0.12070E-01        -0.29087E-01         0.00000E+00
    0.11346E-01        -0.27328E-01         0.00000E+00
    0.10615E-01        -0.25547E-01         0.00000E+00
    0.98769E-02        -0.23738E-01         0.00000E+00
    0.91340E-02        -0.21901E-01         0.00000E+00
    0.83850E-02        -0.20034E-01         0.00000E+00
    0.76279E-02        -0.18138E-01         0.00000E+00
    0.68588E-02        -0.16214E-01         0.00000E+00
    0.60746E-02        -0.14263E-01         0.00000E+00
    0.52729E-02        -0.12287E-01         0.00000E+00
    0.44515E-02        -0.10288E-01         0.00000E+00
    0.36088E-02        -0.82666E-02         0.00000E+00
    0.27435E-02        -0.62256E-02         0.00000E+00
    0.18544E-02        -0.41662E-02         0.00000E+00
    0.94007E-03        -0.20905E-02         0.00000E+00
    0.00000E+00         0.00000E+00         0.00000E+00
    0.38263E-01        -0.94006E-01         0.00000E+00
    0.36930E-01        -0.92277E-01         0.00000E+00
    0.35661E-01        -0.90547E-01         0.00000E+00
    0.34453E-01        -0.88816E-01         0.00000E+00
    0.33302E-01        -0.87083E-01         0.00000E+00
    0.32204E-01        -0.85347E-01         0.00000E+00
    0.31157E-01        -0.83609E-01         0.00000E+00
    0.30157E-01        -0.81867E-01         0.00000E+00
    0.29202E-01        -0.80122E-01         0.00000E+00
    0.28288E-01        -0.78374E-01         0.00000E+00
    0.27412E-01        -0.76622E-01         0.00000E+00
    0.26571E-01        -0.74866E-01         0.00000E+00
    0.25763E-01        -0.73105E-01         0.00000E+00
    0.24986E-01        -0.71341E-01         0.00000E+00
    0.24236E-01        -0.69573E-01         0.00000E+00
    0.23511E-01        -0.67801E-01         0.00000E+00
    0.22808E-01        -0.66025E-01         0.00000E+00
    0.22127E-01        -0.64245E-01         0.00000E+00
    0.21463E-01        -0.62461E-01         0.00000E+00
    0.20816E-01        -0.60673E-01         0.00000E+00
    0.20183E-01        -0.58881E-01         0.00000E+00
    0.19562E-01        -0.57086E-01         0.00000E+00
    0.18951E-01        -0.55286E-01         0.00000E+00
    0.18348E-01        -0.53483E-01         0.00000E+00
    0.17752E-01        -0.51677E-01         0.00000E+00
    0.17161E-01        -0.49866E-01         0.00000E+00
    0.16574E-01        -0.48052E-01         0.00000E+00
    0.15987E-01        -0.46234E-01         0.00000E+00
    0.15401E-01        -0.44413E-01         0.00000E+00
    0.14811E-01        -0.42587E-01         0.00000E+00
    0.14217E-01        -0.40757E-01         0.00000E+00
    0.13618E-01        -0.38925E-01         0.00000E+00
    0.13014E-01        -0.37090E-01         0.00000E+00
    0.12406E-01        -0.35244E-01         0.00000E+00
    0.11793E-01        -0.33377E-01         0.00000E+00
    0.11178E-01        -0.31486E-01         0.00000E+00
    0.10561E-01        -0.29568E-01         0.00000E+00
    0.99402E-02        -0.27623E-01         0.00000E+00
    0.93112E-02        -0.25650E-01         0.00000E+00
    0.86705E-02        -0.23650E-01         0.00000E+00
    0.80148E-02        -0.21622E-01         0.00000E+00
    0.73407E-02        -0.19567E-01         0.00000E+00
    0.66456E-02        -0.17486E-01         0.00000E+00
    0.59263E-02        -0.15378E-01         0.00000E+00
    0.51803E-02        -0.13246E-01         0.00000E+00
    0.44053E-02        -0.11090E-01         0.00000E+00
    0.35988E-02        -0.89107E-02         0.00000E+00
    0.27570E-02        -0.67101E-02         0.00000E+00
    0.18780E-02        -0.44900E-02         0.00000E+00
    0.95970E-03        -0.22525E-02         0.00000E+00
    0.00000E+00         0.00000E+00         0.00000E+00
    0.33701E-01        -0.10072E+00         0.00000E+00
    0.32426E-01        -0.98841E-01         0.00000E+00
    0.31222E-01        -0.96958E-01         0.00000E+00
    0.30085E-01        -0.95074E-01         0.00000E+00
    0.29011E-01        -0.93189E-01         0.00000E+00
    0.27996E-01        -0.91301E-01         0.00000E+00
    0.27036E-01        -0.89412E-01         0.00000E+00
    0.26127E-01        -0.87520E-01         0.00000E+00
    0.25265E-01        -0.85626E-01         0.00000E+00
    0.24447E-01        -0.83729E-01         0.00000E+00
    0.23670E-01        -0.81830E-01         0.00000E+00
    0.22929E-01        -0.79929E-01         0.00000E+00
    0.22223E-01        -0.78025E-01         0.00000E+00
    0.21547E-01        -0.76118E-01         0.00000E+00
    0.20899E-01        -0.74210E-01         0.00000E+00
    0.20277E-01        -0.72300E-01         0.00000E+00
    0.19677E-01        -0.70388E-01         0.00000E+00
    0.19097E-01        -0.68474E-01         0.00000E+00
    0.18536E-01        -0.66559E-01         0.00000E+00
    0.17990E-01        -0.64642E-01         0.00000E+00
    0.17457E-01        -0.62724E-01         0.00000E+00
    0.16937E-01        -0.60805E-01         0.00000E+00
    0.16426E-01        -0.58885E-01         0.00000E+00
    0.15923E-01        -0.56963E-01         0.00000E+00
    0.15426E-01        -0.55041E-01         0.00000E+00
    0.14933E-01        -0.53117E-01         0.00000E+00
    0.14442E-01        -0.51191E-01         0.00000E+00
    0.13954E-01        -0.49264E-01         0.00000E+00
    0.13466E-01        -0.47337E-01         0.00000E+00
    0.12979E-01        -0.45410E-01         0.00000E+00
    0.12493E-01        -0.43473E-01         0.00000E+00
    0.12007E-01        -0.41522E-01         0.00000E+00
    0.11522E-01        -0.39554E-01         0.00000E+00
    0.11040E-01        -0.37566E-01         0.00000E+00
    0.10557E-01        -0.35559E-01         0.00000E+00
    0.10072E-01        -0.33529E-01         0.00000E+00
    0.95800E-02        -0.31477E-01         0.00000E+00
    0.90784E-02        -0.29401E-01         0.00000E+00
    0.85639E-02        -0.27300E-01         0.00000E+00
    0.80331E-02        -0.25174E-01         0.00000E+00
    0.74826E-02        -0.23021E-01         0.00000E+00
    0.69085E-02        -0.20840E-01         0.00000E+00
    0.63072E-02        -0.18632E-01         0.00000E+00
    0.56753E-02        -0.16395E-01         0.00000E+00
    0.50079E-02        -0.14129E-01         0.00000E+00
    0.42999E-02        -0.11834E-01         0.00000E+00
    0.35468E-02        -0.95130E-02         0.00000E+00
    0.27429E-02        -0.71665E-02         0.00000E+00
    0.18852E-02        -0.47970E-02         0.00000E+00
    0.97204E-03        -0.24069E-02         0.00000E+00
    0.00000E+00         0.00000E+00         0.00000E+00
    0.27803E-01        -0.10704E+00         0.00000E+00
    0.26639E-01        -0.10499E+00         0.00000E+00
    0.25552E-01        -0.10295E+00         0.00000E+00
    0.24537E-01        -0.10090E+00         0.00000E+00
    0.23590E-01        -0.98856E-01         0.00000E+00
    0.22705E-01        -0.96808E-01         0.00000E+00
    0.21878E-01        -0.94759E-01         0.00000E+00
    0.21105E-01        -0.92709E-01         0.00000E+00
    0.20380E-01        -0.90658E-01         0.00000E+00
    0.19699E-01        -0.88606E-01         0.00000E+00
    0.19058E-01        -0.86553E-01         0.00000E+00
    0.18453E-01        -0.84500E-01         0.00000E+00
    0.17880E-01        -0.82447E-01         0.00000E+00
    0.17337E-01        -0.80395E-01         0.00000E+00
    0.16820E-01        -0.78343E-01         0.00000E+00
    0.16326E-01        -0.76293E-01         0.00000E+00
    0.15852E-01        -0.74244E-01         0.00000E+00
    0.15397E-01        -0.72197E-01         0.00000E+00
    0.14957E-01        -0.70151E-01         0.00000E+00
    0.14531E-01        -0.68107E-01         0.00000E+00
    0.14117E-01        -0.66066E-01         0.00000E+00
    0.13713E-01        -0.64027E-01         0.00000E+00
    0.13317E-01        -0.61990E-01         0.00000E+00
    0.12928E-01        -0.59955E-01         0.00000E+00
    0.12546E-01        -0.57923E-01         0.00000E+00
    0.12169E-01        -0.55892E-01         0.00000E+00
    0.11796E-01        -0.53860E-01         0.00000E+00
    0.11427E-01        -0.51823E-01         0.00000E+00
    0.11061E-01        -0.49780E-01         0.00000E+00
    0.10701E-01        -0.47728E-01         0.00000E+00
    0.10345E-01        -0.45667E-01         0.00000E+00
    0.99930E-02        -0.43595E-01         0.00000E+00
    0.96427E-02        -0.41510E-01         0.00000E+00
    0.92918E-02        -0.39411E-01         0.00000E+00
    0.89385E-02        -0.37295E-01         0.00000E+00
    0.85805E-02        -0.35163E-01         0.00000E+00
    0.82153E-02        -0.33012E-01         0.00000E+00
    0.78400E-02        -0.30841E-01         0.00000E+00
    0.74513E-02        -0.28647E-01         0.00000E+00
    0.70459E-02        -0.26429E-01         0.00000E+00
    0.66201E-02        -0.24185E-01         0.00000E+00
    0.61699E-02        -0.21913E-01         0.00000E+00
    0.56916E-02        -0.19611E-01         0.00000E+00
    0.51796E-02        -0.17276E-01         0.00000E+00
    0.46259E-02        -0.14907E-01         0.00000E+00
    0.40231E-02        -0.12504E-01         0.00000E+00
    0.33624E-02        -0.10066E-01         0.00000E+00
    0.26379E-02        -0.75941E-02         0.00000E+00
    0.18435E-02        -0.50898E-02         0.00000E+00
    0.96606E-03        -0.25573E-02         0.00000E+00
    0.00000E+00         0.00000E+00         0.00000E+00
    0.20469E-01        -0.11266E+00         0.00000E+00
    0.19476E-01        -0.11044E+00         0.00000E+00
    0.18566E-01        -0.10823E+00         0.00000E+00
    0.17736E-01        -0.10601E+00         0.00000E+00
    0.16977E-01        -0.10378E+00         0.00000E+00
    0.16284E-01        -0.10156E+00         0.00000E+00
    0.15648E-01        -0.99339E-01         0.00000E+00
    0.15063E-01        -0.97118E-01         0.00000E+00
    0.14524E-01        -0.94901E-01         0.00000E+00
    0.14025E-01        -0.92687E-01         0.00000E+00
    0.13561E-01        -0.90477E-01         0.00000E+00
    0.13129E-01        -0.88272E-01         0.00000E+00
    0.12724E-01        -0.86071E-01         0.00000E+00
    0.12343E-01        -0.83875E-01         0.00000E+00
    0.11984E-01        -0.81685E-01         0.00000E+00
    0.11642E-01        -0.79502E-01         0.00000E+00
    0.11317E-01        -0.77324E-01         0.00000E+00
    0.11005E-01        -0.75153E-01         0.00000E+00
    0.10705E-01        -0.72988E-01         0.00000E+00
    0.10415E-01        -0.70829E-01         0.00000E+00
    0.10134E-01        -0.68675E-01         0.00000E+00
    0.98607E-02        -0.66527E-01         0.00000E+00
    0.95939E-02        -0.64382E-01         0.00000E+00
    0.93332E-02        -0.62241E-01         0.00000E+00
    0.90781E-02        -0.60102E-01         0.00000E+00
    0.88284E-02        -0.57964E-01         0.00000E+00
    0.85843E-02        -0.55826E-01         0.00000E+00
    0.83454E-02        -0.53686E-01         0.00000E+00
    0.81108E-02        -0.51543E-01         0.00000E+00
    0.78798E-02        -0.49395E-01         0.00000E+00
    0.76515E-02        -0.47240E-01         0.00000E+00
    0.74249E-02        -0.45079E-01         0.00000E+00
    0.71991E-02        -0.42909E-01         0.00000E+00
    0.69728E-02        -0.40730E-01         0.00000E+00
    0.67446E-02        -0.38539E-01         0.00000E+00
    0.65126E-02        -0.36335E-01         0.00000E+00
    0.62751E-02        -0.34117E-01         0.00000E+00
    0.60299E-02        -0.31881E-01         0.00000E+00
    0.57744E-02        -0.29627E-01         0.00000E+00
    0.55059E-02        -0.27351E-01         0.00000E+00
    0.52209E-02        -0.25050E-01         0.00000E+00
    0.49159E-02        -0.22723E-01         0.00000E+00
    0.45867E-02        -0.20365E-01         0.00000E+00
    0.42281E-02        -0.17972E-01         0.00000E+00
    0.38334E-02        -0.15542E-01         0.00000E+00
    0.33919E-02        -0.13070E-01         0.00000E+00
    0.28922E-02        -0.10552E-01         0.00000E+00
    0.23212E-02        -0.79852E-02         0.00000E+00
    0.16620E-02        -0.53681E-02         0.00000E+00
    0.88883E-03        -0.27036E-02         0.00000E+00
    0.00000E+00         0.00000E+00         0.00000E+00
    0.11516E-01        -0.11726E+00         0.00000E+00
    0.10789E-01        -0.11484E+00         0.00000E+00
    0.10170E-01        -0.11240E+00         0.00000E+00
    0.96347E-02        -0.10997E+00         0.00000E+00
    0.91657E-02        -0.10755E+00         0.00000E+00
    0.87497E-02        -0.10513E+00         0.00000E+00
    0.83774E-02        -0.10273E+00         0.00000E+00
    0.80422E-02        -0.10033E+00         0.00000E+00
    0.77391E-02        -0.97946E-01         0.00000E+00
    0.74641E-02        -0.95570E-01         0.00000E+00
    0.72142E-02        -0.93209E-01         0.00000E+00
    0.69857E-02        -0.90861E-01         0.00000E+00
    0.67748E-02        -0.88527E-01         0.00000E+00
    0.65784E-02        -0.86207E-01         0.00000E+00
    0.63942E-02        -0.83901E-01         0.00000E+00
    0.62202E-02        -0.81607E-01         0.00000E+00
    0.60551E-02        -0.79327E-01         0.00000E+00
    0.58975E-02        -0.77058E-01         0.00000E+00
    0.57464E-02        -0.74800E-01         0.00000E+00
    0.56009E-02        -0.72552E-01         0.00000E+00
    0.54604E-02        -0.70314E-01         0.00000E+00
    0.53243E-02        -0.68083E-01         0.00000E+00
    0.51923E-02        -0.65859E-01         0.00000E+00
    0.50639E-02        -0.63641E-01         0.00000E+00
    0.49390E-02        -0.61427E-01         0.00000E+00
    0.48172E-02        -0.59217E-01         0.00000E+00
    0.46984E-02        -0.57008E-01         0.00000E+00
    0.45823E-02        -0.54800E-01         0.00000E+00
    0.44686E-02        -0.52592E-01         0.00000E+00
    0.43569E-02        -0.50382E-01         0.00000E+00
    0.42468E-02        -0.48170E-01         0.00000E+00
    0.41376E-02        -0.45953E-01         0.00000E+00
    0.40288E-02        -0.43731E-01         0.00000E+00
    0.39198E-02        -0.41502E-01         0.00000E+00
    0.38099E-02        -0.39265E-01         0.00000E+00
    0.36983E-02        -0.37018E-01         0.00000E+00
    0.35841E-02        -0.34759E-01         0.00000E+00
    0.34661E-02        -0.32486E-01         0.00000E+00
    0.33429E-02        -0.30198E-01         0.00000E+00
    0.32130E-02        -0.27891E-01         0.00000E+00
    0.30744E-02        -0.25563E-01         0.00000E+00
    0.29248E-02        -0.23210E-01         0.00000E+00
    0.27613E-02        -0.20828E-01         0.00000E+00
    0.25805E-02        -0.18414E-01         0.00000E+00
    0.23782E-02        -0.15962E-01         0.00000E+00
    0.21482E-02        -0.13464E-01         0.00000E+00
    0.18815E-02        -0.10915E-01         0.00000E+00
    0.15633E-02        -0.83045E-02         0.00000E+00
    0.11728E-02        -0.56226E-02         0.00000E+00
    0.67496E-03        -0.28575E-02         0.00000E+00
    0.00000E+00         0.00000E+00         0.00000E+00
    0.00000E+00        -0.11961E+00         0.00000E+00
    0.00000E+00        -0.11696E+00         0.00000E+00
    0.00000E+00        -0.11433E+00         0.00000E+00
    0.00000E+00        -0.11173E+00         0.00000E+00
    0.00000E+00        -0.10915E+00         0.00000E+00
    0.00000E+00        -0.10661E+00         0.00000E+00
    0.00000E+00        -0.10410E+00         0.00000E+00
    0.00000E+00        -0.10161E+00         0.00000E+00
    0.00000E+00        -0.99136E-01         0.00000E+00
    0.00000E+00        -0.96679E-01         0.00000E+00
    0.00000E+00        -0.94239E-01         0.00000E+00
    0.00000E+00        -0.91821E-01         0.00000E+00
    0.00000E+00        -0.89425E-01         0.00000E+00
    0.00000E+00        -0.87049E-01         0.00000E+00
    0.00000E+00        -0.84691E-01         0.00000E+00
    0.00000E+00        -0.82352E-01         0.00000E+00
    0.00000E+00        -0.80028E-01         0.00000E+00
    0.00000E+00        -0.77720E-01         0.00000E+00
    0.00000E+00        -0.75425E-01         0.00000E+00
    0.00000E+00        -0.73143E-01         0.00000E+00
    0.00000E+00        -0.70871E-01         0.00000E+00
    0.00000E+00        -0.68609E-01         0.00000E+00
    0.00000E+00        -0.66356E-01         0.00000E+00
    0.00000E+00        -0.64109E-01         0.00000E+00
    0.00000E+00        -0.61868E-01         0.00000E+00
    0.00000E+00        -0.59632E-01         0.00000E+00
    0.00000E+00        -0.57399E-01         0.00000E+00
    0.00000E+00        -0.55168E-01         0.00000E+00
    0.00000E+00        -0.52937E-01         0.00000E+00
    0.00000E+00        -0.50706E-01         0.00000E+00
    0.00000E+00        -0.48473E-01         0.00000E+00
    0.00000E+00        -0.46238E-01         0.00000E+00
    0.00000E+00        -0.43998E-01         0.00000E+00
    0.00000E+00        -0.41752E-01         0.00000E+00
    0.00000E+00        -0.39499E-01         0.00000E+00
    0.00000E+00        -0.37238E-01         0.00000E+00
    0.00000E+00        -0.34966E-01         0.00000E+00
    0.00000E+00        -0.32681E-01         0.00000E+00
    0.00000E+00        -0.30382E-01         0.00000E+00
    0.00000E+00        -0.28066E-01         0.00000E+00
    0.00000E+00        -0.25730E-01         0.00000E+00
    0.00000E+00        -0.23371E-01         0.00000E+00
    0.00000E+00        -0.20986E-01         0.00000E+00
    0.00000E+00        -0.18569E-01         0.00000E+00
    0.00000E+00        -0.16115E-01         0.00000E+00
    0.00000E+00        -0.13618E-01         0.00000E+00
    0.00000E+00        -0.11068E-01         0.00000E+00
    0.00000E+00        -0.84541E-02         0.00000E+00
    0.00000E+00        -0.57576E-02         0.00000E+00
    0.00000E+00        -0.29530E-02         0.00000E+00
    0.00000E+00         0.00000E+00         0.00000E+00
CELL_DATA       5000
VECTORS vDarcy double 
    0.14639E-06        -0.37771E-10         0.00000E+00
    0.14642E-06        -0.87970E-10         0.00000E+00
    0.14646E-06        -0.12665E-09         0.00000E+00
    0.14652E-06        -0.16524E-09         0.00000E+00
    0.14659E-06        -0.19237E-09         0.00000E+00
    0.14667E-06        -0.19494E-09         0.00000E+00
    0.14674E-06        -0.17326E-09         0.00000E+00
    0.14680E-06        -0.13892E-09         0.00000E+00
    0.14685E-06        -0.99518E-10         0.00000E+00
    0.14688E-06        -0.57195E-10         0.00000E+00
    0.14690E-06        -0.13061E-10         0.00000E+00
    0.14689E-06         0.30885E-10         0.00000E+00
    0.14687E-06         0.72318E-10         0.00000E+00
    0.14684E-06         0.11056E-09         0.00000E+00
    0.14679E-06         0.14436E-09         0.00000E+00
    0.14672E-06         0.17212E-09         0.00000E+00
    0.14665E-06         0.19389E-09         0.00000E+00
    0.14657E-06         0.21003E-09         0.00000E+00
    0.14648E-06         0.21982E-09         0.00000E+00
    0.14639E-06         0.22217E-09         0.00000E+00
    0.14631E-06         0.21813E-09         0.00000E+00
    0.14622E-06         0.20924E-09         0.00000E+00
    0.14614E-06         0.18976E-09         0.00000E+00
    0.14607E-06         0.15584E-09         0.00000E+00
    0.14602E-06         0.11153E-09         0.00000E+00
    0.14598E-06         0.59046E-10         0.00000E+00
    0.14597E-06        -0.69010E-11         0.00000E+00
    0.14599E-06        -0.90452E-10         0.00000E+00
    0.14605E-06        -0.18872E-09         0.00000E+00
    0.14615E-06        -0.29889E-09         0.00000E+00
    0.14629E-06        -0.41837E-09         0.00000E+00
    0.14648E-06        -0.54457E-09         0.00000E+00
    0.14673E-06        -0.67477E-09         0.00000E+00
    0.14702E-06        -0.80613E-09         0.00000E+00
    0.14737E-06        -0.93568E-09         0.00000E+00
    0.14777E-06        -0.10604E-08         0.00000E+00
    0.14822E-06        -0.11769E-08         0.00000E+00
    0.14871E-06        -0.12818E-08         0.00000E+00
    0.14924E-06        -0.13709E-08         0.00000E+00
    0.14980E-06        -0.14391E-08         0.00000E+00
    0.15039E-06        -0.14800E-08         0.00000E+00
    0.15098E-06        -0.14848E-08         0.00000E+00
    0.15156E-06        -0.14417E-08         0.00000E+00
    0.15212E-06        -0.13347E-08         0.00000E+00
    0.15261E-06        -0.11414E-08         0.00000E+00
    0.15301E-06        -0.84056E-09         0.00000E+00
    0.15328E-06        -0.50445E-09         0.00000E+00
    0.15342E-06        -0.22389E-09         0.00000E+00
    0.15348E-06        -0.30546E-10         0.00000E+00
    0.15348E-06         0.18889E-10         0.00000E+00
    0.14354E-06         0.11271E-09         0.00000E+00
    0.14342E-06         0.25772E-09         0.00000E+00
    0.14322E-06         0.29624E-09         0.00000E+00
    0.14299E-06         0.27424E-09         0.00000E+00
    0.14275E-06         0.23486E-09         0.00000E+00
    0.14250E-06         0.20865E-09         0.00000E+00
    0.14227E-06         0.20536E-09         0.00000E+00
    0.14206E-06         0.22061E-09         0.00000E+00
    0.14187E-06         0.24902E-09         0.00000E+00
    0.14170E-06         0.28816E-09         0.00000E+00
    0.14155E-06         0.33636E-09         0.00000E+00
    0.14141E-06         0.39153E-09         0.00000E+00
    0.14129E-06         0.45175E-09         0.00000E+00
    0.14117E-06         0.51035E-09         0.00000E+00
    0.14105E-06         0.55960E-09         0.00000E+00
    0.14095E-06         0.59768E-09         0.00000E+00
    0.14085E-06         0.62519E-09         0.00000E+00
    0.14076E-06         0.64359E-09         0.00000E+00
    0.14067E-06         0.64897E-09         0.00000E+00
    0.14059E-06         0.63480E-09         0.00000E+00
    0.14052E-06         0.60113E-09         0.00000E+00
    0.14046E-06         0.54966E-09         0.00000E+00
    0.14042E-06         0.47410E-09         0.00000E+00
    0.14039E-06         0.36984E-09         0.00000E+00
    0.14037E-06         0.23995E-09         0.00000E+00
    0.14037E-06         0.85904E-10         0.00000E+00
    0.14040E-06        -0.96700E-10         0.00000E+00
    0.14044E-06        -0.31112E-09         0.00000E+00
    0.14050E-06        -0.55461E-09         0.00000E+00
    0.14058E-06        -0.82373E-09         0.00000E+00
    0.14068E-06        -0.11145E-08         0.00000E+00
    0.14080E-06        -0.14220E-08         0.00000E+00
    0.14095E-06        -0.17402E-08         0.00000E+00
    0.14112E-06        -0.20621E-08         0.00000E+00
    0.14131E-06        -0.23797E-08         0.00000E+00
    0.14152E-06        -0.26841E-08         0.00000E+00
    0.14176E-06        -0.29660E-08         0.00000E+00
    0.14201E-06        -0.32154E-08         0.00000E+00
    0.14228E-06        -0.34212E-08         0.00000E+00
    0.14255E-06        -0.35711E-08         0.00000E+00
    0.14283E-06        -0.36497E-08         0.00000E+00
    0.14310E-06        -0.36379E-08         0.00000E+00
    0.14336E-06        -0.35115E-08         0.00000E+00
    0.14360E-06        -0.32389E-08         0.00000E+00
    0.14381E-06        -0.27789E-08         0.00000E+00
    0.14399E-06        -0.20893E-08         0.00000E+00
    0.14414E-06        -0.13287E-08         0.00000E+00
    0.14425E-06        -0.69720E-09         0.00000E+00
    0.14434E-06        -0.24561E-09         0.00000E+00
    0.14439E-06        -0.35989E-10         0.00000E+00
    0.13434E-06         0.23419E-09         0.00000E+00
    0.13438E-06         0.57154E-09         0.00000E+00
    0.13442E-06         0.75535E-09         0.00000E+00
    0.13445E-06         0.84615E-09         0.00000E+00
    0.13445E-06         0.88340E-09         0.00000E+00
    0.13443E-06         0.89205E-09         0.00000E+00
    0.13438E-06         0.88834E-09         0.00000E+00
    0.13432E-06         0.88367E-09         0.00000E+00
    0.13425E-06         0.88329E-09         0.00000E+00
    0.13418E-06         0.88898E-09         0.00000E+00
    0.13410E-06         0.90109E-09         0.00000E+00
    0.13402E-06         0.91953E-09         0.00000E+00
    0.13394E-06         0.94379E-09         0.00000E+00
    0.13387E-06         0.96678E-09         0.00000E+00
    0.13381E-06         0.98095E-09         0.00000E+00
    0.13375E-06         0.98478E-09         0.00000E+00
    0.13370E-06         0.97775E-09         0.00000E+00
    0.13366E-06         0.95956E-09         0.00000E+00
    0.13363E-06         0.92615E-09         0.00000E+00
    0.13360E-06         0.87163E-09         0.00000E+00
    0.13359E-06         0.79376E-09         0.00000E+00
    0.13358E-06         0.69154E-09         0.00000E+00
    0.13358E-06         0.56356E-09         0.00000E+00
    0.13358E-06         0.40842E-09         0.00000E+00
    0.13359E-06         0.22473E-09         0.00000E+00
    0.13361E-06         0.11462E-10         0.00000E+00
    0.13363E-06        -0.23095E-09         0.00000E+00
    0.13365E-06        -0.50192E-09         0.00000E+00
    0.13368E-06        -0.80146E-09         0.00000E+00
    0.13371E-06        -0.11287E-08         0.00000E+00
    0.13374E-06        -0.14818E-08         0.00000E+00
    0.13378E-06        -0.18575E-08         0.00000E+00
    0.13382E-06        -0.22505E-08         0.00000E+00
    0.13388E-06        -0.26535E-08         0.00000E+00
    0.13394E-06        -0.30564E-08         0.00000E+00
    0.13401E-06        -0.34463E-08         0.00000E+00
    0.13410E-06        -0.38086E-08         0.00000E+00
    0.13419E-06        -0.41278E-08         0.00000E+00
    0.13430E-06        -0.43867E-08         0.00000E+00
    0.13442E-06        -0.45684E-08         0.00000E+00
    0.13455E-06        -0.46550E-08         0.00000E+00
    0.13467E-06        -0.46261E-08         0.00000E+00
    0.13480E-06        -0.44588E-08         0.00000E+00
    0.13493E-06        -0.41265E-08         0.00000E+00
    0.13506E-06        -0.35982E-08         0.00000E+00
    0.13519E-06        -0.28388E-08         0.00000E+00
    0.13532E-06        -0.19499E-08         0.00000E+00
    0.13542E-06        -0.11532E-08         0.00000E+00
    0.13549E-06        -0.55451E-09         0.00000E+00
    0.13552E-06        -0.15192E-09         0.00000E+00
    0.12513E-06         0.85815E-10         0.00000E+00
    0.12519E-06         0.25677E-09         0.00000E+00
    0.12528E-06         0.41554E-09         0.00000E+00
    0.12538E-06         0.55319E-09         0.00000E+00
    0.12548E-06         0.66981E-09         0.00000E+00
    0.12557E-06         0.76623E-09         0.00000E+00
    0.12565E-06         0.84529E-09         0.00000E+00
    0.12571E-06         0.90997E-09         0.00000E+00
    0.12576E-06         0.96299E-09         0.00000E+00
    0.12579E-06         0.10065E-08         0.00000E+00
    0.12582E-06         0.10416E-08         0.00000E+00
    0.12584E-06         0.10683E-08         0.00000E+00
    0.12586E-06         0.10857E-08         0.00000E+00
    0.12588E-06         0.10923E-08         0.00000E+00
    0.12590E-06         0.10875E-08         0.00000E+00
    0.12592E-06         0.10717E-08         0.00000E+00
    0.12593E-06         0.10436E-08         0.00000E+00
    0.12595E-06         0.10005E-08         0.00000E+00
    0.12598E-06         0.94046E-09         0.00000E+00
    0.12600E-06         0.86232E-09         0.00000E+00
    0.12602E-06         0.76435E-09         0.00000E+00
    0.12604E-06         0.64496E-09         0.00000E+00
    0.12607E-06         0.50297E-09         0.00000E+00
    0.12609E-06         0.33740E-09         0.00000E+00
    0.12611E-06         0.14755E-09         0.00000E+00
    0.12612E-06        -0.67164E-10         0.00000E+00
    0.12614E-06        -0.30738E-09         0.00000E+00
    0.12614E-06        -0.57355E-09         0.00000E+00
    0.12614E-06        -0.86576E-09         0.00000E+00
    0.12614E-06        -0.11839E-08         0.00000E+00
    0.12612E-06        -0.15277E-08         0.00000E+00
    0.12610E-06        -0.18960E-08         0.00000E+00
    0.12607E-06        -0.22868E-08         0.00000E+00
    0.12604E-06        -0.26967E-08         0.00000E+00
    0.12600E-06        -0.31195E-08         0.00000E+00
    0.12595E-06        -0.35455E-08         0.00000E+00
    0.12592E-06        -0.39572E-08         0.00000E+00
    0.12589E-06        -0.43321E-08         0.00000E+00
    0.12588E-06        -0.46490E-08         0.00000E+00
    0.12587E-06        -0.48848E-08         0.00000E+00
    0.12588E-06        -0.50153E-08         0.00000E+00
    0.12591E-06        -0.50204E-08         0.00000E+00
    0.12594E-06        -0.48812E-08         0.00000E+00
    0.12599E-06        -0.45811E-08         0.00000E+00
    0.12606E-06        -0.41050E-08         0.00000E+00
    0.12614E-06        -0.34376E-08         0.00000E+00
    0.12626E-06        -0.25918E-08         0.00000E+00
    0.12640E-06        -0.16875E-08         0.00000E+00
    0.12650E-06        -0.88303E-09         0.00000E+00
    0.12656E-06        -0.25938E-09         0.00000E+00
    0.11738E-06         0.16022E-10         0.00000E+00
    0.11737E-06         0.76178E-10         0.00000E+00
    0.11737E-06         0.16455E-09         0.00000E+00
    0.11737E-06         0.26855E-09         0.00000E+00
    0.11739E-06         0.37873E-09         0.00000E+00
    0.11741E-06         0.48666E-09         0.00000E+00
    0.11744E-06         0.58716E-09         0.00000E+00
    0.11748E-06         0.67727E-09         0.00000E+00
    0.11752E-06         0.75539E-09         0.00000E+00
    0.11756E-06         0.82063E-09         0.00000E+00
    0.11760E-06         0.87248E-09         0.00000E+00
    0.11764E-06         0.91057E-09         0.00000E+00
    0.11769E-06         0.93458E-09         0.00000E+00
    0.11773E-06         0.94400E-09         0.00000E+00
    0.11777E-06         0.93939E-09         0.00000E+00
    0.11781E-06         0.92225E-09         0.00000E+00
    0.11785E-06         0.89220E-09         0.00000E+00
    0.11789E-06         0.84767E-09         0.00000E+00
    0.11793E-06         0.78743E-09         0.00000E+00
    0.11797E-06         0.71039E-09         0.00000E+00
    0.11801E-06         0.61584E-09         0.00000E+00
    0.11805E-06         0.50316E-09         0.00000E+00
    0.11808E-06         0.37183E-09         0.00000E+00
    0.11811E-06         0.22141E-09         0.00000E+00
    0.11813E-06         0.51490E-10         0.00000E+00
    0.11815E-06        -0.13825E-09         0.00000E+00
    0.11816E-06        -0.34804E-09         0.00000E+00
    0.11816E-06        -0.57805E-09         0.00000E+00
    0.11815E-06        -0.82843E-09         0.00000E+00
    0.11813E-06        -0.10993E-08         0.00000E+00
    0.11810E-06        -0.13906E-08         0.00000E+00
    0.11806E-06        -0.17024E-08         0.00000E+00
    0.11800E-06        -0.20347E-08         0.00000E+00
    0.11792E-06        -0.23875E-08         0.00000E+00
    0.11783E-06        -0.27608E-08         0.00000E+00
    0.11772E-06        -0.31533E-08         0.00000E+00
    0.11760E-06        -0.35536E-08         0.00000E+00
    0.11747E-06        -0.39486E-08         0.00000E+00
    0.11734E-06        -0.43116E-08         0.00000E+00
    0.11722E-06        -0.46107E-08         0.00000E+00
    0.11711E-06        -0.48201E-08         0.00000E+00
    0.11703E-06        -0.49100E-08         0.00000E+00
    0.11697E-06        -0.48612E-08         0.00000E+00
    0.11693E-06        -0.46597E-08         0.00000E+00
    0.11692E-06        -0.42950E-08         0.00000E+00
    0.11694E-06        -0.37671E-08         0.00000E+00
    0.11698E-06        -0.30790E-08         0.00000E+00
    0.11705E-06        -0.22444E-08         0.00000E+00
    0.11715E-06        -0.13347E-08         0.00000E+00
    0.11722E-06        -0.43762E-09         0.00000E+00
    0.10937E-06         0.39171E-10         0.00000E+00
    0.10937E-06         0.11588E-09         0.00000E+00
    0.10936E-06         0.19194E-09         0.00000E+00
    0.10935E-06         0.26840E-09         0.00000E+00
    0.10934E-06         0.34437E-09         0.00000E+00
    0.10933E-06         0.41845E-09         0.00000E+00
    0.10934E-06         0.48874E-09         0.00000E+00
    0.10935E-06         0.55334E-09         0.00000E+00
    0.10936E-06         0.61059E-09         0.00000E+00
    0.10938E-06         0.65912E-09         0.00000E+00
    0.10941E-06         0.69788E-09         0.00000E+00
    0.10943E-06         0.72606E-09         0.00000E+00
    0.10947E-06         0.74307E-09         0.00000E+00
    0.10950E-06         0.74857E-09         0.00000E+00
    0.10954E-06         0.74232E-09         0.00000E+00
    0.10958E-06         0.72402E-09         0.00000E+00
    0.10961E-06         0.69331E-09         0.00000E+00
    0.10965E-06         0.64982E-09         0.00000E+00
    0.10969E-06         0.59310E-09         0.00000E+00
    0.10973E-06         0.52280E-09         0.00000E+00
    0.10976E-06         0.43854E-09         0.00000E+00
    0.10980E-06         0.34003E-09         0.00000E+00
    0.10983E-06         0.22704E-09         0.00000E+00
    0.10985E-06         0.99425E-10         0.00000E+00
    0.10987E-06        -0.42902E-10         0.00000E+00
    0.10989E-06        -0.19995E-09         0.00000E+00
    0.10989E-06        -0.37170E-09         0.00000E+00
    0.10989E-06        -0.55803E-09         0.00000E+00
    0.10988E-06        -0.75878E-09         0.00000E+00
    0.10986E-06        -0.97374E-09         0.00000E+00
    0.10983E-06        -0.12027E-08         0.00000E+00
    0.10978E-06        -0.14454E-08         0.00000E+00
    0.10973E-06        -0.17016E-08         0.00000E+00
    0.10965E-06        -0.19714E-08         0.00000E+00
    0.10956E-06        -0.22550E-08         0.00000E+00
    0.10945E-06        -0.25527E-08         0.00000E+00
    0.10931E-06        -0.28618E-08         0.00000E+00
    0.10915E-06        -0.31811E-08         0.00000E+00
    0.10896E-06        -0.34946E-08         0.00000E+00
    0.10875E-06        -0.37859E-08         0.00000E+00
    0.10854E-06        -0.40382E-08         0.00000E+00
    0.10833E-06        -0.42274E-08         0.00000E+00
    0.10815E-06        -0.43150E-08         0.00000E+00
    0.10799E-06        -0.42646E-08         0.00000E+00
    0.10788E-06        -0.40590E-08         0.00000E+00
    0.10780E-06        -0.36837E-08         0.00000E+00
    0.10775E-06        -0.31419E-08         0.00000E+00
    0.10773E-06        -0.24372E-08         0.00000E+00
    0.10772E-06        -0.15707E-08         0.00000E+00
    0.10771E-06        -0.54957E-09         0.00000E+00
    0.10114E-06         0.51454E-10         0.00000E+00
    0.10114E-06         0.14418E-09         0.00000E+00
    0.10114E-06         0.22424E-09         0.00000E+00
    0.10113E-06         0.29414E-09         0.00000E+00
    0.10114E-06         0.35569E-09         0.00000E+00
    0.10114E-06         0.40990E-09         0.00000E+00
    0.10114E-06         0.45728E-09         0.00000E+00
    0.10115E-06         0.49796E-09         0.00000E+00
    0.10116E-06         0.53182E-09         0.00000E+00
    0.10118E-06         0.55854E-09         0.00000E+00
    0.10120E-06         0.57777E-09         0.00000E+00
    0.10122E-06         0.58910E-09         0.00000E+00
    0.10125E-06         0.59216E-09         0.00000E+00
    0.10128E-06         0.58659E-09         0.00000E+00
    0.10131E-06         0.57203E-09         0.00000E+00
    0.10134E-06         0.54821E-09         0.00000E+00
    0.10137E-06         0.51485E-09         0.00000E+00
    0.10140E-06         0.47173E-09         0.00000E+00
    0.10143E-06         0.41863E-09         0.00000E+00
    0.10147E-06         0.35537E-09         0.00000E+00
    0.10149E-06         0.28182E-09         0.00000E+00
    0.10152E-06         0.19790E-09         0.00000E+00
    0.10155E-06         0.10355E-09         0.00000E+00
    0.10156E-06        -0.11987E-11         0.00000E+00
    0.10158E-06        -0.11628E-09         0.00000E+00
    0.10159E-06        -0.24154E-09         0.00000E+00
    0.10159E-06        -0.37679E-09         0.00000E+00
    0.10159E-06        -0.52173E-09         0.00000E+00
    0.10157E-06        -0.67601E-09         0.00000E+00
    0.10155E-06        -0.83919E-09         0.00000E+00
    0.10152E-06        -0.10107E-08         0.00000E+00
    0.10147E-06        -0.11900E-08         0.00000E+00
    0.10141E-06        -0.13762E-08         0.00000E+00
    0.10134E-06        -0.15683E-08         0.00000E+00
    0.10125E-06        -0.17649E-08         0.00000E+00
    0.10115E-06        -0.19643E-08         0.00000E+00
    0.10103E-06        -0.21648E-08         0.00000E+00
    0.10089E-06        -0.23641E-08         0.00000E+00
    0.10073E-06        -0.25601E-08         0.00000E+00
    0.10054E-06        -0.27521E-08         0.00000E+00
    0.10033E-06        -0.29327E-08         0.00000E+00
    0.10009E-06        -0.30960E-08         0.00000E+00
    0.99827E-07        -0.32136E-08         0.00000E+00
    0.99558E-07        -0.32588E-08         0.00000E+00
    0.99303E-07        -0.32102E-08         0.00000E+00
    0.99084E-07        -0.30391E-08         0.00000E+00
    0.98916E-07        -0.27082E-08         0.00000E+00
    0.98803E-07        -0.21851E-08         0.00000E+00
    0.98740E-07        -0.14590E-08         0.00000E+00
    0.98714E-07        -0.52165E-09         0.00000E+00
    0.92967E-07         0.49011E-10         0.00000E+00
    0.92970E-07         0.13710E-09         0.00000E+00
    0.92975E-07         0.21145E-09         0.00000E+00
    0.92983E-07         0.27375E-09         0.00000E+00
    0.92993E-07         0.32546E-09         0.00000E+00
    0.93005E-07         0.36781E-09         0.00000E+00
    0.93019E-07         0.40176E-09         0.00000E+00
    0.93036E-07         0.42804E-09         0.00000E+00
    0.93054E-07         0.44714E-09         0.00000E+00
    0.93075E-07         0.45940E-09         0.00000E+00
    0.93098E-07         0.46501E-09         0.00000E+00
    0.93123E-07         0.46405E-09         0.00000E+00
    0.93150E-07         0.45654E-09         0.00000E+00
    0.93177E-07         0.44242E-09         0.00000E+00
    0.93206E-07         0.42165E-09         0.00000E+00
    0.93236E-07         0.39413E-09         0.00000E+00
    0.93265E-07         0.35977E-09         0.00000E+00
    0.93294E-07         0.31851E-09         0.00000E+00
    0.93322E-07         0.27029E-09         0.00000E+00
    0.93349E-07         0.21510E-09         0.00000E+00
    0.93373E-07         0.15292E-09         0.00000E+00
    0.93395E-07         0.83815E-10         0.00000E+00
    0.93413E-07         0.78580E-11         0.00000E+00
    0.93428E-07        -0.74809E-10         0.00000E+00
    0.93437E-07        -0.16399E-09         0.00000E+00
    0.93441E-07        -0.25943E-09         0.00000E+00
    0.93440E-07        -0.36080E-09         0.00000E+00
    0.93431E-07        -0.46768E-09         0.00000E+00
    0.93414E-07        -0.57958E-09         0.00000E+00
    0.93389E-07        -0.69590E-09         0.00000E+00
    0.93355E-07        -0.81590E-09         0.00000E+00
    0.93311E-07        -0.93872E-09         0.00000E+00
    0.93256E-07        -0.10634E-08         0.00000E+00
    0.93189E-07        -0.11886E-08         0.00000E+00
    0.93110E-07        -0.13131E-08         0.00000E+00
    0.93017E-07        -0.14353E-08         0.00000E+00
    0.92911E-07        -0.15533E-08         0.00000E+00
    0.92789E-07        -0.16649E-08         0.00000E+00
    0.92653E-07        -0.17674E-08         0.00000E+00
    0.92500E-07        -0.18571E-08         0.00000E+00
    0.92333E-07        -0.19312E-08         0.00000E+00
    0.92150E-07        -0.19863E-08         0.00000E+00
    0.91952E-07        -0.20196E-08         0.00000E+00
    0.91736E-07        -0.20285E-08         0.00000E+00
    0.91503E-07        -0.20004E-08         0.00000E+00
    0.91257E-07        -0.19207E-08         0.00000E+00
    0.91010E-07        -0.17533E-08         0.00000E+00
    0.90788E-07        -0.14653E-08         0.00000E+00
    0.90621E-07        -0.10257E-08         0.00000E+00
    0.90531E-07        -0.37932E-09         0.00000E+00
    0.85079E-07         0.39269E-10         0.00000E+00
    0.85084E-07         0.10939E-09         0.00000E+00
    0.85093E-07         0.16796E-09         0.00000E+00
    0.85105E-07         0.21616E-09         0.00000E+00
    0.85121E-07         0.25502E-09         0.00000E+00
    0.85140E-07         0.28545E-09         0.00000E+00
    0.85160E-07         0.30823E-09         0.00000E+00
    0.85183E-07         0.32401E-09         0.00000E+00
    0.85208E-07         0.33335E-09         0.00000E+00
    0.85235E-07         0.33671E-09         0.00000E+00
    0.85262E-07         0.33445E-09         0.00000E+00
    0.85291E-07         0.32684E-09         0.00000E+00
    0.85320E-07         0.31411E-09         0.00000E+00
    0.85350E-07         0.29642E-09         0.00000E+00
    0.85380E-07         0.27390E-09         0.00000E+00
    0.85410E-07         0.24665E-09         0.00000E+00
    0.85439E-07         0.21476E-09         0.00000E+00
    0.85467E-07         0.17831E-09         0.00000E+00
    0.85494E-07         0.13739E-09         0.00000E+00
    0.85518E-07         0.92089E-10         0.00000E+00
    0.85540E-07         0.42535E-10         0.00000E+00
    0.85560E-07        -0.11126E-10         0.00000E+00
    0.85576E-07        -0.68712E-10         0.00000E+00
    0.85588E-07        -0.13000E-09         0.00000E+00
    0.85595E-07        -0.19472E-09         0.00000E+00
    0.85598E-07        -0.26256E-09         0.00000E+00
    0.85595E-07        -0.33311E-09         0.00000E+00
    0.85586E-07        -0.40593E-09         0.00000E+00
    0.85570E-07        -0.48048E-09         0.00000E+00
    0.85547E-07        -0.55616E-09         0.00000E+00
    0.85517E-07        -0.63224E-09         0.00000E+00
    0.85478E-07        -0.70792E-09         0.00000E+00
    0.85431E-07        -0.78225E-09         0.00000E+00
    0.85374E-07        -0.85421E-09         0.00000E+00
    0.85309E-07        -0.92257E-09         0.00000E+00
    0.85233E-07        -0.98600E-09         0.00000E+00
    0.85148E-07        -0.10430E-08         0.00000E+00
    0.85052E-07        -0.10919E-08         0.00000E+00
    0.84947E-07        -0.11309E-08         0.00000E+00
    0.84833E-07        -0.11583E-08         0.00000E+00
    0.84708E-07        -0.11717E-08         0.00000E+00
    0.84576E-07        -0.11687E-08         0.00000E+00
    0.84436E-07        -0.11460E-08         0.00000E+00
    0.84291E-07        -0.11000E-08         0.00000E+00
    0.84144E-07        -0.10288E-08         0.00000E+00
    0.83998E-07        -0.93031E-09         0.00000E+00
    0.83857E-07        -0.80271E-09         0.00000E+00
    0.83724E-07        -0.64309E-09         0.00000E+00
    0.83609E-07        -0.43837E-09         0.00000E+00
    0.83538E-07        -0.15963E-09         0.00000E+00
    0.77616E-07         0.25666E-10         0.00000E+00
    0.77622E-07         0.71264E-10         0.00000E+00
    0.77632E-07         0.10874E-09         0.00000E+00
    0.77647E-07         0.13877E-09         0.00000E+00
    0.77665E-07         0.16196E-09         0.00000E+00
    0.77686E-07         0.17891E-09         0.00000E+00
    0.77710E-07         0.19015E-09         0.00000E+00
    0.77737E-07         0.19615E-09         0.00000E+00
    0.77765E-07         0.19734E-09         0.00000E+00
    0.77794E-07         0.19409E-09         0.00000E+00
    0.77824E-07         0.18674E-09         0.00000E+00
    0.77855E-07         0.17557E-09         0.00000E+00
    0.77887E-07         0.16084E-09         0.00000E+00
    0.77918E-07         0.14277E-09         0.00000E+00
    0.77950E-07         0.12155E-09         0.00000E+00
    0.77980E-07         0.97371E-10         0.00000E+00
    0.78010E-07         0.70389E-10         0.00000E+00
    0.78038E-07         0.40767E-10         0.00000E+00
    0.78065E-07         0.86686E-11         0.00000E+00
    0.78090E-07        -0.25739E-10         0.00000E+00
    0.78112E-07        -0.62275E-10         0.00000E+00
    0.78132E-07        -0.10074E-09         0.00000E+00
    0.78148E-07        -0.14091E-09         0.00000E+00
    0.78161E-07        -0.18254E-09         0.00000E+00
    0.78170E-07        -0.22535E-09         0.00000E+00
    0.78175E-07        -0.26900E-09         0.00000E+00
    0.78175E-07        -0.31314E-09         0.00000E+00
    0.78171E-07        -0.35737E-09         0.00000E+00
    0.78161E-07        -0.40121E-09         0.00000E+00
    0.78145E-07        -0.44416E-09         0.00000E+00
    0.78124E-07        -0.48565E-09         0.00000E+00
    0.78097E-07        -0.52505E-09         0.00000E+00
    0.78063E-07        -0.56168E-09         0.00000E+00
    0.78024E-07        -0.59477E-09         0.00000E+00
    0.77978E-07        -0.62354E-09         0.00000E+00
    0.77926E-07        -0.64714E-09         0.00000E+00
    0.77868E-07        -0.66464E-09         0.00000E+00
    0.77804E-07        -0.67513E-09         0.00000E+00
    0.77735E-07        -0.67761E-09         0.00000E+00
    0.77662E-07        -0.67106E-09         0.00000E+00
    0.77585E-07        -0.65454E-09         0.00000E+00
    0.77506E-07        -0.62722E-09         0.00000E+00
    0.77426E-07        -0.58852E-09         0.00000E+00
    0.77347E-07        -0.53831E-09         0.00000E+00
    0.77271E-07        -0.47618E-09         0.00000E+00
    0.77201E-07        -0.40236E-09         0.00000E+00
    0.77140E-07        -0.31737E-09         0.00000E+00
    0.77091E-07        -0.22321E-09         0.00000E+00
    0.77060E-07        -0.12658E-09         0.00000E+00
    0.77045E-07        -0.38197E-10         0.00000E+00
    0.70662E-07         0.11246E-10         0.00000E+00
    0.70668E-07         0.30460E-10         0.00000E+00
    0.70678E-07         0.45021E-10         0.00000E+00
    0.70693E-07         0.55254E-10         0.00000E+00
    0.70712E-07         0.61480E-10         0.00000E+00
    0.70733E-07         0.64013E-10         0.00000E+00
    0.70758E-07         0.63157E-10         0.00000E+00
    0.70784E-07         0.59200E-10         0.00000E+00
    0.70813E-07         0.52415E-10         0.00000E+00
    0.70843E-07         0.43054E-10         0.00000E+00
    0.70873E-07         0.31354E-10         0.00000E+00
    0.70905E-07         0.17535E-10         0.00000E+00
    0.70937E-07         0.18007E-11         0.00000E+00
    0.70969E-07        -0.15657E-10         0.00000E+00
    0.71001E-07        -0.34659E-10         0.00000E+00
    0.71032E-07        -0.55033E-10         0.00000E+00
    0.71062E-07        -0.76612E-10         0.00000E+00
    0.71091E-07        -0.99232E-10         0.00000E+00
    0.71118E-07        -0.12272E-09         0.00000E+00
    0.71144E-07        -0.14692E-09         0.00000E+00
    0.71168E-07        -0.17164E-09         0.00000E+00
    0.71190E-07        -0.19670E-09         0.00000E+00
    0.71209E-07        -0.22190E-09         0.00000E+00
    0.71225E-07        -0.24701E-09         0.00000E+00
    0.71238E-07        -0.27180E-09         0.00000E+00
    0.71248E-07        -0.29602E-09         0.00000E+00
    0.71254E-07        -0.31939E-09         0.00000E+00
    0.71257E-07        -0.34161E-09         0.00000E+00
    0.71256E-07        -0.36235E-09         0.00000E+00
    0.71251E-07        -0.38129E-09         0.00000E+00
    0.71242E-07        -0.39804E-09         0.00000E+00
    0.71229E-07        -0.41225E-09         0.00000E+00
    0.71212E-07        -0.42350E-09         0.00000E+00
    0.71192E-07        -0.43141E-09         0.00000E+00
    0.71167E-07        -0.43557E-09         0.00000E+00
    0.71139E-07        -0.43560E-09         0.00000E+00
    0.71108E-07        -0.43113E-09         0.00000E+00
    0.71075E-07        -0.42185E-09         0.00000E+00
    0.71039E-07        -0.40749E-09         0.00000E+00
    0.71002E-07        -0.38793E-09         0.00000E+00
    0.70964E-07        -0.36311E-09         0.00000E+00
    0.70926E-07        -0.33316E-09         0.00000E+00
    0.70888E-07        -0.29839E-09         0.00000E+00
    0.70853E-07        -0.25929E-09         0.00000E+00
    0.70822E-07        -0.21684E-09         0.00000E+00
    0.70794E-07        -0.17235E-09         0.00000E+00
    0.70772E-07        -0.12775E-09         0.00000E+00
    0.70754E-07        -0.85323E-10         0.00000E+00
    0.70743E-07        -0.46879E-10         0.00000E+00
    0.70737E-07        -0.13644E-10         0.00000E+00
    0.64257E-07        -0.24846E-11         0.00000E+00
    0.64262E-07        -0.85958E-11         0.00000E+00
    0.64272E-07        -0.16342E-10         0.00000E+00
    0.64285E-07        -0.25612E-10         0.00000E+00
    0.64303E-07        -0.36284E-10         0.00000E+00
    0.64323E-07        -0.48229E-10         0.00000E+00
    0.64346E-07        -0.61311E-10         0.00000E+00
    0.64371E-07        -0.75395E-10         0.00000E+00
    0.64398E-07        -0.90344E-10         0.00000E+00
    0.64427E-07        -0.10602E-09         0.00000E+00
    0.64456E-07        -0.12229E-09         0.00000E+00
    0.64487E-07        -0.13903E-09         0.00000E+00
    0.64518E-07        -0.15611E-09         0.00000E+00
    0.64549E-07        -0.17340E-09         0.00000E+00
    0.64580E-07        -0.19078E-09         0.00000E+00
    0.64611E-07        -0.20812E-09         0.00000E+00
    0.64641E-07        -0.22531E-09         0.00000E+00
    0.64670E-07        -0.24223E-09         0.00000E+00
    0.64699E-07        -0.25875E-09         0.00000E+00
    0.64726E-07        -0.27475E-09         0.00000E+00
    0.64751E-07        -0.29009E-09         0.00000E+00
    0.64775E-07        -0.30464E-09         0.00000E+00
    0.64797E-07        -0.31826E-09         0.00000E+00
    0.64817E-07        -0.33081E-09         0.00000E+00
    0.64834E-07        -0.34213E-09         0.00000E+00
    0.64850E-07        -0.35205E-09         0.00000E+00
    0.64863E-07        -0.36043E-09         0.00000E+00
    0.64873E-07        -0.36709E-09         0.00000E+00
    0.64881E-07        -0.37185E-09         0.00000E+00
    0.64887E-07        -0.37455E-09         0.00000E+00
    0.64890E-07        -0.37502E-09         0.00000E+00
    0.64890E-07        -0.37310E-09         0.00000E+00
    0.64888E-07        -0.36865E-09         0.00000E+00
    0.64884E-07        -0.36152E-09         0.00000E+00
    0.64877E-07        -0.35163E-09         0.00000E+00
    0.64869E-07        -0.33891E-09         0.00000E+00
    0.64859E-07        -0.32333E-09         0.00000E+00
    0.64848E-07        -0.30494E-09         0.00000E+00
    0.64836E-07        -0.28384E-09         0.00000E+00
    0.64823E-07        -0.26022E-09         0.00000E+00
    0.64810E-07        -0.23436E-09         0.00000E+00
    0.64797E-07        -0.20665E-09         0.00000E+00
    0.64784E-07        -0.17763E-09         0.00000E+00
    0.64773E-07        -0.14794E-09         0.00000E+00
    0.64763E-07        -0.11836E-09         0.00000E+00
    0.64754E-07        -0.89747E-10         0.00000E+00
    0.64747E-07        -0.63008E-10         0.00000E+00
    0.64742E-07        -0.39099E-10         0.00000E+00
    0.64739E-07        -0.19191E-10         0.00000E+00
    0.64737E-07        -0.46339E-11         0.00000E+00
    0.58408E-07        -0.14740E-10         0.00000E+00
    0.58412E-07        -0.43668E-10         0.00000E+00
    0.58421E-07        -0.71785E-10         0.00000E+00
    0.58433E-07        -0.99109E-10         0.00000E+00
    0.58448E-07        -0.12565E-09         0.00000E+00
    0.58466E-07        -0.15138E-09         0.00000E+00
    0.58487E-07        -0.17631E-09         0.00000E+00
    0.58510E-07        -0.20039E-09         0.00000E+00
    0.58534E-07        -0.22360E-09         0.00000E+00
    0.58561E-07        -0.24589E-09         0.00000E+00
    0.58588E-07        -0.26723E-09         0.00000E+00
    0.58616E-07        -0.28756E-09         0.00000E+00
    0.58645E-07        -0.30684E-09         0.00000E+00
    0.58674E-07        -0.32501E-09         0.00000E+00
    0.58704E-07        -0.34202E-09         0.00000E+00
    0.58733E-07        -0.35781E-09         0.00000E+00
    0.58762E-07        -0.37233E-09         0.00000E+00
    0.58791E-07        -0.38551E-09         0.00000E+00
    0.58819E-07        -0.39730E-09         0.00000E+00
    0.58847E-07        -0.40762E-09         0.00000E+00
    0.58873E-07        -0.41643E-09         0.00000E+00
    0.58898E-07        -0.42364E-09         0.00000E+00
    0.58922E-07        -0.42920E-09         0.00000E+00
    0.58945E-07        -0.43305E-09         0.00000E+00
    0.58966E-07        -0.43510E-09         0.00000E+00
    0.58986E-07        -0.43531E-09         0.00000E+00
    0.59005E-07        -0.43360E-09         0.00000E+00
    0.59021E-07        -0.42993E-09         0.00000E+00
    0.59036E-07        -0.42424E-09         0.00000E+00
    0.59050E-07        -0.41650E-09         0.00000E+00
    0.59061E-07        -0.40667E-09         0.00000E+00
    0.59072E-07        -0.39474E-09         0.00000E+00
    0.59080E-07        -0.38073E-09         0.00000E+00
    0.59088E-07        -0.36465E-09         0.00000E+00
    0.59094E-07        -0.34657E-09         0.00000E+00
    0.59099E-07        -0.32658E-09         0.00000E+00
    0.59102E-07        -0.30480E-09         0.00000E+00
    0.59105E-07        -0.28140E-09         0.00000E+00
    0.59107E-07        -0.25659E-09         0.00000E+00
    0.59109E-07        -0.23065E-09         0.00000E+00
    0.59110E-07        -0.20389E-09         0.00000E+00
    0.59111E-07        -0.17669E-09         0.00000E+00
    0.59112E-07        -0.14946E-09         0.00000E+00
    0.59112E-07        -0.12268E-09         0.00000E+00
    0.59113E-07        -0.96878E-10         0.00000E+00
    0.59114E-07        -0.72626E-10         0.00000E+00
    0.59115E-07        -0.50546E-10         0.00000E+00
    0.59116E-07        -0.31299E-10         0.00000E+00
    0.59117E-07        -0.15527E-10         0.00000E+00
    0.59118E-07        -0.38567E-11         0.00000E+00
    0.53102E-07        -0.25235E-10         0.00000E+00
    0.53106E-07        -0.73857E-10         0.00000E+00
    0.53113E-07        -0.11978E-09         0.00000E+00
    0.53123E-07        -0.16310E-09         0.00000E+00
    0.53136E-07        -0.20389E-09         0.00000E+00
    0.53152E-07        -0.24223E-09         0.00000E+00
    0.53170E-07        -0.27817E-09         0.00000E+00
    0.53190E-07        -0.31176E-09         0.00000E+00
    0.53211E-07        -0.34304E-09         0.00000E+00
    0.53234E-07        -0.37205E-09         0.00000E+00
    0.53259E-07        -0.39881E-09         0.00000E+00
    0.53284E-07        -0.42334E-09         0.00000E+00
    0.53310E-07        -0.44567E-09         0.00000E+00
    0.53337E-07        -0.46579E-09         0.00000E+00
    0.53364E-07        -0.48373E-09         0.00000E+00
    0.53391E-07        -0.49948E-09         0.00000E+00
    0.53418E-07        -0.51306E-09         0.00000E+00
    0.53445E-07        -0.52445E-09         0.00000E+00
    0.53472E-07        -0.53367E-09         0.00000E+00
    0.53499E-07        -0.54071E-09         0.00000E+00
    0.53525E-07        -0.54556E-09         0.00000E+00
    0.53550E-07        -0.54824E-09         0.00000E+00
    0.53575E-07        -0.54874E-09         0.00000E+00
    0.53599E-07        -0.54707E-09         0.00000E+00
    0.53622E-07        -0.54323E-09         0.00000E+00
    0.53644E-07        -0.53723E-09         0.00000E+00
    0.53666E-07        -0.52909E-09         0.00000E+00
    0.53686E-07        -0.51883E-09         0.00000E+00
    0.53705E-07        -0.50649E-09         0.00000E+00
    0.53723E-07        -0.49211E-09         0.00000E+00
    0.53740E-07        -0.47574E-09         0.00000E+00
    0.53756E-07        -0.45745E-09         0.00000E+00
    0.53772E-07        -0.43734E-09         0.00000E+00
    0.53786E-07        -0.41549E-09         0.00000E+00
    0.53799E-07        -0.39203E-09         0.00000E+00
    0.53811E-07        -0.36711E-09         0.00000E+00
    0.53823E-07        -0.34091E-09         0.00000E+00
    0.53834E-07        -0.31361E-09         0.00000E+00
    0.53844E-07        -0.28543E-09         0.00000E+00
    0.53853E-07        -0.25663E-09         0.00000E+00
    0.53862E-07        -0.22747E-09         0.00000E+00
    0.53870E-07        -0.19827E-09         0.00000E+00
    0.53878E-07        -0.16935E-09         0.00000E+00
    0.53884E-07        -0.14106E-09         0.00000E+00
    0.53891E-07        -0.11378E-09         0.00000E+00
    0.53896E-07        -0.87906E-10         0.00000E+00
    0.53901E-07        -0.63833E-10         0.00000E+00
    0.53905E-07        -0.41976E-10         0.00000E+00
    0.53908E-07        -0.22764E-10         0.00000E+00
    0.53909E-07        -0.66330E-11         0.00000E+00
    0.48314E-07        -0.33927E-10         0.00000E+00
    0.48317E-07        -0.98976E-10         0.00000E+00
    0.48323E-07        -0.15992E-09         0.00000E+00
    0.48331E-07        -0.21690E-09         0.00000E+00
    0.48342E-07        -0.27004E-09         0.00000E+00
    0.48355E-07        -0.31945E-09         0.00000E+00
    0.48370E-07        -0.36525E-09         0.00000E+00
    0.48387E-07        -0.40753E-09         0.00000E+00
    0.48405E-07        -0.44638E-09         0.00000E+00
    0.48424E-07        -0.48188E-09         0.00000E+00
    0.48445E-07        -0.51413E-09         0.00000E+00
    0.48467E-07        -0.54318E-09         0.00000E+00
    0.48490E-07        -0.56910E-09         0.00000E+00
    0.48513E-07        -0.59196E-09         0.00000E+00
    0.48537E-07        -0.61182E-09         0.00000E+00
    0.48561E-07        -0.62872E-09         0.00000E+00
    0.48586E-07        -0.64273E-09         0.00000E+00
    0.48610E-07        -0.65390E-09         0.00000E+00
    0.48635E-07        -0.66228E-09         0.00000E+00
    0.48659E-07        -0.66791E-09         0.00000E+00
    0.48684E-07        -0.67085E-09         0.00000E+00
    0.48708E-07        -0.67115E-09         0.00000E+00
    0.48732E-07        -0.66885E-09         0.00000E+00
    0.48755E-07        -0.66403E-09         0.00000E+00
    0.48778E-07        -0.65672E-09         0.00000E+00
    0.48801E-07        -0.64700E-09         0.00000E+00
    0.48823E-07        -0.63494E-09         0.00000E+00
    0.48844E-07        -0.62060E-09         0.00000E+00
    0.48865E-07        -0.60407E-09         0.00000E+00
    0.48885E-07        -0.58544E-09         0.00000E+00
    0.48904E-07        -0.56480E-09         0.00000E+00
    0.48923E-07        -0.54226E-09         0.00000E+00
    0.48941E-07        -0.51794E-09         0.00000E+00
    0.48958E-07        -0.49198E-09         0.00000E+00
    0.48974E-07        -0.46451E-09         0.00000E+00
    0.48990E-07        -0.43570E-09         0.00000E+00
    0.49005E-07        -0.40570E-09         0.00000E+00
    0.49020E-07        -0.37472E-09         0.00000E+00
    0.49033E-07        -0.34296E-09         0.00000E+00
    0.49046E-07        -0.31061E-09         0.00000E+00
    0.49058E-07        -0.27792E-09         0.00000E+00
    0.49070E-07        -0.24512E-09         0.00000E+00
    0.49080E-07        -0.21247E-09         0.00000E+00
    0.49090E-07        -0.18022E-09         0.00000E+00
    0.49098E-07        -0.14866E-09         0.00000E+00
    0.49106E-07        -0.11806E-09         0.00000E+00
    0.49112E-07        -0.88711E-10         0.00000E+00
    0.49117E-07        -0.60890E-10         0.00000E+00
    0.49121E-07        -0.34886E-10         0.00000E+00
    0.49122E-07        -0.10976E-10         0.00000E+00
    0.44008E-07        -0.40886E-10         0.00000E+00
    0.44011E-07        -0.11917E-09         0.00000E+00
    0.44015E-07        -0.19235E-09         0.00000E+00
    0.44022E-07        -0.26058E-09         0.00000E+00
    0.44031E-07        -0.32401E-09         0.00000E+00
    0.44041E-07        -0.38280E-09         0.00000E+00
    0.44053E-07        -0.43707E-09         0.00000E+00
    0.44067E-07        -0.48696E-09         0.00000E+00
    0.44082E-07        -0.53258E-09         0.00000E+00
    0.44098E-07        -0.57407E-09         0.00000E+00
    0.44115E-07        -0.61152E-09         0.00000E+00
    0.44133E-07        -0.64505E-09         0.00000E+00
    0.44152E-07        -0.67475E-09         0.00000E+00
    0.44172E-07        -0.70073E-09         0.00000E+00
    0.44192E-07        -0.72309E-09         0.00000E+00
    0.44212E-07        -0.74190E-09         0.00000E+00
    0.44233E-07        -0.75726E-09         0.00000E+00
    0.44255E-07        -0.76927E-09         0.00000E+00
    0.44276E-07        -0.77799E-09         0.00000E+00
    0.44298E-07        -0.78353E-09         0.00000E+00
    0.44320E-07        -0.78597E-09         0.00000E+00
    0.44341E-07        -0.78539E-09         0.00000E+00
    0.44363E-07        -0.78187E-09         0.00000E+00
    0.44384E-07        -0.77552E-09         0.00000E+00
    0.44406E-07        -0.76641E-09         0.00000E+00
    0.44427E-07        -0.75465E-09         0.00000E+00
    0.44447E-07        -0.74033E-09         0.00000E+00
    0.44468E-07        -0.72355E-09         0.00000E+00
    0.44488E-07        -0.70442E-09         0.00000E+00
    0.44507E-07        -0.68305E-09         0.00000E+00
    0.44526E-07        -0.65955E-09         0.00000E+00
    0.44545E-07        -0.63406E-09         0.00000E+00
    0.44563E-07        -0.60670E-09         0.00000E+00
    0.44581E-07        -0.57760E-09         0.00000E+00
    0.44598E-07        -0.54692E-09         0.00000E+00
    0.44614E-07        -0.51481E-09         0.00000E+00
    0.44630E-07        -0.48142E-09         0.00000E+00
    0.44645E-07        -0.44693E-09         0.00000E+00
    0.44660E-07        -0.41150E-09         0.00000E+00
    0.44674E-07        -0.37532E-09         0.00000E+00
    0.44687E-07        -0.33858E-09         0.00000E+00
    0.44699E-07        -0.30148E-09         0.00000E+00
    0.44710E-07        -0.26420E-09         0.00000E+00
    0.44720E-07        -0.22696E-09         0.00000E+00
    0.44729E-07        -0.18995E-09         0.00000E+00
    0.44737E-07        -0.15340E-09         0.00000E+00
    0.44743E-07        -0.11750E-09         0.00000E+00
    0.44749E-07        -0.82454E-10         0.00000E+00
    0.44752E-07        -0.48475E-10         0.00000E+00
    0.44754E-07        -0.15760E-10         0.00000E+00
    0.40149E-07        -0.46227E-10         0.00000E+00
    0.40151E-07        -0.13474E-09         0.00000E+00
    0.40154E-07        -0.21746E-09         0.00000E+00
    0.40159E-07        -0.29457E-09         0.00000E+00
    0.40166E-07        -0.36623E-09         0.00000E+00
    0.40174E-07        -0.43261E-09         0.00000E+00
    0.40183E-07        -0.49384E-09         0.00000E+00
    0.40193E-07        -0.55009E-09         0.00000E+00
    0.40205E-07        -0.60149E-09         0.00000E+00
    0.40218E-07        -0.64818E-09         0.00000E+00
    0.40231E-07        -0.69029E-09         0.00000E+00
    0.40245E-07        -0.72795E-09         0.00000E+00
    0.40260E-07        -0.76128E-09         0.00000E+00
    0.40276E-07        -0.79040E-09         0.00000E+00
    0.40292E-07        -0.81544E-09         0.00000E+00
    0.40309E-07        -0.83649E-09         0.00000E+00
    0.40326E-07        -0.85369E-09         0.00000E+00
    0.40344E-07        -0.86712E-09         0.00000E+00
    0.40361E-07        -0.87692E-09         0.00000E+00
    0.40379E-07        -0.88317E-09         0.00000E+00
    0.40398E-07        -0.88600E-09         0.00000E+00
    0.40416E-07        -0.88550E-09         0.00000E+00
    0.40434E-07        -0.88179E-09         0.00000E+00
    0.40453E-07        -0.87497E-09         0.00000E+00
    0.40471E-07        -0.86515E-09         0.00000E+00
    0.40489E-07        -0.85245E-09         0.00000E+00
    0.40508E-07        -0.83697E-09         0.00000E+00
    0.40526E-07        -0.81884E-09         0.00000E+00
    0.40543E-07        -0.79816E-09         0.00000E+00
    0.40561E-07        -0.77507E-09         0.00000E+00
    0.40578E-07        -0.74968E-09         0.00000E+00
    0.40595E-07        -0.72212E-09         0.00000E+00
    0.40612E-07        -0.69252E-09         0.00000E+00
    0.40628E-07        -0.66103E-09         0.00000E+00
    0.40644E-07        -0.62776E-09         0.00000E+00
    0.40659E-07        -0.59288E-09         0.00000E+00
    0.40674E-07        -0.55652E-09         0.00000E+00
    0.40688E-07        -0.51883E-09         0.00000E+00
    0.40702E-07        -0.47996E-09         0.00000E+00
    0.40715E-07        -0.44008E-09         0.00000E+00
    0.40727E-07        -0.39933E-09         0.00000E+00
    0.40738E-07        -0.35789E-09         0.00000E+00
    0.40749E-07        -0.31590E-09         0.00000E+00
    0.40758E-07        -0.27353E-09         0.00000E+00
    0.40767E-07        -0.23095E-09         0.00000E+00
    0.40774E-07        -0.18831E-09         0.00000E+00
    0.40780E-07        -0.14578E-09         0.00000E+00
    0.40785E-07        -0.10351E-09         0.00000E+00
    0.40788E-07        -0.61653E-10         0.00000E+00
    0.40790E-07        -0.20359E-10         0.00000E+00
    0.36696E-07        -0.50086E-10         0.00000E+00
    0.36697E-07        -0.14604E-09         0.00000E+00
    0.36699E-07        -0.23579E-09         0.00000E+00
    0.36703E-07        -0.31952E-09         0.00000E+00
    0.36707E-07        -0.39739E-09         0.00000E+00
    0.36713E-07        -0.46957E-09         0.00000E+00
    0.36720E-07        -0.53622E-09         0.00000E+00
    0.36727E-07        -0.59750E-09         0.00000E+00
    0.36736E-07        -0.65354E-09         0.00000E+00
    0.36745E-07        -0.70450E-09         0.00000E+00
    0.36755E-07        -0.75052E-09         0.00000E+00
    0.36765E-07        -0.79174E-09         0.00000E+00
    0.36776E-07        -0.82828E-09         0.00000E+00
    0.36788E-07        -0.86029E-09         0.00000E+00
    0.36800E-07        -0.88788E-09         0.00000E+00
    0.36813E-07        -0.91119E-09         0.00000E+00
    0.36826E-07        -0.93034E-09         0.00000E+00
    0.36840E-07        -0.94545E-09         0.00000E+00
    0.36853E-07        -0.95665E-09         0.00000E+00
    0.36867E-07        -0.96404E-09         0.00000E+00
    0.36882E-07        -0.96775E-09         0.00000E+00
    0.36896E-07        -0.96791E-09         0.00000E+00
    0.36911E-07        -0.96461E-09         0.00000E+00
    0.36926E-07        -0.95799E-09         0.00000E+00
    0.36940E-07        -0.94816E-09         0.00000E+00
    0.36955E-07        -0.93524E-09         0.00000E+00
    0.36970E-07        -0.91935E-09         0.00000E+00
    0.36985E-07        -0.90060E-09         0.00000E+00
    0.37000E-07        -0.87912E-09         0.00000E+00
    0.37014E-07        -0.85503E-09         0.00000E+00
    0.37029E-07        -0.82846E-09         0.00000E+00
    0.37043E-07        -0.79952E-09         0.00000E+00
    0.37057E-07        -0.76835E-09         0.00000E+00
    0.37071E-07        -0.73508E-09         0.00000E+00
    0.37084E-07        -0.69982E-09         0.00000E+00
    0.37097E-07        -0.66272E-09         0.00000E+00
    0.37110E-07        -0.62391E-09         0.00000E+00
    0.37122E-07        -0.58351E-09         0.00000E+00
    0.37134E-07        -0.54167E-09         0.00000E+00
    0.37145E-07        -0.49852E-09         0.00000E+00
    0.37155E-07        -0.45420E-09         0.00000E+00
    0.37165E-07        -0.40883E-09         0.00000E+00
    0.37174E-07        -0.36256E-09         0.00000E+00
    0.37183E-07        -0.31552E-09         0.00000E+00
    0.37190E-07        -0.26785E-09         0.00000E+00
    0.37196E-07        -0.21967E-09         0.00000E+00
    0.37201E-07        -0.17111E-09         0.00000E+00
    0.37205E-07        -0.12231E-09         0.00000E+00
    0.37208E-07        -0.73373E-10         0.00000E+00
    0.37210E-07        -0.24432E-10         0.00000E+00
    0.33610E-07        -0.52607E-10         0.00000E+00
    0.33611E-07        -0.15347E-09         0.00000E+00
    0.33612E-07        -0.24794E-09         0.00000E+00
    0.33614E-07        -0.33618E-09         0.00000E+00
    0.33617E-07        -0.41836E-09         0.00000E+00
    0.33621E-07        -0.49465E-09         0.00000E+00
    0.33625E-07        -0.56519E-09         0.00000E+00
    0.33630E-07        -0.63014E-09         0.00000E+00
    0.33635E-07        -0.68966E-09         0.00000E+00
    0.33641E-07        -0.74388E-09         0.00000E+00
    0.33648E-07        -0.79294E-09         0.00000E+00
    0.33655E-07        -0.83700E-09         0.00000E+00
    0.33662E-07        -0.87618E-09         0.00000E+00
    0.33670E-07        -0.91062E-09         0.00000E+00
    0.33678E-07        -0.94045E-09         0.00000E+00
    0.33687E-07        -0.96580E-09         0.00000E+00
    0.33696E-07        -0.98679E-09         0.00000E+00
    0.33706E-07        -0.10036E-08         0.00000E+00
    0.33715E-07        -0.10162E-08         0.00000E+00
    0.33725E-07        -0.10249E-08         0.00000E+00
    0.33736E-07        -0.10297E-08         0.00000E+00
    0.33746E-07        -0.10308E-08         0.00000E+00
    0.33757E-07        -0.10283E-08         0.00000E+00
    0.33768E-07        -0.10223E-08         0.00000E+00
    0.33779E-07        -0.10128E-08         0.00000E+00
    0.33790E-07        -0.10002E-08         0.00000E+00
    0.33801E-07        -0.98436E-09         0.00000E+00
    0.33812E-07        -0.96553E-09         0.00000E+00
    0.33823E-07        -0.94379E-09         0.00000E+00
    0.33834E-07        -0.91926E-09         0.00000E+00
    0.33846E-07        -0.89207E-09         0.00000E+00
    0.33857E-07        -0.86234E-09         0.00000E+00
    0.33867E-07        -0.83017E-09         0.00000E+00
    0.33878E-07        -0.79570E-09         0.00000E+00
    0.33889E-07        -0.75905E-09         0.00000E+00
    0.33899E-07        -0.72033E-09         0.00000E+00
    0.33909E-07        -0.67966E-09         0.00000E+00
    0.33919E-07        -0.63717E-09         0.00000E+00
    0.33928E-07        -0.59297E-09         0.00000E+00
    0.33937E-07        -0.54719E-09         0.00000E+00
    0.33945E-07        -0.49995E-09         0.00000E+00
    0.33953E-07        -0.45136E-09         0.00000E+00
    0.33960E-07        -0.40153E-09         0.00000E+00
    0.33967E-07        -0.35060E-09         0.00000E+00
    0.33973E-07        -0.29866E-09         0.00000E+00
    0.33978E-07        -0.24584E-09         0.00000E+00
    0.33982E-07        -0.19223E-09         0.00000E+00
    0.33985E-07        -0.13796E-09         0.00000E+00
    0.33988E-07        -0.83118E-10         0.00000E+00
    0.33989E-07        -0.27811E-10         0.00000E+00
    0.30855E-07        -0.53944E-10         0.00000E+00
    0.30855E-07        -0.15747E-09         0.00000E+00
    0.30855E-07        -0.25458E-09         0.00000E+00
    0.30856E-07        -0.34543E-09         0.00000E+00
    0.30858E-07        -0.43017E-09         0.00000E+00
    0.30859E-07        -0.50896E-09         0.00000E+00
    0.30861E-07        -0.58196E-09         0.00000E+00
    0.30864E-07        -0.64929E-09         0.00000E+00
    0.30867E-07        -0.71112E-09         0.00000E+00
    0.30870E-07        -0.76757E-09         0.00000E+00
    0.30873E-07        -0.81879E-09         0.00000E+00
    0.30877E-07        -0.86491E-09         0.00000E+00
    0.30881E-07        -0.90607E-09         0.00000E+00
    0.30885E-07        -0.94239E-09         0.00000E+00
    0.30890E-07        -0.97400E-09         0.00000E+00
    0.30895E-07        -0.10010E-08         0.00000E+00
    0.30900E-07        -0.10236E-08         0.00000E+00
    0.30906E-07        -0.10419E-08         0.00000E+00
    0.30912E-07        -0.10559E-08         0.00000E+00
    0.30918E-07        -0.10658E-08         0.00000E+00
    0.30924E-07        -0.10718E-08         0.00000E+00
    0.30931E-07        -0.10739E-08         0.00000E+00
    0.30938E-07        -0.10723E-08         0.00000E+00
    0.30944E-07        -0.10671E-08         0.00000E+00
    0.30952E-07        -0.10584E-08         0.00000E+00
    0.30959E-07        -0.10462E-08         0.00000E+00
    0.30966E-07        -0.10309E-08         0.00000E+00
    0.30974E-07        -0.10123E-08         0.00000E+00
    0.30981E-07        -0.99073E-09         0.00000E+00
    0.30989E-07        -0.96621E-09         0.00000E+00
    0.30996E-07        -0.93888E-09         0.00000E+00
    0.31004E-07        -0.90884E-09         0.00000E+00
    0.31012E-07        -0.87621E-09         0.00000E+00
    0.31019E-07        -0.84110E-09         0.00000E+00
    0.31027E-07        -0.80362E-09         0.00000E+00
    0.31034E-07        -0.76388E-09         0.00000E+00
    0.31041E-07        -0.72200E-09         0.00000E+00
    0.31048E-07        -0.67807E-09         0.00000E+00
    0.31055E-07        -0.63222E-09         0.00000E+00
    0.31061E-07        -0.58455E-09         0.00000E+00
    0.31068E-07        -0.53516E-09         0.00000E+00
    0.31073E-07        -0.48416E-09         0.00000E+00
    0.31079E-07        -0.43166E-09         0.00000E+00
    0.31083E-07        -0.37775E-09         0.00000E+00
    0.31088E-07        -0.32255E-09         0.00000E+00
    0.31092E-07        -0.26615E-09         0.00000E+00
    0.31095E-07        -0.20864E-09         0.00000E+00
    0.31097E-07        -0.15013E-09         0.00000E+00
    0.31099E-07        -0.90695E-10         0.00000E+00
    0.31100E-07        -0.30439E-10         0.00000E+00
    0.28394E-07        -0.54254E-10         0.00000E+00
    0.28394E-07        -0.15848E-09         0.00000E+00
    0.28394E-07        -0.25641E-09         0.00000E+00
    0.28394E-07        -0.34817E-09         0.00000E+00
    0.28394E-07        -0.43391E-09         0.00000E+00
    0.28394E-07        -0.51378E-09         0.00000E+00
    0.28394E-07        -0.58791E-09         0.00000E+00
    0.28395E-07        -0.65643E-09         0.00000E+00
    0.28395E-07        -0.71948E-09         0.00000E+00
    0.28395E-07        -0.77718E-09         0.00000E+00
    0.28396E-07        -0.82968E-09         0.00000E+00
    0.28397E-07        -0.87708E-09         0.00000E+00
    0.28398E-07        -0.91953E-09         0.00000E+00
    0.28399E-07        -0.95714E-09         0.00000E+00
    0.28401E-07        -0.99003E-09         0.00000E+00
    0.28402E-07        -0.10183E-08         0.00000E+00
    0.28404E-07        -0.10421E-08         0.00000E+00
    0.28406E-07        -0.10616E-08         0.00000E+00
    0.28409E-07        -0.10768E-08         0.00000E+00
    0.28411E-07        -0.10879E-08         0.00000E+00
    0.28414E-07        -0.10949E-08         0.00000E+00
    0.28417E-07        -0.10981E-08         0.00000E+00
    0.28420E-07        -0.10974E-08         0.00000E+00
    0.28423E-07        -0.10931E-08         0.00000E+00
    0.28426E-07        -0.10852E-08         0.00000E+00
    0.28430E-07        -0.10738E-08         0.00000E+00
    0.28434E-07        -0.10591E-08         0.00000E+00
    0.28438E-07        -0.10411E-08         0.00000E+00
    0.28442E-07        -0.10200E-08         0.00000E+00
    0.28446E-07        -0.99585E-09         0.00000E+00
    0.28450E-07        -0.96877E-09         0.00000E+00
    0.28455E-07        -0.93886E-09         0.00000E+00
    0.28459E-07        -0.90624E-09         0.00000E+00
    0.28463E-07        -0.87100E-09         0.00000E+00
    0.28468E-07        -0.83324E-09         0.00000E+00
    0.28472E-07        -0.79307E-09         0.00000E+00
    0.28477E-07        -0.75060E-09         0.00000E+00
    0.28481E-07        -0.70591E-09         0.00000E+00
    0.28485E-07        -0.65911E-09         0.00000E+00
    0.28489E-07        -0.61030E-09         0.00000E+00
    0.28493E-07        -0.55957E-09         0.00000E+00
    0.28497E-07        -0.50703E-09         0.00000E+00
    0.28500E-07        -0.45276E-09         0.00000E+00
    0.28504E-07        -0.39687E-09         0.00000E+00
    0.28506E-07        -0.33943E-09         0.00000E+00
    0.28509E-07        -0.28055E-09         0.00000E+00
    0.28511E-07        -0.22031E-09         0.00000E+00
    0.28513E-07        -0.15881E-09         0.00000E+00
    0.28514E-07        -0.96115E-10         0.00000E+00
    0.28514E-07        -0.32324E-10         0.00000E+00
    0.26197E-07        -0.53696E-10         0.00000E+00
    0.26197E-07        -0.15697E-09         0.00000E+00
    0.26196E-07        -0.25415E-09         0.00000E+00
    0.26195E-07        -0.34537E-09         0.00000E+00
    0.26194E-07        -0.43075E-09         0.00000E+00
    0.26193E-07        -0.51043E-09         0.00000E+00
    0.26191E-07        -0.58452E-09         0.00000E+00
    0.26190E-07        -0.65315E-09         0.00000E+00
    0.26188E-07        -0.71644E-09         0.00000E+00
    0.26186E-07        -0.77450E-09         0.00000E+00
    0.26185E-07        -0.82745E-09         0.00000E+00
    0.26183E-07        -0.87541E-09         0.00000E+00
    0.26181E-07        -0.91848E-09         0.00000E+00
    0.26180E-07        -0.95679E-09         0.00000E+00
    0.26178E-07        -0.99045E-09         0.00000E+00
    0.26177E-07        -0.10196E-08         0.00000E+00
    0.26176E-07        -0.10442E-08         0.00000E+00
    0.26175E-07        -0.10646E-08         0.00000E+00
    0.26174E-07        -0.10807E-08         0.00000E+00
    0.26173E-07        -0.10927E-08         0.00000E+00
    0.26173E-07        -0.11007E-08         0.00000E+00
    0.26172E-07        -0.11048E-08         0.00000E+00
    0.26172E-07        -0.11051E-08         0.00000E+00
    0.26172E-07        -0.11017E-08         0.00000E+00
    0.26172E-07        -0.10946E-08         0.00000E+00
    0.26173E-07        -0.10841E-08         0.00000E+00
    0.26173E-07        -0.10702E-08         0.00000E+00
    0.26174E-07        -0.10530E-08         0.00000E+00
    0.26175E-07        -0.10326E-08         0.00000E+00
    0.26176E-07        -0.10092E-08         0.00000E+00
    0.26177E-07        -0.98267E-09         0.00000E+00
    0.26178E-07        -0.95327E-09         0.00000E+00
    0.26180E-07        -0.92107E-09         0.00000E+00
    0.26181E-07        -0.88615E-09         0.00000E+00
    0.26183E-07        -0.84862E-09         0.00000E+00
    0.26184E-07        -0.80857E-09         0.00000E+00
    0.26186E-07        -0.76609E-09         0.00000E+00
    0.26188E-07        -0.72127E-09         0.00000E+00
    0.26190E-07        -0.67420E-09         0.00000E+00
    0.26192E-07        -0.62498E-09         0.00000E+00
    0.26194E-07        -0.57370E-09         0.00000E+00
    0.26196E-07        -0.52044E-09         0.00000E+00
    0.26197E-07        -0.46529E-09         0.00000E+00
    0.26199E-07        -0.40834E-09         0.00000E+00
    0.26200E-07        -0.34967E-09         0.00000E+00
    0.26202E-07        -0.28937E-09         0.00000E+00
    0.26203E-07        -0.22752E-09         0.00000E+00
    0.26204E-07        -0.16421E-09         0.00000E+00
    0.26204E-07        -0.99516E-10         0.00000E+00
    0.26205E-07        -0.33515E-10         0.00000E+00
    0.24233E-07        -0.52425E-10         0.00000E+00
    0.24233E-07        -0.15336E-09         0.00000E+00
    0.24231E-07        -0.24850E-09         0.00000E+00
    0.24230E-07        -0.33796E-09         0.00000E+00
    0.24228E-07        -0.42184E-09         0.00000E+00
    0.24225E-07        -0.50026E-09         0.00000E+00
    0.24222E-07        -0.57332E-09         0.00000E+00
    0.24219E-07        -0.64112E-09         0.00000E+00
    0.24216E-07        -0.70378E-09         0.00000E+00
    0.24213E-07        -0.76140E-09         0.00000E+00
    0.24209E-07        -0.81407E-09         0.00000E+00
    0.24205E-07        -0.86191E-09         0.00000E+00
    0.24201E-07        -0.90501E-09         0.00000E+00
    0.24197E-07        -0.94348E-09         0.00000E+00
    0.24194E-07        -0.97741E-09         0.00000E+00
    0.24190E-07        -0.10069E-08         0.00000E+00
    0.24186E-07        -0.10321E-08         0.00000E+00
    0.24182E-07        -0.10530E-08         0.00000E+00
    0.24179E-07        -0.10697E-08         0.00000E+00
    0.24175E-07        -0.10825E-08         0.00000E+00
    0.24172E-07        -0.10912E-08         0.00000E+00
    0.24169E-07        -0.10961E-08         0.00000E+00
    0.24166E-07        -0.10973E-08         0.00000E+00
    0.24163E-07        -0.10948E-08         0.00000E+00
    0.24160E-07        -0.10887E-08         0.00000E+00
    0.24157E-07        -0.10791E-08         0.00000E+00
    0.24155E-07        -0.10661E-08         0.00000E+00
    0.24153E-07        -0.10498E-08         0.00000E+00
    0.24151E-07        -0.10304E-08         0.00000E+00
    0.24149E-07        -0.10078E-08         0.00000E+00
    0.24148E-07        -0.98213E-09         0.00000E+00
    0.24146E-07        -0.95356E-09         0.00000E+00
    0.24145E-07        -0.92213E-09         0.00000E+00
    0.24144E-07        -0.88795E-09         0.00000E+00
    0.24143E-07        -0.85108E-09         0.00000E+00
    0.24143E-07        -0.81162E-09         0.00000E+00
    0.24142E-07        -0.76966E-09         0.00000E+00
    0.24142E-07        -0.72528E-09         0.00000E+00
    0.24142E-07        -0.67857E-09         0.00000E+00
    0.24142E-07        -0.62960E-09         0.00000E+00
    0.24142E-07        -0.57847E-09         0.00000E+00
    0.24142E-07        -0.52525E-09         0.00000E+00
    0.24142E-07        -0.47003E-09         0.00000E+00
    0.24142E-07        -0.41288E-09         0.00000E+00
    0.24142E-07        -0.35389E-09         0.00000E+00
    0.24143E-07        -0.29314E-09         0.00000E+00
    0.24143E-07        -0.23071E-09         0.00000E+00
    0.24143E-07        -0.16667E-09         0.00000E+00
    0.24143E-07        -0.10110E-09         0.00000E+00
    0.24143E-07        -0.34084E-10         0.00000E+00
    0.22476E-07        -0.50588E-10         0.00000E+00
    0.22475E-07        -0.14809E-09         0.00000E+00
    0.22474E-07        -0.24014E-09         0.00000E+00
    0.22471E-07        -0.32685E-09         0.00000E+00
    0.22469E-07        -0.40829E-09         0.00000E+00
    0.22465E-07        -0.48456E-09         0.00000E+00
    0.22461E-07        -0.55575E-09         0.00000E+00
    0.22457E-07        -0.62196E-09         0.00000E+00
    0.22452E-07        -0.68326E-09         0.00000E+00
    0.22448E-07        -0.73975E-09         0.00000E+00
    0.22442E-07        -0.79152E-09         0.00000E+00
    0.22437E-07        -0.83865E-09         0.00000E+00
    0.22431E-07        -0.88125E-09         0.00000E+00
    0.22426E-07        -0.91938E-09         0.00000E+00
    0.22420E-07        -0.95314E-09         0.00000E+00
    0.22414E-07        -0.98262E-09         0.00000E+00
    0.22408E-07        -0.10079E-08         0.00000E+00
    0.22402E-07        -0.10291E-08         0.00000E+00
    0.22396E-07        -0.10462E-08         0.00000E+00
    0.22390E-07        -0.10594E-08         0.00000E+00
    0.22385E-07        -0.10688E-08         0.00000E+00
    0.22379E-07        -0.10744E-08         0.00000E+00
    0.22374E-07        -0.10763E-08         0.00000E+00
    0.22368E-07        -0.10746E-08         0.00000E+00
    0.22363E-07        -0.10694E-08         0.00000E+00
    0.22358E-07        -0.10608E-08         0.00000E+00
    0.22353E-07        -0.10488E-08         0.00000E+00
    0.22349E-07        -0.10336E-08         0.00000E+00
    0.22344E-07        -0.10151E-08         0.00000E+00
    0.22340E-07        -0.99360E-09         0.00000E+00
    0.22336E-07        -0.96905E-09         0.00000E+00
    0.22333E-07        -0.94155E-09         0.00000E+00
    0.22329E-07        -0.91121E-09         0.00000E+00
    0.22326E-07        -0.87808E-09         0.00000E+00
    0.22323E-07        -0.84225E-09         0.00000E+00
    0.22321E-07        -0.80381E-09         0.00000E+00
    0.22318E-07        -0.76283E-09         0.00000E+00
    0.22316E-07        -0.71938E-09         0.00000E+00
    0.22314E-07        -0.67356E-09         0.00000E+00
    0.22312E-07        -0.62542E-09         0.00000E+00
    0.22311E-07        -0.57506E-09         0.00000E+00
    0.22309E-07        -0.52255E-09         0.00000E+00
    0.22308E-07        -0.46796E-09         0.00000E+00
    0.22307E-07        -0.41138E-09         0.00000E+00
    0.22306E-07        -0.35287E-09         0.00000E+00
    0.22306E-07        -0.29251E-09         0.00000E+00
    0.22305E-07        -0.23038E-09         0.00000E+00
    0.22305E-07        -0.16656E-09         0.00000E+00
    0.22305E-07        -0.10111E-09         0.00000E+00
    0.22305E-07        -0.34115E-10         0.00000E+00
    0.20902E-07        -0.48319E-10         0.00000E+00
    0.20901E-07        -0.14155E-09         0.00000E+00
    0.20899E-07        -0.22971E-09         0.00000E+00
    0.20896E-07        -0.31289E-09         0.00000E+00
    0.20893E-07        -0.39115E-09         0.00000E+00
    0.20889E-07        -0.46458E-09         0.00000E+00
    0.20884E-07        -0.53323E-09         0.00000E+00
    0.20879E-07        -0.59720E-09         0.00000E+00
    0.20874E-07        -0.65654E-09         0.00000E+00
    0.20867E-07        -0.71135E-09         0.00000E+00
    0.20861E-07        -0.76168E-09         0.00000E+00
    0.20854E-07        -0.80762E-09         0.00000E+00
    0.20847E-07        -0.84925E-09         0.00000E+00
    0.20840E-07        -0.88663E-09         0.00000E+00
    0.20833E-07        -0.91984E-09         0.00000E+00
    0.20825E-07        -0.94895E-09         0.00000E+00
    0.20818E-07        -0.97405E-09         0.00000E+00
    0.20810E-07        -0.99521E-09         0.00000E+00
    0.20802E-07        -0.10125E-08         0.00000E+00
    0.20795E-07        -0.10260E-08         0.00000E+00
    0.20787E-07        -0.10358E-08         0.00000E+00
    0.20780E-07        -0.10419E-08         0.00000E+00
    0.20772E-07        -0.10445E-08         0.00000E+00
    0.20765E-07        -0.10435E-08         0.00000E+00
    0.20758E-07        -0.10392E-08         0.00000E+00
    0.20751E-07        -0.10315E-08         0.00000E+00
    0.20744E-07        -0.10205E-08         0.00000E+00
    0.20737E-07        -0.10064E-08         0.00000E+00
    0.20731E-07        -0.98908E-09         0.00000E+00
    0.20725E-07        -0.96875E-09         0.00000E+00
    0.20719E-07        -0.94544E-09         0.00000E+00
    0.20714E-07        -0.91923E-09         0.00000E+00
    0.20709E-07        -0.89019E-09         0.00000E+00
    0.20704E-07        -0.85839E-09         0.00000E+00
    0.20699E-07        -0.82391E-09         0.00000E+00
    0.20695E-07        -0.78682E-09         0.00000E+00
    0.20690E-07        -0.74719E-09         0.00000E+00
    0.20687E-07        -0.70510E-09         0.00000E+00
    0.20683E-07        -0.66061E-09         0.00000E+00
    0.20680E-07        -0.61379E-09         0.00000E+00
    0.20677E-07        -0.56473E-09         0.00000E+00
    0.20675E-07        -0.51349E-09         0.00000E+00
    0.20672E-07        -0.46014E-09         0.00000E+00
    0.20670E-07        -0.40476E-09         0.00000E+00
    0.20669E-07        -0.34741E-09         0.00000E+00
    0.20667E-07        -0.28816E-09         0.00000E+00
    0.20666E-07        -0.22710E-09         0.00000E+00
    0.20666E-07        -0.16428E-09         0.00000E+00
    0.20665E-07        -0.99790E-10         0.00000E+00
    0.20665E-07        -0.33691E-10         0.00000E+00
    0.19490E-07        -0.45740E-10         0.00000E+00
    0.19489E-07        -0.13408E-09         0.00000E+00
    0.19487E-07        -0.21777E-09         0.00000E+00
    0.19484E-07        -0.29684E-09         0.00000E+00
    0.19480E-07        -0.37137E-09         0.00000E+00
    0.19475E-07        -0.44141E-09         0.00000E+00
    0.19470E-07        -0.50702E-09         0.00000E+00
    0.19464E-07        -0.56825E-09         0.00000E+00
    0.19458E-07        -0.62517E-09         0.00000E+00
    0.19451E-07        -0.67784E-09         0.00000E+00
    0.19444E-07        -0.72631E-09         0.00000E+00
    0.19436E-07        -0.77066E-09         0.00000E+00
    0.19428E-07        -0.81094E-09         0.00000E+00
    0.19420E-07        -0.84721E-09         0.00000E+00
    0.19411E-07        -0.87955E-09         0.00000E+00
    0.19402E-07        -0.90800E-09         0.00000E+00
    0.19393E-07        -0.93264E-09         0.00000E+00
    0.19384E-07        -0.95353E-09         0.00000E+00
    0.19375E-07        -0.97073E-09         0.00000E+00
    0.19366E-07        -0.98431E-09         0.00000E+00
    0.19357E-07        -0.99434E-09         0.00000E+00
    0.19348E-07        -0.10009E-08         0.00000E+00
    0.19339E-07        -0.10040E-08         0.00000E+00
    0.19331E-07        -0.10037E-08         0.00000E+00
    0.19322E-07        -0.10002E-08         0.00000E+00
    0.19313E-07        -0.99339E-09         0.00000E+00
    0.19305E-07        -0.98344E-09         0.00000E+00
    0.19297E-07        -0.97039E-09         0.00000E+00
    0.19289E-07        -0.95431E-09         0.00000E+00
    0.19282E-07        -0.93526E-09         0.00000E+00
    0.19274E-07        -0.91331E-09         0.00000E+00
    0.19267E-07        -0.88853E-09         0.00000E+00
    0.19261E-07        -0.86097E-09         0.00000E+00
    0.19254E-07        -0.83071E-09         0.00000E+00
    0.19248E-07        -0.79781E-09         0.00000E+00
    0.19242E-07        -0.76234E-09         0.00000E+00
    0.19237E-07        -0.72437E-09         0.00000E+00
    0.19232E-07        -0.68395E-09         0.00000E+00
    0.19227E-07        -0.64116E-09         0.00000E+00
    0.19223E-07        -0.59607E-09         0.00000E+00
    0.19219E-07        -0.54873E-09         0.00000E+00
    0.19216E-07        -0.49922E-09         0.00000E+00
    0.19212E-07        -0.44759E-09         0.00000E+00
    0.19210E-07        -0.39393E-09         0.00000E+00
    0.19207E-07        -0.33830E-09         0.00000E+00
    0.19205E-07        -0.28076E-09         0.00000E+00
    0.19204E-07        -0.22138E-09         0.00000E+00
    0.19203E-07        -0.16023E-09         0.00000E+00
    0.19202E-07        -0.97378E-10         0.00000E+00
    0.19202E-07        -0.32895E-10         0.00000E+00
    0.18221E-07        -0.42956E-10         0.00000E+00
    0.18220E-07        -0.12601E-09         0.00000E+00
    0.18218E-07        -0.20481E-09         0.00000E+00
    0.18215E-07        -0.27938E-09         0.00000E+00
    0.18211E-07        -0.34978E-09         0.00000E+00
    0.18206E-07        -0.41605E-09         0.00000E+00
    0.18200E-07        -0.47823E-09         0.00000E+00
    0.18194E-07        -0.53637E-09         0.00000E+00
    0.18187E-07        -0.59051E-09         0.00000E+00
    0.18179E-07        -0.64070E-09         0.00000E+00
    0.18172E-07        -0.68699E-09         0.00000E+00
    0.18163E-07        -0.72942E-09         0.00000E+00
    0.18154E-07        -0.76806E-09         0.00000E+00
    0.18145E-07        -0.80295E-09         0.00000E+00
    0.18136E-07        -0.83414E-09         0.00000E+00
    0.18126E-07        -0.86168E-09         0.00000E+00
    0.18116E-07        -0.88563E-09         0.00000E+00
    0.18107E-07        -0.90604E-09         0.00000E+00
    0.18097E-07        -0.92297E-09         0.00000E+00
    0.18086E-07        -0.93646E-09         0.00000E+00
    0.18076E-07        -0.94658E-09         0.00000E+00
    0.18066E-07        -0.95338E-09         0.00000E+00
    0.18056E-07        -0.95692E-09         0.00000E+00
    0.18046E-07        -0.95724E-09         0.00000E+00
    0.18037E-07        -0.95442E-09         0.00000E+00
    0.18027E-07        -0.94851E-09         0.00000E+00
    0.18017E-07        -0.93955E-09         0.00000E+00
    0.18008E-07        -0.92762E-09         0.00000E+00
    0.17999E-07        -0.91277E-09         0.00000E+00
    0.17990E-07        -0.89506E-09         0.00000E+00
    0.17982E-07        -0.87454E-09         0.00000E+00
    0.17974E-07        -0.85128E-09         0.00000E+00
    0.17966E-07        -0.82533E-09         0.00000E+00
    0.17958E-07        -0.79676E-09         0.00000E+00
    0.17951E-07        -0.76562E-09         0.00000E+00
    0.17945E-07        -0.73197E-09         0.00000E+00
    0.17938E-07        -0.69587E-09         0.00000E+00
    0.17932E-07        -0.65739E-09         0.00000E+00
    0.17927E-07        -0.61658E-09         0.00000E+00
    0.17921E-07        -0.57350E-09         0.00000E+00
    0.17917E-07        -0.52822E-09         0.00000E+00
    0.17912E-07        -0.48080E-09         0.00000E+00
    0.17909E-07        -0.43129E-09         0.00000E+00
    0.17905E-07        -0.37977E-09         0.00000E+00
    0.17902E-07        -0.32629E-09         0.00000E+00
    0.17900E-07        -0.27092E-09         0.00000E+00
    0.17898E-07        -0.21372E-09         0.00000E+00
    0.17897E-07        -0.15476E-09         0.00000E+00
    0.17896E-07        -0.94095E-10         0.00000E+00
    0.17895E-07        -0.31802E-10         0.00000E+00
    0.17080E-07        -0.40057E-10         0.00000E+00
    0.17078E-07        -0.11758E-09         0.00000E+00
    0.17076E-07        -0.19125E-09         0.00000E+00
    0.17073E-07        -0.26108E-09         0.00000E+00
    0.17069E-07        -0.32710E-09         0.00000E+00
    0.17064E-07        -0.38934E-09         0.00000E+00
    0.17058E-07        -0.44784E-09         0.00000E+00
    0.17051E-07        -0.50263E-09         0.00000E+00
    0.17044E-07        -0.55374E-09         0.00000E+00
    0.17036E-07        -0.60120E-09         0.00000E+00
    0.17028E-07        -0.64507E-09         0.00000E+00
    0.17019E-07        -0.68536E-09         0.00000E+00
    0.17010E-07        -0.72213E-09         0.00000E+00
    0.17001E-07        -0.75541E-09         0.00000E+00
    0.16991E-07        -0.78525E-09         0.00000E+00
    0.16980E-07        -0.81168E-09         0.00000E+00
    0.16970E-07        -0.83475E-09         0.00000E+00
    0.16960E-07        -0.85451E-09         0.00000E+00
    0.16949E-07        -0.87099E-09         0.00000E+00
    0.16938E-07        -0.88425E-09         0.00000E+00
    0.16927E-07        -0.89433E-09         0.00000E+00
    0.16916E-07        -0.90128E-09         0.00000E+00
    0.16906E-07        -0.90514E-09         0.00000E+00
    0.16895E-07        -0.90596E-09         0.00000E+00
    0.16884E-07        -0.90379E-09         0.00000E+00
    0.16874E-07        -0.89869E-09         0.00000E+00
    0.16864E-07        -0.89069E-09         0.00000E+00
    0.16854E-07        -0.87986E-09         0.00000E+00
    0.16844E-07        -0.86624E-09         0.00000E+00
    0.16834E-07        -0.84988E-09         0.00000E+00
    0.16825E-07        -0.83083E-09         0.00000E+00
    0.16816E-07        -0.80915E-09         0.00000E+00
    0.16807E-07        -0.78488E-09         0.00000E+00
    0.16799E-07        -0.75809E-09         0.00000E+00
    0.16791E-07        -0.72883E-09         0.00000E+00
    0.16783E-07        -0.69714E-09         0.00000E+00
    0.16776E-07        -0.66308E-09         0.00000E+00
    0.16770E-07        -0.62671E-09         0.00000E+00
    0.16763E-07        -0.58808E-09         0.00000E+00
    0.16758E-07        -0.54725E-09         0.00000E+00
    0.16752E-07        -0.50428E-09         0.00000E+00
    0.16747E-07        -0.45921E-09         0.00000E+00
    0.16743E-07        -0.41211E-09         0.00000E+00
    0.16739E-07        -0.36304E-09         0.00000E+00
    0.16736E-07        -0.31205E-09         0.00000E+00
    0.16733E-07        -0.25921E-09         0.00000E+00
    0.16731E-07        -0.20457E-09         0.00000E+00
    0.16729E-07        -0.14819E-09         0.00000E+00
    0.16728E-07        -0.90141E-10         0.00000E+00
    0.16728E-07        -0.30479E-10         0.00000E+00
    0.16051E-07        -0.37116E-10         0.00000E+00
    0.16050E-07        -0.10902E-09         0.00000E+00
    0.16048E-07        -0.17745E-09         0.00000E+00
    0.16045E-07        -0.24240E-09         0.00000E+00
    0.16041E-07        -0.30391E-09         0.00000E+00
    0.16036E-07        -0.36199E-09         0.00000E+00
    0.16030E-07        -0.41666E-09         0.00000E+00
    0.16023E-07        -0.46794E-09         0.00000E+00
    0.16016E-07        -0.51586E-09         0.00000E+00
    0.16008E-07        -0.56044E-09         0.00000E+00
    0.15999E-07        -0.60171E-09         0.00000E+00
    0.15990E-07        -0.63970E-09         0.00000E+00
    0.15981E-07        -0.67444E-09         0.00000E+00
    0.15971E-07        -0.70595E-09         0.00000E+00
    0.15961E-07        -0.73428E-09         0.00000E+00
    0.15950E-07        -0.75945E-09         0.00000E+00
    0.15940E-07        -0.78149E-09         0.00000E+00
    0.15929E-07        -0.80045E-09         0.00000E+00
    0.15918E-07        -0.81636E-09         0.00000E+00
    0.15906E-07        -0.82926E-09         0.00000E+00
    0.15895E-07        -0.83918E-09         0.00000E+00
    0.15884E-07        -0.84616E-09         0.00000E+00
    0.15873E-07        -0.85025E-09         0.00000E+00
    0.15862E-07        -0.85148E-09         0.00000E+00
    0.15851E-07        -0.84989E-09         0.00000E+00
    0.15840E-07        -0.84553E-09         0.00000E+00
    0.15829E-07        -0.83845E-09         0.00000E+00
    0.15818E-07        -0.82867E-09         0.00000E+00
    0.15808E-07        -0.81625E-09         0.00000E+00
    0.15798E-07        -0.80123E-09         0.00000E+00
    0.15788E-07        -0.78366E-09         0.00000E+00
    0.15778E-07        -0.76358E-09         0.00000E+00
    0.15769E-07        -0.74104E-09         0.00000E+00
    0.15760E-07        -0.71608E-09         0.00000E+00
    0.15752E-07        -0.68876E-09         0.00000E+00
    0.15744E-07        -0.65911E-09         0.00000E+00
    0.15736E-07        -0.62720E-09         0.00000E+00
    0.15729E-07        -0.59306E-09         0.00000E+00
    0.15722E-07        -0.55675E-09         0.00000E+00
    0.15716E-07        -0.51832E-09         0.00000E+00
    0.15710E-07        -0.47782E-09         0.00000E+00
    0.15705E-07        -0.43531E-09         0.00000E+00
    0.15700E-07        -0.39082E-09         0.00000E+00
    0.15696E-07        -0.34443E-09         0.00000E+00
    0.15692E-07        -0.29617E-09         0.00000E+00
    0.15689E-07        -0.24612E-09         0.00000E+00
    0.15687E-07        -0.19431E-09         0.00000E+00
    0.15685E-07        -0.14082E-09         0.00000E+00
    0.15684E-07        -0.85687E-10         0.00000E+00
    0.15683E-07        -0.28985E-10         0.00000E+00
    0.15124E-07        -0.34191E-10         0.00000E+00
    0.15123E-07        -0.10049E-09         0.00000E+00
    0.15121E-07        -0.16367E-09         0.00000E+00
    0.15118E-07        -0.22374E-09         0.00000E+00
    0.15114E-07        -0.28070E-09         0.00000E+00
    0.15109E-07        -0.33456E-09         0.00000E+00
    0.15103E-07        -0.38534E-09         0.00000E+00
    0.15096E-07        -0.43304E-09         0.00000E+00
    0.15089E-07        -0.47769E-09         0.00000E+00
    0.15081E-07        -0.51929E-09         0.00000E+00
    0.15072E-07        -0.55787E-09         0.00000E+00
    0.15063E-07        -0.59345E-09         0.00000E+00
    0.15054E-07        -0.62605E-09         0.00000E+00
    0.15044E-07        -0.65568E-09         0.00000E+00
    0.15034E-07        -0.68238E-09         0.00000E+00
    0.15023E-07        -0.70618E-09         0.00000E+00
    0.15012E-07        -0.72708E-09         0.00000E+00
    0.15001E-07        -0.74514E-09         0.00000E+00
    0.14990E-07        -0.76036E-09         0.00000E+00
    0.14979E-07        -0.77279E-09         0.00000E+00
    0.14967E-07        -0.78245E-09         0.00000E+00
    0.14956E-07        -0.78937E-09         0.00000E+00
    0.14945E-07        -0.79360E-09         0.00000E+00
    0.14933E-07        -0.79515E-09         0.00000E+00
    0.14922E-07        -0.79407E-09         0.00000E+00
    0.14911E-07        -0.79039E-09         0.00000E+00
    0.14899E-07        -0.78415E-09         0.00000E+00
    0.14889E-07        -0.77538E-09         0.00000E+00
    0.14878E-07        -0.76413E-09         0.00000E+00
    0.14867E-07        -0.75042E-09         0.00000E+00
    0.14857E-07        -0.73430E-09         0.00000E+00
    0.14847E-07        -0.71582E-09         0.00000E+00
    0.14838E-07        -0.69500E-09         0.00000E+00
    0.14829E-07        -0.67189E-09         0.00000E+00
    0.14820E-07        -0.64654E-09         0.00000E+00
    0.14811E-07        -0.61898E-09         0.00000E+00
    0.14803E-07        -0.58926E-09         0.00000E+00
    0.14796E-07        -0.55742E-09         0.00000E+00
    0.14789E-07        -0.52351E-09         0.00000E+00
    0.14782E-07        -0.48758E-09         0.00000E+00
    0.14776E-07        -0.44966E-09         0.00000E+00
    0.14771E-07        -0.40981E-09         0.00000E+00
    0.14766E-07        -0.36808E-09         0.00000E+00
    0.14762E-07        -0.32451E-09         0.00000E+00
    0.14758E-07        -0.27915E-09         0.00000E+00
    0.14755E-07        -0.23206E-09         0.00000E+00
    0.14752E-07        -0.18328E-09         0.00000E+00
    0.14750E-07        -0.13287E-09         0.00000E+00
    0.14749E-07        -0.80881E-10         0.00000E+00
    0.14748E-07        -0.27370E-10         0.00000E+00
    0.14288E-07        -0.31327E-10         0.00000E+00
    0.14287E-07        -0.92128E-10         0.00000E+00
    0.14285E-07        -0.15015E-09         0.00000E+00
    0.14282E-07        -0.20538E-09         0.00000E+00
    0.14278E-07        -0.25783E-09         0.00000E+00
    0.14273E-07        -0.30750E-09         0.00000E+00
    0.14267E-07        -0.35439E-09         0.00000E+00
    0.14260E-07        -0.39850E-09         0.00000E+00
    0.14253E-07        -0.43985E-09         0.00000E+00
    0.14245E-07        -0.47844E-09         0.00000E+00
    0.14237E-07        -0.51429E-09         0.00000E+00
    0.14228E-07        -0.54741E-09         0.00000E+00
    0.14219E-07        -0.57780E-09         0.00000E+00
    0.14209E-07        -0.60549E-09         0.00000E+00
    0.14199E-07        -0.63050E-09         0.00000E+00
    0.14188E-07        -0.65283E-09         0.00000E+00
    0.14178E-07        -0.67252E-09         0.00000E+00
    0.14167E-07        -0.68958E-09         0.00000E+00
    0.14155E-07        -0.70404E-09         0.00000E+00
    0.14144E-07        -0.71592E-09         0.00000E+00
    0.14133E-07        -0.72523E-09         0.00000E+00
    0.14121E-07        -0.73202E-09         0.00000E+00
    0.14110E-07        -0.73629E-09         0.00000E+00
    0.14098E-07        -0.73809E-09         0.00000E+00
    0.14087E-07        -0.73744E-09         0.00000E+00
    0.14076E-07        -0.73437E-09         0.00000E+00
    0.14064E-07        -0.72891E-09         0.00000E+00
    0.14053E-07        -0.72109E-09         0.00000E+00
    0.14043E-07        -0.71095E-09         0.00000E+00
    0.14032E-07        -0.69851E-09         0.00000E+00
    0.14022E-07        -0.68381E-09         0.00000E+00
    0.14012E-07        -0.66688E-09         0.00000E+00
    0.14002E-07        -0.64776E-09         0.00000E+00
    0.13993E-07        -0.62649E-09         0.00000E+00
    0.13984E-07        -0.60310E-09         0.00000E+00
    0.13975E-07        -0.57763E-09         0.00000E+00
    0.13967E-07        -0.55012E-09         0.00000E+00
    0.13959E-07        -0.52060E-09         0.00000E+00
    0.13952E-07        -0.48912E-09         0.00000E+00
    0.13945E-07        -0.45572E-09         0.00000E+00
    0.13939E-07        -0.42045E-09         0.00000E+00
    0.13934E-07        -0.38333E-09         0.00000E+00
    0.13929E-07        -0.34442E-09         0.00000E+00
    0.13924E-07        -0.30376E-09         0.00000E+00
    0.13920E-07        -0.26140E-09         0.00000E+00
    0.13917E-07        -0.21738E-09         0.00000E+00
    0.13914E-07        -0.17175E-09         0.00000E+00
    0.13912E-07        -0.12455E-09         0.00000E+00
    0.13911E-07        -0.75844E-10         0.00000E+00
    0.13910E-07        -0.25675E-10         0.00000E+00
    0.13533E-07        -0.28555E-10         0.00000E+00
    0.13532E-07        -0.84025E-10         0.00000E+00
    0.13530E-07        -0.13702E-09         0.00000E+00
    0.13527E-07        -0.18755E-09         0.00000E+00
    0.13523E-07        -0.23559E-09         0.00000E+00
    0.13518E-07        -0.28114E-09         0.00000E+00
    0.13513E-07        -0.32420E-09         0.00000E+00
    0.13506E-07        -0.36477E-09         0.00000E+00
    0.13499E-07        -0.40284E-09         0.00000E+00
    0.13492E-07        -0.43844E-09         0.00000E+00
    0.13484E-07        -0.47155E-09         0.00000E+00
    0.13475E-07        -0.50219E-09         0.00000E+00
    0.13466E-07        -0.53036E-09         0.00000E+00
    0.13456E-07        -0.55607E-09         0.00000E+00
    0.13446E-07        -0.57934E-09         0.00000E+00
    0.13436E-07        -0.60017E-09         0.00000E+00
    0.13425E-07        -0.61859E-09         0.00000E+00
    0.13415E-07        -0.63460E-09         0.00000E+00
    0.13404E-07        -0.64822E-09         0.00000E+00
    0.13393E-07        -0.65948E-09         0.00000E+00
    0.13381E-07        -0.66838E-09         0.00000E+00
    0.13370E-07        -0.67495E-09         0.00000E+00
    0.13359E-07        -0.67921E-09         0.00000E+00
    0.13347E-07        -0.68119E-09         0.00000E+00
    0.13336E-07        -0.68090E-09         0.00000E+00
    0.13325E-07        -0.67837E-09         0.00000E+00
    0.13314E-07        -0.67362E-09         0.00000E+00
    0.13303E-07        -0.66668E-09         0.00000E+00
    0.13292E-07        -0.65758E-09         0.00000E+00
    0.13281E-07        -0.64635E-09         0.00000E+00
    0.13271E-07        -0.63301E-09         0.00000E+00
    0.13261E-07        -0.61759E-09         0.00000E+00
    0.13251E-07        -0.60013E-09         0.00000E+00
    0.13242E-07        -0.58066E-09         0.00000E+00
    0.13233E-07        -0.55920E-09         0.00000E+00
    0.13224E-07        -0.53579E-09         0.00000E+00
    0.13216E-07        -0.51046E-09         0.00000E+00
    0.13209E-07        -0.48326E-09         0.00000E+00
    0.13201E-07        -0.45421E-09         0.00000E+00
    0.13195E-07        -0.42335E-09         0.00000E+00
    0.13188E-07        -0.39072E-09         0.00000E+00
    0.13183E-07        -0.35635E-09         0.00000E+00
    0.13178E-07        -0.32030E-09         0.00000E+00
    0.13173E-07        -0.28258E-09         0.00000E+00
    0.13169E-07        -0.24326E-09         0.00000E+00
    0.13166E-07        -0.20236E-09         0.00000E+00
    0.13163E-07        -0.15993E-09         0.00000E+00
    0.13161E-07        -0.11602E-09         0.00000E+00
    0.13160E-07        -0.70674E-10         0.00000E+00
    0.13159E-07        -0.23933E-10         0.00000E+00
    0.12852E-07        -0.25898E-10         0.00000E+00
    0.12851E-07        -0.76248E-10         0.00000E+00
    0.12849E-07        -0.12442E-09         0.00000E+00
    0.12846E-07        -0.17039E-09         0.00000E+00
    0.12843E-07        -0.21415E-09         0.00000E+00
    0.12838E-07        -0.25571E-09         0.00000E+00
    0.12833E-07        -0.29503E-09         0.00000E+00
    0.12827E-07        -0.33214E-09         0.00000E+00
    0.12820E-07        -0.36701E-09         0.00000E+00
    0.12812E-07        -0.39965E-09         0.00000E+00
    0.12805E-07        -0.43006E-09         0.00000E+00
    0.12796E-07        -0.45824E-09         0.00000E+00
    0.12787E-07        -0.48419E-09         0.00000E+00
    0.12778E-07        -0.50792E-09         0.00000E+00
    0.12768E-07        -0.52943E-09         0.00000E+00
    0.12758E-07        -0.54874E-09         0.00000E+00
    0.12748E-07        -0.56585E-09         0.00000E+00
    0.12738E-07        -0.58077E-09         0.00000E+00
    0.12727E-07        -0.59352E-09         0.00000E+00
    0.12716E-07        -0.60410E-09         0.00000E+00
    0.12705E-07        -0.61254E-09         0.00000E+00
    0.12694E-07        -0.61884E-09         0.00000E+00
    0.12683E-07        -0.62302E-09         0.00000E+00
    0.12672E-07        -0.62510E-09         0.00000E+00
    0.12661E-07        -0.62510E-09         0.00000E+00
    0.12650E-07        -0.62304E-09         0.00000E+00
    0.12639E-07        -0.61894E-09         0.00000E+00
    0.12628E-07        -0.61282E-09         0.00000E+00
    0.12617E-07        -0.60470E-09         0.00000E+00
    0.12607E-07        -0.59461E-09         0.00000E+00
    0.12597E-07        -0.58257E-09         0.00000E+00
    0.12587E-07        -0.56860E-09         0.00000E+00
    0.12577E-07        -0.55274E-09         0.00000E+00
    0.12568E-07        -0.53500E-09         0.00000E+00
    0.12559E-07        -0.51542E-09         0.00000E+00
    0.12551E-07        -0.49402E-09         0.00000E+00
    0.12543E-07        -0.47085E-09         0.00000E+00
    0.12535E-07        -0.44591E-09         0.00000E+00
    0.12528E-07        -0.41925E-09         0.00000E+00
    0.12521E-07        -0.39090E-09         0.00000E+00
    0.12515E-07        -0.36090E-09         0.00000E+00
    0.12509E-07        -0.32927E-09         0.00000E+00
    0.12504E-07        -0.29605E-09         0.00000E+00
    0.12499E-07        -0.26128E-09         0.00000E+00
    0.12495E-07        -0.22499E-09         0.00000E+00
    0.12492E-07        -0.18722E-09         0.00000E+00
    0.12489E-07        -0.14802E-09         0.00000E+00
    0.12487E-07        -0.10741E-09         0.00000E+00
    0.12486E-07        -0.65451E-10         0.00000E+00
    0.12485E-07        -0.22172E-10         0.00000E+00
    0.12239E-07        -0.23370E-10         0.00000E+00
    0.12238E-07        -0.68838E-10         0.00000E+00
    0.12236E-07        -0.11239E-09         0.00000E+00
    0.12233E-07        -0.15400E-09         0.00000E+00
    0.12229E-07        -0.19366E-09         0.00000E+00
    0.12225E-07        -0.23136E-09         0.00000E+00
    0.12220E-07        -0.26708E-09         0.00000E+00
    0.12214E-07        -0.30082E-09         0.00000E+00
    0.12208E-07        -0.33258E-09         0.00000E+00
    0.12201E-07        -0.36234E-09         0.00000E+00
    0.12193E-07        -0.39010E-09         0.00000E+00
    0.12185E-07        -0.41586E-09         0.00000E+00
    0.12176E-07        -0.43963E-09         0.00000E+00
    0.12168E-07        -0.46139E-09         0.00000E+00
    0.12158E-07        -0.48116E-09         0.00000E+00
    0.12149E-07        -0.49894E-09         0.00000E+00
    0.12139E-07        -0.51473E-09         0.00000E+00
    0.12129E-07        -0.52854E-09         0.00000E+00
    0.12118E-07        -0.54037E-09         0.00000E+00
    0.12108E-07        -0.55025E-09         0.00000E+00
    0.12097E-07        -0.55817E-09         0.00000E+00
    0.12086E-07        -0.56415E-09         0.00000E+00
    0.12075E-07        -0.56820E-09         0.00000E+00
    0.12065E-07        -0.57033E-09         0.00000E+00
    0.12054E-07        -0.57056E-09         0.00000E+00
    0.12043E-07        -0.56891E-09         0.00000E+00
    0.12033E-07        -0.56538E-09         0.00000E+00
    0.12022E-07        -0.56001E-09         0.00000E+00
    0.12012E-07        -0.55280E-09         0.00000E+00
    0.12002E-07        -0.54378E-09         0.00000E+00
    0.11992E-07        -0.53296E-09         0.00000E+00
    0.11982E-07        -0.52037E-09         0.00000E+00
    0.11972E-07        -0.50604E-09         0.00000E+00
    0.11963E-07        -0.48997E-09         0.00000E+00
    0.11955E-07        -0.47221E-09         0.00000E+00
    0.11946E-07        -0.45276E-09         0.00000E+00
    0.11938E-07        -0.43167E-09         0.00000E+00
    0.11931E-07        -0.40895E-09         0.00000E+00
    0.11924E-07        -0.38463E-09         0.00000E+00
    0.11917E-07        -0.35874E-09         0.00000E+00
    0.11911E-07        -0.33131E-09         0.00000E+00
    0.11905E-07        -0.30237E-09         0.00000E+00
    0.11900E-07        -0.27195E-09         0.00000E+00
    0.11896E-07        -0.24008E-09         0.00000E+00
    0.11892E-07        -0.20680E-09         0.00000E+00
    0.11888E-07        -0.17214E-09         0.00000E+00
    0.11886E-07        -0.13613E-09         0.00000E+00
    0.11884E-07        -0.98820E-10         0.00000E+00
    0.11882E-07        -0.60232E-10         0.00000E+00
    0.11882E-07        -0.20411E-10         0.00000E+00
    0.11687E-07        -0.20976E-10         0.00000E+00
    0.11686E-07        -0.61815E-10         0.00000E+00
    0.11684E-07        -0.10097E-09         0.00000E+00
    0.11681E-07        -0.13843E-09         0.00000E+00
    0.11678E-07        -0.17417E-09         0.00000E+00
    0.11674E-07        -0.20817E-09         0.00000E+00
    0.11669E-07        -0.24044E-09         0.00000E+00
    0.11663E-07        -0.27094E-09         0.00000E+00
    0.11657E-07        -0.29968E-09         0.00000E+00
    0.11651E-07        -0.32665E-09         0.00000E+00
    0.11643E-07        -0.35185E-09         0.00000E+00
    0.11636E-07        -0.37525E-09         0.00000E+00
    0.11628E-07        -0.39687E-09         0.00000E+00
    0.11619E-07        -0.41671E-09         0.00000E+00
    0.11610E-07        -0.43475E-09         0.00000E+00
    0.11601E-07        -0.45101E-09         0.00000E+00
    0.11591E-07        -0.46548E-09         0.00000E+00
    0.11582E-07        -0.47816E-09         0.00000E+00
    0.11572E-07        -0.48907E-09         0.00000E+00
    0.11561E-07        -0.49821E-09         0.00000E+00
    0.11551E-07        -0.50558E-09         0.00000E+00
    0.11541E-07        -0.51120E-09         0.00000E+00
    0.11530E-07        -0.51507E-09         0.00000E+00
    0.11520E-07        -0.51720E-09         0.00000E+00
    0.11509E-07        -0.51761E-09         0.00000E+00
    0.11499E-07        -0.51630E-09         0.00000E+00
    0.11489E-07        -0.51329E-09         0.00000E+00
    0.11479E-07        -0.50859E-09         0.00000E+00
    0.11469E-07        -0.50222E-09         0.00000E+00
    0.11459E-07        -0.49420E-09         0.00000E+00
    0.11449E-07        -0.48454E-09         0.00000E+00
    0.11440E-07        -0.47326E-09         0.00000E+00
    0.11430E-07        -0.46037E-09         0.00000E+00
    0.11422E-07        -0.44591E-09         0.00000E+00
    0.11413E-07        -0.42988E-09         0.00000E+00
    0.11405E-07        -0.41231E-09         0.00000E+00
    0.11397E-07        -0.39323E-09         0.00000E+00
    0.11390E-07        -0.37264E-09         0.00000E+00
    0.11383E-07        -0.35059E-09         0.00000E+00
    0.11376E-07        -0.32709E-09         0.00000E+00
    0.11370E-07        -0.30218E-09         0.00000E+00
    0.11365E-07        -0.27586E-09         0.00000E+00
    0.11360E-07        -0.24818E-09         0.00000E+00
    0.11355E-07        -0.21917E-09         0.00000E+00
    0.11351E-07        -0.18884E-09         0.00000E+00
    0.11348E-07        -0.15724E-09         0.00000E+00
    0.11345E-07        -0.12438E-09         0.00000E+00
    0.11343E-07        -0.90314E-10         0.00000E+00
    0.11342E-07        -0.55064E-10         0.00000E+00
    0.11341E-07        -0.18665E-10         0.00000E+00
    0.11192E-07        -0.18717E-10         0.00000E+00
    0.11191E-07        -0.55181E-10         0.00000E+00
    0.11189E-07        -0.90179E-10         0.00000E+00
    0.11187E-07        -0.12369E-09         0.00000E+00
    0.11183E-07        -0.15570E-09         0.00000E+00
    0.11179E-07        -0.18618E-09         0.00000E+00
    0.11175E-07        -0.21513E-09         0.00000E+00
    0.11170E-07        -0.24254E-09         0.00000E+00
    0.11164E-07        -0.26839E-09         0.00000E+00
    0.11157E-07        -0.29267E-09         0.00000E+00
    0.11151E-07        -0.31537E-09         0.00000E+00
    0.11143E-07        -0.33649E-09         0.00000E+00
    0.11135E-07        -0.35603E-09         0.00000E+00
    0.11127E-07        -0.37397E-09         0.00000E+00
    0.11119E-07        -0.39032E-09         0.00000E+00
    0.11110E-07        -0.40508E-09         0.00000E+00
    0.11101E-07        -0.41824E-09         0.00000E+00
    0.11092E-07        -0.42980E-09         0.00000E+00
    0.11082E-07        -0.43978E-09         0.00000E+00
    0.11072E-07        -0.44816E-09         0.00000E+00
    0.11062E-07        -0.45496E-09         0.00000E+00
    0.11052E-07        -0.46018E-09         0.00000E+00
    0.11042E-07        -0.46383E-09         0.00000E+00
    0.11032E-07        -0.46592E-09         0.00000E+00
    0.11022E-07        -0.46645E-09         0.00000E+00
    0.11012E-07        -0.46543E-09         0.00000E+00
    0.11002E-07        -0.46287E-09         0.00000E+00
    0.10992E-07        -0.45879E-09         0.00000E+00
    0.10983E-07        -0.45319E-09         0.00000E+00
    0.10973E-07        -0.44610E-09         0.00000E+00
    0.10964E-07        -0.43752E-09         0.00000E+00
    0.10955E-07        -0.42746E-09         0.00000E+00
    0.10946E-07        -0.41596E-09         0.00000E+00
    0.10937E-07        -0.40301E-09         0.00000E+00
    0.10929E-07        -0.38864E-09         0.00000E+00
    0.10921E-07        -0.37287E-09         0.00000E+00
    0.10913E-07        -0.35572E-09         0.00000E+00
    0.10906E-07        -0.33720E-09         0.00000E+00
    0.10899E-07        -0.31733E-09         0.00000E+00
    0.10893E-07        -0.29615E-09         0.00000E+00
    0.10887E-07        -0.27367E-09         0.00000E+00
    0.10882E-07        -0.24990E-09         0.00000E+00
    0.10877E-07        -0.22489E-09         0.00000E+00
    0.10873E-07        -0.19865E-09         0.00000E+00
    0.10869E-07        -0.17121E-09         0.00000E+00
    0.10866E-07        -0.14259E-09         0.00000E+00
    0.10863E-07        -0.11283E-09         0.00000E+00
    0.10861E-07        -0.81947E-10         0.00000E+00
    0.10860E-07        -0.49976E-10         0.00000E+00
    0.10859E-07        -0.16945E-10         0.00000E+00
    0.10750E-07        -0.16589E-10         0.00000E+00
    0.10749E-07        -0.48928E-10         0.00000E+00
    0.10747E-07        -0.79994E-10         0.00000E+00
    0.10745E-07        -0.10977E-09         0.00000E+00
    0.10742E-07        -0.13823E-09         0.00000E+00
    0.10738E-07        -0.16537E-09         0.00000E+00
    0.10734E-07        -0.19116E-09         0.00000E+00
    0.10729E-07        -0.21560E-09         0.00000E+00
    0.10723E-07        -0.23867E-09         0.00000E+00
    0.10717E-07        -0.26037E-09         0.00000E+00
    0.10711E-07        -0.28068E-09         0.00000E+00
    0.10704E-07        -0.29959E-09         0.00000E+00
    0.10696E-07        -0.31711E-09         0.00000E+00
    0.10689E-07        -0.33321E-09         0.00000E+00
    0.10680E-07        -0.34791E-09         0.00000E+00
    0.10672E-07        -0.36119E-09         0.00000E+00
    0.10663E-07        -0.37306E-09         0.00000E+00
    0.10654E-07        -0.38351E-09         0.00000E+00
    0.10645E-07        -0.39255E-09         0.00000E+00
    0.10636E-07        -0.40017E-09         0.00000E+00
    0.10626E-07        -0.40638E-09         0.00000E+00
    0.10617E-07        -0.41118E-09         0.00000E+00
    0.10607E-07        -0.41458E-09         0.00000E+00
    0.10598E-07        -0.41658E-09         0.00000E+00
    0.10588E-07        -0.41718E-09         0.00000E+00
    0.10578E-07        -0.41640E-09         0.00000E+00
    0.10569E-07        -0.41424E-09         0.00000E+00
    0.10559E-07        -0.41071E-09         0.00000E+00
    0.10550E-07        -0.40583E-09         0.00000E+00
    0.10541E-07        -0.39959E-09         0.00000E+00
    0.10532E-07        -0.39202E-09         0.00000E+00
    0.10523E-07        -0.38312E-09         0.00000E+00
    0.10514E-07        -0.37292E-09         0.00000E+00
    0.10506E-07        -0.36141E-09         0.00000E+00
    0.10498E-07        -0.34862E-09         0.00000E+00
    0.10490E-07        -0.33457E-09         0.00000E+00
    0.10483E-07        -0.31926E-09         0.00000E+00
    0.10476E-07        -0.30272E-09         0.00000E+00
    0.10469E-07        -0.28496E-09         0.00000E+00
    0.10463E-07        -0.26601E-09         0.00000E+00
    0.10457E-07        -0.24587E-09         0.00000E+00
    0.10452E-07        -0.22458E-09         0.00000E+00
    0.10447E-07        -0.20215E-09         0.00000E+00
    0.10443E-07        -0.17861E-09         0.00000E+00
    0.10439E-07        -0.15398E-09         0.00000E+00
    0.10436E-07        -0.12827E-09         0.00000E+00
    0.10434E-07        -0.10152E-09         0.00000E+00
    0.10432E-07        -0.73751E-10         0.00000E+00
    0.10430E-07        -0.44988E-10         0.00000E+00
    0.10430E-07        -0.15258E-10         0.00000E+00
    0.10357E-07        -0.14586E-10         0.00000E+00
    0.10356E-07        -0.43036E-10         0.00000E+00
    0.10355E-07        -0.70389E-10         0.00000E+00
    0.10352E-07        -0.96625E-10         0.00000E+00
    0.10350E-07        -0.12173E-09         0.00000E+00
    0.10346E-07        -0.14568E-09         0.00000E+00
    0.10342E-07        -0.16847E-09         0.00000E+00
    0.10337E-07        -0.19008E-09         0.00000E+00
    0.10332E-07        -0.21049E-09         0.00000E+00
    0.10326E-07        -0.22971E-09         0.00000E+00
    0.10320E-07        -0.24772E-09         0.00000E+00
    0.10313E-07        -0.26450E-09         0.00000E+00
    0.10306E-07        -0.28006E-09         0.00000E+00
    0.10299E-07        -0.29439E-09         0.00000E+00
    0.10291E-07        -0.30747E-09         0.00000E+00
    0.10283E-07        -0.31932E-09         0.00000E+00
    0.10275E-07        -0.32992E-09         0.00000E+00
    0.10266E-07        -0.33927E-09         0.00000E+00
    0.10258E-07        -0.34737E-09         0.00000E+00
    0.10249E-07        -0.35422E-09         0.00000E+00
    0.10240E-07        -0.35983E-09         0.00000E+00
    0.10230E-07        -0.36419E-09         0.00000E+00
    0.10221E-07        -0.36731E-09         0.00000E+00
    0.10212E-07        -0.36918E-09         0.00000E+00
    0.10203E-07        -0.36983E-09         0.00000E+00
    0.10193E-07        -0.36924E-09         0.00000E+00
    0.10184E-07        -0.36742E-09         0.00000E+00
    0.10175E-07        -0.36439E-09         0.00000E+00
    0.10166E-07        -0.36016E-09         0.00000E+00
    0.10157E-07        -0.35472E-09         0.00000E+00
    0.10148E-07        -0.34809E-09         0.00000E+00
    0.10140E-07        -0.34027E-09         0.00000E+00
    0.10132E-07        -0.33129E-09         0.00000E+00
    0.10124E-07        -0.32115E-09         0.00000E+00
    0.10116E-07        -0.30986E-09         0.00000E+00
    0.10108E-07        -0.29744E-09         0.00000E+00
    0.10101E-07        -0.28390E-09         0.00000E+00
    0.10094E-07        -0.26926E-09         0.00000E+00
    0.10088E-07        -0.25352E-09         0.00000E+00
    0.10082E-07        -0.23671E-09         0.00000E+00
    0.10077E-07        -0.21885E-09         0.00000E+00
    0.10071E-07        -0.19994E-09         0.00000E+00
    0.10067E-07        -0.18001E-09         0.00000E+00
    0.10063E-07        -0.15908E-09         0.00000E+00
    0.10059E-07        -0.13717E-09         0.00000E+00
    0.10056E-07        -0.11430E-09         0.00000E+00
    0.10054E-07        -0.90479E-10         0.00000E+00
    0.10052E-07        -0.65744E-10         0.00000E+00
    0.10050E-07        -0.40112E-10         0.00000E+00
    0.10050E-07        -0.13607E-10         0.00000E+00
    0.10011E-07        -0.12699E-10         0.00000E+00
    0.10010E-07        -0.37480E-10         0.00000E+00
    0.10009E-07        -0.61323E-10         0.00000E+00
    0.10007E-07        -0.84210E-10         0.00000E+00
    0.10004E-07        -0.10612E-09         0.00000E+00
    0.10000E-07        -0.12705E-09         0.00000E+00
    0.99966E-08        -0.14697E-09         0.00000E+00
    0.99921E-08        -0.16588E-09         0.00000E+00
    0.99872E-08        -0.18376E-09         0.00000E+00
    0.99817E-08        -0.20060E-09         0.00000E+00
    0.99758E-08        -0.21639E-09         0.00000E+00
    0.99695E-08        -0.23113E-09         0.00000E+00
    0.99628E-08        -0.24480E-09         0.00000E+00
    0.99558E-08        -0.25740E-09         0.00000E+00
    0.99484E-08        -0.26892E-09         0.00000E+00
    0.99407E-08        -0.27936E-09         0.00000E+00
    0.99328E-08        -0.28871E-09         0.00000E+00
    0.99246E-08        -0.29698E-09         0.00000E+00
    0.99163E-08        -0.30416E-09         0.00000E+00
    0.99077E-08        -0.31024E-09         0.00000E+00
    0.98991E-08        -0.31524E-09         0.00000E+00
    0.98903E-08        -0.31914E-09         0.00000E+00
    0.98815E-08        -0.32196E-09         0.00000E+00
    0.98726E-08        -0.32368E-09         0.00000E+00
    0.98636E-08        -0.32433E-09         0.00000E+00
    0.98547E-08        -0.32389E-09         0.00000E+00
    0.98459E-08        -0.32238E-09         0.00000E+00
    0.98371E-08        -0.31980E-09         0.00000E+00
    0.98284E-08        -0.31615E-09         0.00000E+00
    0.98198E-08        -0.31145E-09         0.00000E+00
    0.98114E-08        -0.30570E-09         0.00000E+00
    0.98032E-08        -0.29890E-09         0.00000E+00
    0.97952E-08        -0.29108E-09         0.00000E+00
    0.97874E-08        -0.28223E-09         0.00000E+00
    0.97799E-08        -0.27236E-09         0.00000E+00
    0.97726E-08        -0.26150E-09         0.00000E+00
    0.97657E-08        -0.24965E-09         0.00000E+00
    0.97592E-08        -0.23682E-09         0.00000E+00
    0.97530E-08        -0.22302E-09         0.00000E+00
    0.97472E-08        -0.20828E-09         0.00000E+00
    0.97418E-08        -0.19259E-09         0.00000E+00
    0.97368E-08        -0.17599E-09         0.00000E+00
    0.97324E-08        -0.15848E-09         0.00000E+00
    0.97284E-08        -0.14008E-09         0.00000E+00
    0.97249E-08        -0.12080E-09         0.00000E+00
    0.97219E-08        -0.10068E-09         0.00000E+00
    0.97195E-08        -0.79713E-10         0.00000E+00
    0.97177E-08        -0.57931E-10         0.00000E+00
    0.97164E-08        -0.35351E-10         0.00000E+00
    0.97158E-08        -0.11994E-10         0.00000E+00
    0.97087E-08        -0.10917E-10         0.00000E+00
    0.97081E-08        -0.32230E-10         0.00000E+00
    0.97067E-08        -0.52750E-10         0.00000E+00
    0.97047E-08        -0.72459E-10         0.00000E+00
    0.97022E-08        -0.91343E-10         0.00000E+00
    0.96990E-08        -0.10939E-09         0.00000E+00
    0.96953E-08        -0.12658E-09         0.00000E+00
    0.96911E-08        -0.14290E-09         0.00000E+00
    0.96863E-08        -0.15835E-09         0.00000E+00
    0.96812E-08        -0.17291E-09         0.00000E+00
    0.96756E-08        -0.18658E-09         0.00000E+00
    0.96695E-08        -0.19933E-09         0.00000E+00
    0.96632E-08        -0.21118E-09         0.00000E+00
    0.96564E-08        -0.22211E-09         0.00000E+00
    0.96494E-08        -0.23211E-09         0.00000E+00
    0.96421E-08        -0.24118E-09         0.00000E+00
    0.96345E-08        -0.24932E-09         0.00000E+00
    0.96267E-08        -0.25652E-09         0.00000E+00
    0.96187E-08        -0.26278E-09         0.00000E+00
    0.96105E-08        -0.26810E-09         0.00000E+00
    0.96022E-08        -0.27248E-09         0.00000E+00
    0.95937E-08        -0.27592E-09         0.00000E+00
    0.95852E-08        -0.27841E-09         0.00000E+00
    0.95767E-08        -0.27997E-09         0.00000E+00
    0.95681E-08        -0.28058E-09         0.00000E+00
    0.95595E-08        -0.28026E-09         0.00000E+00
    0.95510E-08        -0.27901E-09         0.00000E+00
    0.95425E-08        -0.27683E-09         0.00000E+00
    0.95342E-08        -0.27373E-09         0.00000E+00
    0.95259E-08        -0.26971E-09         0.00000E+00
    0.95178E-08        -0.26478E-09         0.00000E+00
    0.95098E-08        -0.25894E-09         0.00000E+00
    0.95021E-08        -0.25220E-09         0.00000E+00
    0.94945E-08        -0.24458E-09         0.00000E+00
    0.94873E-08        -0.23607E-09         0.00000E+00
    0.94803E-08        -0.22670E-09         0.00000E+00
    0.94736E-08        -0.21646E-09         0.00000E+00
    0.94672E-08        -0.20536E-09         0.00000E+00
    0.94612E-08        -0.19343E-09         0.00000E+00
    0.94556E-08        -0.18067E-09         0.00000E+00
    0.94503E-08        -0.16709E-09         0.00000E+00
    0.94455E-08        -0.15271E-09         0.00000E+00
    0.94412E-08        -0.13753E-09         0.00000E+00
    0.94373E-08        -0.12158E-09         0.00000E+00
    0.94339E-08        -0.10487E-09         0.00000E+00
    0.94310E-08        -0.87408E-10         0.00000E+00
    0.94286E-08        -0.69216E-10         0.00000E+00
    0.94269E-08        -0.50309E-10         0.00000E+00
    0.94256E-08        -0.30704E-10         0.00000E+00
    0.94250E-08        -0.10419E-10         0.00000E+00
    0.94488E-08        -0.92287E-11         0.00000E+00
    0.94482E-08        -0.27253E-10         0.00000E+00
    0.94469E-08        -0.44617E-10         0.00000E+00
    0.94450E-08        -0.61304E-10         0.00000E+00
    0.94426E-08        -0.77301E-10         0.00000E+00
    0.94396E-08        -0.92595E-10         0.00000E+00
    0.94360E-08        -0.10717E-09         0.00000E+00
    0.94320E-08        -0.12103E-09         0.00000E+00
    0.94275E-08        -0.13414E-09         0.00000E+00
    0.94226E-08        -0.14651E-09         0.00000E+00
    0.94172E-08        -0.15813E-09         0.00000E+00
    0.94115E-08        -0.16898E-09         0.00000E+00
    0.94053E-08        -0.17906E-09         0.00000E+00
    0.93989E-08        -0.18837E-09         0.00000E+00
    0.93922E-08        -0.19689E-09         0.00000E+00
    0.93851E-08        -0.20463E-09         0.00000E+00
    0.93779E-08        -0.21158E-09         0.00000E+00
    0.93704E-08        -0.21773E-09         0.00000E+00
    0.93627E-08        -0.22309E-09         0.00000E+00
    0.93548E-08        -0.22765E-09         0.00000E+00
    0.93468E-08        -0.23141E-09         0.00000E+00
    0.93387E-08        -0.23437E-09         0.00000E+00
    0.93305E-08        -0.23653E-09         0.00000E+00
    0.93223E-08        -0.23789E-09         0.00000E+00
    0.93140E-08        -0.23845E-09         0.00000E+00
    0.93058E-08        -0.23822E-09         0.00000E+00
    0.92975E-08        -0.23719E-09         0.00000E+00
    0.92893E-08        -0.23537E-09         0.00000E+00
    0.92812E-08        -0.23277E-09         0.00000E+00
    0.92733E-08        -0.22938E-09         0.00000E+00
    0.92654E-08        -0.22522E-09         0.00000E+00
    0.92577E-08        -0.22028E-09         0.00000E+00
    0.92502E-08        -0.21458E-09         0.00000E+00
    0.92429E-08        -0.20812E-09         0.00000E+00
    0.92358E-08        -0.20091E-09         0.00000E+00
    0.92291E-08        -0.19295E-09         0.00000E+00
    0.92226E-08        -0.18425E-09         0.00000E+00
    0.92164E-08        -0.17483E-09         0.00000E+00
    0.92105E-08        -0.16469E-09         0.00000E+00
    0.92051E-08        -0.15384E-09         0.00000E+00
    0.92000E-08        -0.14229E-09         0.00000E+00
    0.91953E-08        -0.13006E-09         0.00000E+00
    0.91910E-08        -0.11714E-09         0.00000E+00
    0.91872E-08        -0.10357E-09         0.00000E+00
    0.91839E-08        -0.89336E-10         0.00000E+00
    0.91811E-08        -0.74468E-10         0.00000E+00
    0.91788E-08        -0.58974E-10         0.00000E+00
    0.91771E-08        -0.42868E-10         0.00000E+00
    0.91759E-08        -0.26164E-10         0.00000E+00
    0.91753E-08        -0.88792E-11         0.00000E+00
    0.92294E-08        -0.76230E-11         0.00000E+00
    0.92287E-08        -0.22516E-10         0.00000E+00
    0.92275E-08        -0.36870E-10         0.00000E+00
    0.92257E-08        -0.50671E-10         0.00000E+00
    0.92234E-08        -0.63908E-10         0.00000E+00
    0.92205E-08        -0.76569E-10         0.00000E+00
    0.92171E-08        -0.88644E-10         0.00000E+00
    0.92133E-08        -0.10012E-09         0.00000E+00
    0.92089E-08        -0.11099E-09         0.00000E+00
    0.92042E-08        -0.12125E-09         0.00000E+00
    0.91991E-08        -0.13089E-09         0.00000E+00
    0.91936E-08        -0.13990E-09         0.00000E+00
    0.91877E-08        -0.14827E-09         0.00000E+00
    0.91815E-08        -0.15600E-09         0.00000E+00
    0.91750E-08        -0.16309E-09         0.00000E+00
    0.91682E-08        -0.16952E-09         0.00000E+00
    0.91612E-08        -0.17530E-09         0.00000E+00
    0.91540E-08        -0.18043E-09         0.00000E+00
    0.91466E-08        -0.18489E-09         0.00000E+00
    0.91390E-08        -0.18869E-09         0.00000E+00
    0.91313E-08        -0.19184E-09         0.00000E+00
    0.91235E-08        -0.19431E-09         0.00000E+00
    0.91156E-08        -0.19613E-09         0.00000E+00
    0.91076E-08        -0.19727E-09         0.00000E+00
    0.90996E-08        -0.19776E-09         0.00000E+00
    0.90916E-08        -0.19759E-09         0.00000E+00
    0.90837E-08        -0.19675E-09         0.00000E+00
    0.90757E-08        -0.19526E-09         0.00000E+00
    0.90679E-08        -0.19312E-09         0.00000E+00
    0.90601E-08        -0.19033E-09         0.00000E+00
    0.90525E-08        -0.18688E-09         0.00000E+00
    0.90451E-08        -0.18280E-09         0.00000E+00
    0.90378E-08        -0.17808E-09         0.00000E+00
    0.90307E-08        -0.17273E-09         0.00000E+00
    0.90238E-08        -0.16675E-09         0.00000E+00
    0.90172E-08        -0.16016E-09         0.00000E+00
    0.90109E-08        -0.15295E-09         0.00000E+00
    0.90049E-08        -0.14513E-09         0.00000E+00
    0.89992E-08        -0.13672E-09         0.00000E+00
    0.89939E-08        -0.12771E-09         0.00000E+00
    0.89889E-08        -0.11813E-09         0.00000E+00
    0.89843E-08        -0.10797E-09         0.00000E+00
    0.89802E-08        -0.97256E-10         0.00000E+00
    0.89765E-08        -0.85985E-10         0.00000E+00
    0.89732E-08        -0.74172E-10         0.00000E+00
    0.89705E-08        -0.61828E-10         0.00000E+00
    0.89682E-08        -0.48964E-10         0.00000E+00
    0.89665E-08        -0.35591E-10         0.00000E+00
    0.89654E-08        -0.21723E-10         0.00000E+00
    0.89648E-08        -0.73719E-11         0.00000E+00
    0.90489E-08        -0.60876E-11         0.00000E+00
    0.90483E-08        -0.17984E-10         0.00000E+00
    0.90471E-08        -0.29455E-10         0.00000E+00
    0.90454E-08        -0.40488E-10         0.00000E+00
    0.90432E-08        -0.51073E-10         0.00000E+00
    0.90404E-08        -0.61202E-10         0.00000E+00
    0.90372E-08        -0.70864E-10         0.00000E+00
    0.90334E-08        -0.80052E-10         0.00000E+00
    0.90293E-08        -0.88757E-10         0.00000E+00
    0.90247E-08        -0.96973E-10         0.00000E+00
    0.90198E-08        -0.10469E-09         0.00000E+00
    0.90145E-08        -0.11191E-09         0.00000E+00
    0.90088E-08        -0.11862E-09         0.00000E+00
    0.90028E-08        -0.12482E-09         0.00000E+00
    0.89966E-08        -0.13050E-09         0.00000E+00
    0.89900E-08        -0.13566E-09         0.00000E+00
    0.89833E-08        -0.14030E-09         0.00000E+00
    0.89763E-08        -0.14441E-09         0.00000E+00
    0.89691E-08        -0.14799E-09         0.00000E+00
    0.89618E-08        -0.15105E-09         0.00000E+00
    0.89543E-08        -0.15357E-09         0.00000E+00
    0.89467E-08        -0.15556E-09         0.00000E+00
    0.89390E-08        -0.15702E-09         0.00000E+00
    0.89313E-08        -0.15794E-09         0.00000E+00
    0.89236E-08        -0.15833E-09         0.00000E+00
    0.89158E-08        -0.15820E-09         0.00000E+00
    0.89080E-08        -0.15753E-09         0.00000E+00
    0.89003E-08        -0.15634E-09         0.00000E+00
    0.88927E-08        -0.15462E-09         0.00000E+00
    0.88852E-08        -0.15238E-09         0.00000E+00
    0.88777E-08        -0.14962E-09         0.00000E+00
    0.88705E-08        -0.14635E-09         0.00000E+00
    0.88634E-08        -0.14257E-09         0.00000E+00
    0.88565E-08        -0.13828E-09         0.00000E+00
    0.88498E-08        -0.13349E-09         0.00000E+00
    0.88433E-08        -0.12820E-09         0.00000E+00
    0.88372E-08        -0.12242E-09         0.00000E+00
    0.88313E-08        -0.11616E-09         0.00000E+00
    0.88257E-08        -0.10942E-09         0.00000E+00
    0.88205E-08        -0.10221E-09         0.00000E+00
    0.88156E-08        -0.94530E-10         0.00000E+00
    0.88112E-08        -0.86395E-10         0.00000E+00
    0.88071E-08        -0.77812E-10         0.00000E+00
    0.88035E-08        -0.68788E-10         0.00000E+00
    0.88003E-08        -0.59331E-10         0.00000E+00
    0.87976E-08        -0.49451E-10         0.00000E+00
    0.87954E-08        -0.39158E-10         0.00000E+00
    0.87937E-08        -0.28460E-10         0.00000E+00
    0.87926E-08        -0.17368E-10         0.00000E+00
    0.87920E-08        -0.58932E-11         0.00000E+00
    0.89064E-08        -0.46111E-11         0.00000E+00
    0.89058E-08        -0.13624E-10         0.00000E+00
    0.89047E-08        -0.22317E-10         0.00000E+00
    0.89030E-08        -0.30680E-10         0.00000E+00
    0.89009E-08        -0.38705E-10         0.00000E+00
    0.88982E-08        -0.46386E-10         0.00000E+00
    0.88950E-08        -0.53713E-10         0.00000E+00
    0.88915E-08        -0.60682E-10         0.00000E+00
    0.88874E-08        -0.67285E-10         0.00000E+00
    0.88830E-08        -0.73517E-10         0.00000E+00
    0.88782E-08        -0.79373E-10         0.00000E+00
    0.88731E-08        -0.84847E-10         0.00000E+00
    0.88676E-08        -0.89937E-10         0.00000E+00
    0.88618E-08        -0.94636E-10         0.00000E+00
    0.88557E-08        -0.98943E-10         0.00000E+00
    0.88493E-08        -0.10285E-09         0.00000E+00
    0.88428E-08        -0.10637E-09         0.00000E+00
    0.88360E-08        -0.10948E-09         0.00000E+00
    0.88290E-08        -0.11219E-09         0.00000E+00
    0.88219E-08        -0.11450E-09         0.00000E+00
    0.88146E-08        -0.11640E-09         0.00000E+00
    0.88072E-08        -0.11790E-09         0.00000E+00
    0.87997E-08        -0.11899E-09         0.00000E+00
    0.87922E-08        -0.11968E-09         0.00000E+00
    0.87847E-08        -0.11997E-09         0.00000E+00
    0.87771E-08        -0.11985E-09         0.00000E+00
    0.87695E-08        -0.11933E-09         0.00000E+00
    0.87620E-08        -0.11841E-09         0.00000E+00
    0.87545E-08        -0.11709E-09         0.00000E+00
    0.87472E-08        -0.11538E-09         0.00000E+00
    0.87399E-08        -0.11327E-09         0.00000E+00
    0.87328E-08        -0.11077E-09         0.00000E+00
    0.87259E-08        -0.10789E-09         0.00000E+00
    0.87191E-08        -0.10462E-09         0.00000E+00
    0.87125E-08        -0.10098E-09         0.00000E+00
    0.87062E-08        -0.96956E-10         0.00000E+00
    0.87002E-08        -0.92565E-10         0.00000E+00
    0.86944E-08        -0.87809E-10         0.00000E+00
    0.86890E-08        -0.82693E-10         0.00000E+00
    0.86839E-08        -0.77222E-10         0.00000E+00
    0.86791E-08        -0.71402E-10         0.00000E+00
    0.86747E-08        -0.65240E-10         0.00000E+00
    0.86707E-08        -0.58742E-10         0.00000E+00
    0.86671E-08        -0.51913E-10         0.00000E+00
    0.86640E-08        -0.44763E-10         0.00000E+00
    0.86614E-08        -0.37297E-10         0.00000E+00
    0.86592E-08        -0.29524E-10         0.00000E+00
    0.86576E-08        -0.21451E-10         0.00000E+00
    0.86564E-08        -0.13086E-10         0.00000E+00
    0.86559E-08        -0.44384E-11         0.00000E+00
    0.88010E-08        -0.31819E-11         0.00000E+00
    0.88004E-08        -0.94021E-11         0.00000E+00
    0.87993E-08        -0.15402E-10         0.00000E+00
    0.87977E-08        -0.21174E-10         0.00000E+00
    0.87956E-08        -0.26714E-10         0.00000E+00
    0.87930E-08        -0.32014E-10         0.00000E+00
    0.87899E-08        -0.37071E-10         0.00000E+00
    0.87864E-08        -0.41878E-10         0.00000E+00
    0.87825E-08        -0.46431E-10         0.00000E+00
    0.87782E-08        -0.50727E-10         0.00000E+00
    0.87735E-08        -0.54761E-10         0.00000E+00
    0.87685E-08        -0.58530E-10         0.00000E+00
    0.87632E-08        -0.62030E-10         0.00000E+00
    0.87575E-08        -0.65260E-10         0.00000E+00
    0.87516E-08        -0.68217E-10         0.00000E+00
    0.87454E-08        -0.70898E-10         0.00000E+00
    0.87389E-08        -0.73302E-10         0.00000E+00
    0.87323E-08        -0.75428E-10         0.00000E+00
    0.87255E-08        -0.77274E-10         0.00000E+00
    0.87185E-08        -0.78840E-10         0.00000E+00
    0.87114E-08        -0.80126E-10         0.00000E+00
    0.87042E-08        -0.81130E-10         0.00000E+00
    0.86969E-08        -0.81854E-10         0.00000E+00
    0.86895E-08        -0.82297E-10         0.00000E+00
    0.86821E-08        -0.82461E-10         0.00000E+00
    0.86746E-08        -0.82346E-10         0.00000E+00
    0.86672E-08        -0.81954E-10         0.00000E+00
    0.86598E-08        -0.81286E-10         0.00000E+00
    0.86525E-08        -0.80344E-10         0.00000E+00
    0.86453E-08        -0.79130E-10         0.00000E+00
    0.86382E-08        -0.77646E-10         0.00000E+00
    0.86312E-08        -0.75896E-10         0.00000E+00
    0.86244E-08        -0.73880E-10         0.00000E+00
    0.86177E-08        -0.71604E-10         0.00000E+00
    0.86113E-08        -0.69069E-10         0.00000E+00
    0.86051E-08        -0.66280E-10         0.00000E+00
    0.85991E-08        -0.63240E-10         0.00000E+00
    0.85934E-08        -0.59953E-10         0.00000E+00
    0.85881E-08        -0.56423E-10         0.00000E+00
    0.85830E-08        -0.52656E-10         0.00000E+00
    0.85783E-08        -0.48654E-10         0.00000E+00
    0.85740E-08        -0.44424E-10         0.00000E+00
    0.85701E-08        -0.39970E-10         0.00000E+00
    0.85666E-08        -0.35298E-10         0.00000E+00
    0.85635E-08        -0.30412E-10         0.00000E+00
    0.85609E-08        -0.25320E-10         0.00000E+00
    0.85587E-08        -0.20027E-10         0.00000E+00
    0.85571E-08        -0.14538E-10         0.00000E+00
    0.85560E-08        -0.88615E-11         0.00000E+00
    0.85554E-08        -0.30027E-11         0.00000E+00
    0.87320E-08        -0.17890E-11         0.00000E+00
    0.87315E-08        -0.52860E-11         0.00000E+00
    0.87304E-08        -0.86581E-11         0.00000E+00
    0.87288E-08        -0.11901E-10         0.00000E+00
    0.87268E-08        -0.15011E-10         0.00000E+00
    0.87242E-08        -0.17984E-10         0.00000E+00
    0.87212E-08        -0.20817E-10         0.00000E+00
    0.87178E-08        -0.23506E-10         0.00000E+00
    0.87139E-08        -0.26050E-10         0.00000E+00
    0.87097E-08        -0.28445E-10         0.00000E+00
    0.87051E-08        -0.30690E-10         0.00000E+00
    0.87002E-08        -0.32781E-10         0.00000E+00
    0.86949E-08        -0.34718E-10         0.00000E+00
    0.86894E-08        -0.36500E-10         0.00000E+00
    0.86835E-08        -0.38123E-10         0.00000E+00
    0.86775E-08        -0.39589E-10         0.00000E+00
    0.86711E-08        -0.40896E-10         0.00000E+00
    0.86646E-08        -0.42043E-10         0.00000E+00
    0.86579E-08        -0.43030E-10         0.00000E+00
    0.86511E-08        -0.43857E-10         0.00000E+00
    0.86440E-08        -0.44524E-10         0.00000E+00
    0.86369E-08        -0.45032E-10         0.00000E+00
    0.86297E-08        -0.45380E-10         0.00000E+00
    0.86225E-08        -0.45570E-10         0.00000E+00
    0.86152E-08        -0.45603E-10         0.00000E+00
    0.86078E-08        -0.45480E-10         0.00000E+00
    0.86005E-08        -0.45202E-10         0.00000E+00
    0.85933E-08        -0.44770E-10         0.00000E+00
    0.85860E-08        -0.44186E-10         0.00000E+00
    0.85789E-08        -0.43453E-10         0.00000E+00
    0.85719E-08        -0.42572E-10         0.00000E+00
    0.85650E-08        -0.41545E-10         0.00000E+00
    0.85582E-08        -0.40374E-10         0.00000E+00
    0.85517E-08        -0.39063E-10         0.00000E+00
    0.85453E-08        -0.37614E-10         0.00000E+00
    0.85392E-08        -0.36029E-10         0.00000E+00
    0.85333E-08        -0.34312E-10         0.00000E+00
    0.85277E-08        -0.32466E-10         0.00000E+00
    0.85224E-08        -0.30494E-10         0.00000E+00
    0.85174E-08        -0.28400E-10         0.00000E+00
    0.85127E-08        -0.26187E-10         0.00000E+00
    0.85085E-08        -0.23858E-10         0.00000E+00
    0.85046E-08        -0.21419E-10         0.00000E+00
    0.85011E-08        -0.18872E-10         0.00000E+00
    0.84980E-08        -0.16222E-10         0.00000E+00
    0.84954E-08        -0.13473E-10         0.00000E+00
    0.84933E-08        -0.10630E-10         0.00000E+00
    0.84917E-08        -0.76970E-11         0.00000E+00
    0.84906E-08        -0.46790E-11         0.00000E+00
    0.84901E-08        -0.15807E-11         0.00000E+00
    0.86991E-08        -0.42167E-12         0.00000E+00
    0.86985E-08        -0.12443E-11         0.00000E+00
    0.86975E-08        -0.20343E-11         0.00000E+00
    0.86959E-08        -0.27898E-11         0.00000E+00
    0.86939E-08        -0.35092E-11         0.00000E+00
    0.86914E-08        -0.41909E-11         0.00000E+00
    0.86884E-08        -0.48336E-11         0.00000E+00
    0.86850E-08        -0.54361E-11         0.00000E+00
    0.86812E-08        -0.59974E-11         0.00000E+00
    0.86771E-08        -0.65168E-11         0.00000E+00
    0.86725E-08        -0.69936E-11         0.00000E+00
    0.86677E-08        -0.74273E-11         0.00000E+00
    0.86625E-08        -0.78175E-11         0.00000E+00
    0.86570E-08        -0.81641E-11         0.00000E+00
    0.86512E-08        -0.84670E-11         0.00000E+00
    0.86452E-08        -0.87263E-11         0.00000E+00
    0.86389E-08        -0.89423E-11         0.00000E+00
    0.86325E-08        -0.91154E-11         0.00000E+00
    0.86259E-08        -0.92460E-11         0.00000E+00
    0.86191E-08        -0.93350E-11         0.00000E+00
    0.86121E-08        -0.93829E-11         0.00000E+00
    0.86051E-08        -0.93907E-11         0.00000E+00
    0.85980E-08        -0.93595E-11         0.00000E+00
    0.85908E-08        -0.92903E-11         0.00000E+00
    0.85835E-08        -0.91845E-11         0.00000E+00
    0.85763E-08        -0.90433E-11         0.00000E+00
    0.85690E-08        -0.88682E-11         0.00000E+00
    0.85618E-08        -0.86608E-11         0.00000E+00
    0.85547E-08        -0.84227E-11         0.00000E+00
    0.85476E-08        -0.81557E-11         0.00000E+00
    0.85406E-08        -0.78616E-11         0.00000E+00
    0.85338E-08        -0.75424E-11         0.00000E+00
    0.85271E-08        -0.72001E-11         0.00000E+00
    0.85206E-08        -0.68368E-11         0.00000E+00
    0.85142E-08        -0.64546E-11         0.00000E+00
    0.85081E-08        -0.60559E-11         0.00000E+00
    0.85023E-08        -0.56429E-11         0.00000E+00
    0.84967E-08        -0.52181E-11         0.00000E+00
    0.84914E-08        -0.47840E-11         0.00000E+00
    0.84865E-08        -0.43431E-11         0.00000E+00
    0.84819E-08        -0.38981E-11         0.00000E+00
    0.84776E-08        -0.34515E-11         0.00000E+00
    0.84737E-08        -0.30062E-11         0.00000E+00
    0.84703E-08        -0.25650E-11         0.00000E+00
    0.84672E-08        -0.21306E-11         0.00000E+00
    0.84647E-08        -0.17062E-11         0.00000E+00
    0.84626E-08        -0.12945E-11         0.00000E+00
    0.84609E-08        -0.89870E-12         0.00000E+00
    0.84599E-08        -0.52183E-12         0.00000E+00
    0.84593E-08        -0.16702E-12         0.00000E+00
    0.87019E-08         0.93078E-12         0.00000E+00
    0.87014E-08         0.27541E-11         0.00000E+00
    0.87003E-08         0.45198E-11         0.00000E+00
    0.86988E-08         0.62272E-11         0.00000E+00
    0.86967E-08         0.78759E-11         0.00000E+00
    0.86942E-08         0.94651E-11         0.00000E+00
    0.86913E-08         0.10994E-10         0.00000E+00
    0.86879E-08         0.12462E-10         0.00000E+00
    0.86842E-08         0.13868E-10         0.00000E+00
    0.86800E-08         0.15212E-10         0.00000E+00
    0.86755E-08         0.16491E-10         0.00000E+00
    0.86707E-08         0.17706E-10         0.00000E+00
    0.86655E-08         0.18854E-10         0.00000E+00
    0.86600E-08         0.19936E-10         0.00000E+00
    0.86543E-08         0.20949E-10         0.00000E+00
    0.86483E-08         0.21892E-10         0.00000E+00
    0.86421E-08         0.22764E-10         0.00000E+00
    0.86357E-08         0.23564E-10         0.00000E+00
    0.86291E-08         0.24289E-10         0.00000E+00
    0.86223E-08         0.24940E-10         0.00000E+00
    0.86154E-08         0.25513E-10         0.00000E+00
    0.86084E-08         0.26009E-10         0.00000E+00
    0.86013E-08         0.26424E-10         0.00000E+00
    0.85941E-08         0.26758E-10         0.00000E+00
    0.85869E-08         0.27008E-10         0.00000E+00
    0.85797E-08         0.27174E-10         0.00000E+00
    0.85724E-08         0.27253E-10         0.00000E+00
    0.85653E-08         0.27244E-10         0.00000E+00
    0.85581E-08         0.27145E-10         0.00000E+00
    0.85511E-08         0.26954E-10         0.00000E+00
    0.85441E-08         0.26671E-10         0.00000E+00
    0.85373E-08         0.26292E-10         0.00000E+00
    0.85306E-08         0.25816E-10         0.00000E+00
    0.85241E-08         0.25242E-10         0.00000E+00
    0.85178E-08         0.24567E-10         0.00000E+00
    0.85117E-08         0.23790E-10         0.00000E+00
    0.85059E-08         0.22910E-10         0.00000E+00
    0.85003E-08         0.21924E-10         0.00000E+00
    0.84950E-08         0.20831E-10         0.00000E+00
    0.84901E-08         0.19628E-10         0.00000E+00
    0.84855E-08         0.18315E-10         0.00000E+00
    0.84812E-08         0.16890E-10         0.00000E+00
    0.84773E-08         0.15350E-10         0.00000E+00
    0.84739E-08         0.13695E-10         0.00000E+00
    0.84709E-08         0.11923E-10         0.00000E+00
    0.84683E-08         0.10031E-10         0.00000E+00
    0.84662E-08         0.80191E-11         0.00000E+00
    0.84646E-08         0.58849E-11         0.00000E+00
    0.84635E-08         0.36271E-11         0.00000E+00
    0.84629E-08         0.12441E-11         0.00000E+00
    0.87405E-08         0.22787E-11         0.00000E+00
    0.87399E-08         0.67396E-11         0.00000E+00
    0.87389E-08         0.11054E-10         0.00000E+00
    0.87373E-08         0.15218E-10         0.00000E+00
    0.87353E-08         0.19229E-10         0.00000E+00
    0.87328E-08         0.23084E-10         0.00000E+00
    0.87298E-08         0.26781E-10         0.00000E+00
    0.87265E-08         0.30317E-10         0.00000E+00
    0.87227E-08         0.33689E-10         0.00000E+00
    0.87186E-08         0.36893E-10         0.00000E+00
    0.87140E-08         0.39928E-10         0.00000E+00
    0.87092E-08         0.42791E-10         0.00000E+00
    0.87040E-08         0.45479E-10         0.00000E+00
    0.86985E-08         0.47989E-10         0.00000E+00
    0.86928E-08         0.50320E-10         0.00000E+00
    0.86868E-08         0.52467E-10         0.00000E+00
    0.86806E-08         0.54430E-10         0.00000E+00
    0.86741E-08         0.56205E-10         0.00000E+00
    0.86675E-08         0.57790E-10         0.00000E+00
    0.86607E-08         0.59183E-10         0.00000E+00
    0.86538E-08         0.60382E-10         0.00000E+00
    0.86468E-08         0.61384E-10         0.00000E+00
    0.86396E-08         0.62187E-10         0.00000E+00
    0.86325E-08         0.62789E-10         0.00000E+00
    0.86252E-08         0.63188E-10         0.00000E+00
    0.86180E-08         0.63383E-10         0.00000E+00
    0.86107E-08         0.63370E-10         0.00000E+00
    0.86035E-08         0.63149E-10         0.00000E+00
    0.85964E-08         0.62717E-10         0.00000E+00
    0.85893E-08         0.62073E-10         0.00000E+00
    0.85823E-08         0.61215E-10         0.00000E+00
    0.85755E-08         0.60141E-10         0.00000E+00
    0.85688E-08         0.58850E-10         0.00000E+00
    0.85622E-08         0.57341E-10         0.00000E+00
    0.85559E-08         0.55613E-10         0.00000E+00
    0.85498E-08         0.53663E-10         0.00000E+00
    0.85440E-08         0.51491E-10         0.00000E+00
    0.85384E-08         0.49095E-10         0.00000E+00
    0.85331E-08         0.46476E-10         0.00000E+00
    0.85281E-08         0.43631E-10         0.00000E+00
    0.85235E-08         0.40560E-10         0.00000E+00
    0.85192E-08         0.37262E-10         0.00000E+00
    0.85153E-08         0.33736E-10         0.00000E+00
    0.85118E-08         0.29983E-10         0.00000E+00
    0.85088E-08         0.26001E-10         0.00000E+00
    0.85062E-08         0.21791E-10         0.00000E+00
    0.85041E-08         0.17351E-10         0.00000E+00
    0.85025E-08         0.12683E-10         0.00000E+00
    0.85014E-08         0.77851E-11         0.00000E+00
    0.85008E-08         0.26586E-11         0.00000E+00
    0.88148E-08         0.36325E-11         0.00000E+00
    0.88143E-08         0.10743E-10         0.00000E+00
    0.88132E-08         0.17617E-10         0.00000E+00
    0.88117E-08         0.24249E-10         0.00000E+00
    0.88096E-08         0.30634E-10         0.00000E+00
    0.88071E-08         0.36768E-10         0.00000E+00
    0.88041E-08         0.42644E-10         0.00000E+00
    0.88007E-08         0.48258E-10         0.00000E+00
    0.87969E-08         0.53606E-10         0.00000E+00
    0.87928E-08         0.58682E-10         0.00000E+00
    0.87882E-08         0.63482E-10         0.00000E+00
    0.87833E-08         0.68003E-10         0.00000E+00
    0.87781E-08         0.72239E-10         0.00000E+00
    0.87726E-08         0.76187E-10         0.00000E+00
    0.87668E-08         0.79843E-10         0.00000E+00
    0.87607E-08         0.83203E-10         0.00000E+00
    0.87544E-08         0.86264E-10         0.00000E+00
    0.87479E-08         0.89021E-10         0.00000E+00
    0.87413E-08         0.91472E-10         0.00000E+00
    0.87344E-08         0.93613E-10         0.00000E+00
    0.87274E-08         0.95442E-10         0.00000E+00
    0.87204E-08         0.96955E-10         0.00000E+00
    0.87132E-08         0.98150E-10         0.00000E+00
    0.87059E-08         0.99024E-10         0.00000E+00
    0.86986E-08         0.99574E-10         0.00000E+00
    0.86913E-08         0.99798E-10         0.00000E+00
    0.86840E-08         0.99695E-10         0.00000E+00
    0.86767E-08         0.99261E-10         0.00000E+00
    0.86695E-08         0.98496E-10         0.00000E+00
    0.86624E-08         0.97397E-10         0.00000E+00
    0.86553E-08         0.95962E-10         0.00000E+00
    0.86484E-08         0.94191E-10         0.00000E+00
    0.86417E-08         0.92082E-10         0.00000E+00
    0.86351E-08         0.89634E-10         0.00000E+00
    0.86287E-08         0.86846E-10         0.00000E+00
    0.86225E-08         0.83717E-10         0.00000E+00
    0.86166E-08         0.80246E-10         0.00000E+00
    0.86110E-08         0.76434E-10         0.00000E+00
    0.86057E-08         0.72279E-10         0.00000E+00
    0.86007E-08         0.67782E-10         0.00000E+00
    0.85960E-08         0.62943E-10         0.00000E+00
    0.85917E-08         0.57761E-10         0.00000E+00
    0.85878E-08         0.52238E-10         0.00000E+00
    0.85843E-08         0.46374E-10         0.00000E+00
    0.85812E-08         0.40170E-10         0.00000E+00
    0.85786E-08         0.33626E-10         0.00000E+00
    0.85764E-08         0.26743E-10         0.00000E+00
    0.85748E-08         0.19524E-10         0.00000E+00
    0.85737E-08         0.11970E-10         0.00000E+00
    0.85731E-08         0.40822E-11         0.00000E+00
    0.89254E-08         0.50028E-11         0.00000E+00
    0.89248E-08         0.14795E-10         0.00000E+00
    0.89237E-08         0.24260E-10         0.00000E+00
    0.89221E-08         0.33390E-10         0.00000E+00
    0.89201E-08         0.42178E-10         0.00000E+00
    0.89175E-08         0.50617E-10         0.00000E+00
    0.89145E-08         0.58698E-10         0.00000E+00
    0.89110E-08         0.66416E-10         0.00000E+00
    0.89072E-08         0.73763E-10         0.00000E+00
    0.89029E-08         0.80733E-10         0.00000E+00
    0.88983E-08         0.87320E-10         0.00000E+00
    0.88933E-08         0.93518E-10         0.00000E+00
    0.88880E-08         0.99321E-10         0.00000E+00
    0.88824E-08         0.10472E-09         0.00000E+00
    0.88765E-08         0.10972E-09         0.00000E+00
    0.88704E-08         0.11431E-09         0.00000E+00
    0.88640E-08         0.11848E-09         0.00000E+00
    0.88574E-08         0.12223E-09         0.00000E+00
    0.88506E-08         0.12555E-09         0.00000E+00
    0.88437E-08         0.12845E-09         0.00000E+00
    0.88366E-08         0.13092E-09         0.00000E+00
    0.88294E-08         0.13295E-09         0.00000E+00
    0.88221E-08         0.13454E-09         0.00000E+00
    0.88148E-08         0.13568E-09         0.00000E+00
    0.88074E-08         0.13638E-09         0.00000E+00
    0.87999E-08         0.13664E-09         0.00000E+00
    0.87925E-08         0.13644E-09         0.00000E+00
    0.87852E-08         0.13579E-09         0.00000E+00
    0.87778E-08         0.13469E-09         0.00000E+00
    0.87706E-08         0.13313E-09         0.00000E+00
    0.87634E-08         0.13111E-09         0.00000E+00
    0.87564E-08         0.12863E-09         0.00000E+00
    0.87496E-08         0.12569E-09         0.00000E+00
    0.87429E-08         0.12229E-09         0.00000E+00
    0.87364E-08         0.11843E-09         0.00000E+00
    0.87302E-08         0.11411E-09         0.00000E+00
    0.87242E-08         0.10933E-09         0.00000E+00
    0.87185E-08         0.10408E-09         0.00000E+00
    0.87131E-08         0.98372E-10         0.00000E+00
    0.87080E-08         0.92203E-10         0.00000E+00
    0.87033E-08         0.85575E-10         0.00000E+00
    0.86989E-08         0.78488E-10         0.00000E+00
    0.86949E-08         0.70944E-10         0.00000E+00
    0.86914E-08         0.62945E-10         0.00000E+00
    0.86883E-08         0.54493E-10         0.00000E+00
    0.86856E-08         0.45589E-10         0.00000E+00
    0.86835E-08         0.36238E-10         0.00000E+00
    0.86818E-08         0.26440E-10         0.00000E+00
    0.86807E-08         0.16200E-10         0.00000E+00
    0.86801E-08         0.55211E-11         0.00000E+00
    0.90725E-08         0.64003E-11         0.00000E+00
    0.90719E-08         0.18927E-10         0.00000E+00
    0.90708E-08         0.31034E-10         0.00000E+00
    0.90692E-08         0.42711E-10         0.00000E+00
    0.90670E-08         0.53948E-10         0.00000E+00
    0.90644E-08         0.64735E-10         0.00000E+00
    0.90613E-08         0.75064E-10         0.00000E+00
    0.90578E-08         0.84924E-10         0.00000E+00
    0.90539E-08         0.94308E-10         0.00000E+00
    0.90495E-08         0.10321E-09         0.00000E+00
    0.90448E-08         0.11161E-09         0.00000E+00
    0.90397E-08         0.11952E-09         0.00000E+00
    0.90343E-08         0.12691E-09         0.00000E+00
    0.90286E-08         0.13380E-09         0.00000E+00
    0.90225E-08         0.14016E-09         0.00000E+00
    0.90163E-08         0.14599E-09         0.00000E+00
    0.90097E-08         0.15129E-09         0.00000E+00
    0.90030E-08         0.15604E-09         0.00000E+00
    0.89961E-08         0.16026E-09         0.00000E+00
    0.89890E-08         0.16392E-09         0.00000E+00
    0.89818E-08         0.16703E-09         0.00000E+00
    0.89744E-08         0.16958E-09         0.00000E+00
    0.89670E-08         0.17157E-09         0.00000E+00
    0.89594E-08         0.17299E-09         0.00000E+00
    0.89519E-08         0.17385E-09         0.00000E+00
    0.89443E-08         0.17413E-09         0.00000E+00
    0.89368E-08         0.17383E-09         0.00000E+00
    0.89292E-08         0.17296E-09         0.00000E+00
    0.89218E-08         0.17151E-09         0.00000E+00
    0.89144E-08         0.16947E-09         0.00000E+00
    0.89071E-08         0.16686E-09         0.00000E+00
    0.88999E-08         0.16366E-09         0.00000E+00
    0.88930E-08         0.15987E-09         0.00000E+00
    0.88862E-08         0.15550E-09         0.00000E+00
    0.88796E-08         0.15055E-09         0.00000E+00
    0.88732E-08         0.14501E-09         0.00000E+00
    0.88671E-08         0.13888E-09         0.00000E+00
    0.88613E-08         0.13217E-09         0.00000E+00
    0.88558E-08         0.12489E-09         0.00000E+00
    0.88506E-08         0.11702E-09         0.00000E+00
    0.88458E-08         0.10857E-09         0.00000E+00
    0.88413E-08         0.99543E-10         0.00000E+00
    0.88373E-08         0.89944E-10         0.00000E+00
    0.88337E-08         0.79775E-10         0.00000E+00
    0.88305E-08         0.69038E-10         0.00000E+00
    0.88278E-08         0.57737E-10         0.00000E+00
    0.88256E-08         0.45877E-10         0.00000E+00
    0.88239E-08         0.33461E-10         0.00000E+00
    0.88228E-08         0.20494E-10         0.00000E+00
    0.88222E-08         0.69814E-11         0.00000E+00
    0.92568E-08         0.78363E-11         0.00000E+00
    0.92562E-08         0.23172E-10         0.00000E+00
    0.92551E-08         0.37992E-10         0.00000E+00
    0.92534E-08         0.52284E-10         0.00000E+00
    0.92512E-08         0.66035E-10         0.00000E+00
    0.92485E-08         0.79233E-10         0.00000E+00
    0.92454E-08         0.91866E-10         0.00000E+00
    0.92417E-08         0.10392E-09         0.00000E+00
    0.92377E-08         0.11539E-09         0.00000E+00
    0.92332E-08         0.12627E-09         0.00000E+00
    0.92283E-08         0.13654E-09         0.00000E+00
    0.92231E-08         0.14619E-09         0.00000E+00
    0.92175E-08         0.15521E-09         0.00000E+00
    0.92116E-08         0.16361E-09         0.00000E+00
    0.92054E-08         0.17136E-09         0.00000E+00
    0.91990E-08         0.17847E-09         0.00000E+00
    0.91923E-08         0.18491E-09         0.00000E+00
    0.91853E-08         0.19070E-09         0.00000E+00
    0.91782E-08         0.19582E-09         0.00000E+00
    0.91709E-08         0.20026E-09         0.00000E+00
    0.91635E-08         0.20403E-09         0.00000E+00
    0.91559E-08         0.20710E-09         0.00000E+00
    0.91483E-08         0.20949E-09         0.00000E+00
    0.91406E-08         0.21119E-09         0.00000E+00
    0.91328E-08         0.21219E-09         0.00000E+00
    0.91251E-08         0.21249E-09         0.00000E+00
    0.91173E-08         0.21209E-09         0.00000E+00
    0.91096E-08         0.21098E-09         0.00000E+00
    0.91019E-08         0.20916E-09         0.00000E+00
    0.90943E-08         0.20664E-09         0.00000E+00
    0.90869E-08         0.20341E-09         0.00000E+00
    0.90795E-08         0.19946E-09         0.00000E+00
    0.90724E-08         0.19480E-09         0.00000E+00
    0.90654E-08         0.18943E-09         0.00000E+00
    0.90587E-08         0.18336E-09         0.00000E+00
    0.90521E-08         0.17657E-09         0.00000E+00
    0.90459E-08         0.16907E-09         0.00000E+00
    0.90399E-08         0.16087E-09         0.00000E+00
    0.90343E-08         0.15196E-09         0.00000E+00
    0.90290E-08         0.14235E-09         0.00000E+00
    0.90241E-08         0.13203E-09         0.00000E+00
    0.90195E-08         0.12103E-09         0.00000E+00
    0.90154E-08         0.10933E-09         0.00000E+00
    0.90117E-08         0.96942E-10         0.00000E+00
    0.90085E-08         0.83872E-10         0.00000E+00
    0.90057E-08         0.70124E-10         0.00000E+00
    0.90035E-08         0.55704E-10         0.00000E+00
    0.90017E-08         0.40617E-10         0.00000E+00
    0.90006E-08         0.24870E-10         0.00000E+00
    0.90000E-08         0.84694E-11         0.00000E+00
    0.94792E-08         0.93226E-11         0.00000E+00
    0.94787E-08         0.27565E-10         0.00000E+00
    0.94775E-08         0.45192E-10         0.00000E+00
    0.94757E-08         0.62187E-10         0.00000E+00
    0.94734E-08         0.78535E-10         0.00000E+00
    0.94706E-08         0.94223E-10         0.00000E+00
    0.94674E-08         0.10923E-09         0.00000E+00
    0.94636E-08         0.12356E-09         0.00000E+00
    0.94594E-08         0.13718E-09         0.00000E+00
    0.94547E-08         0.15009E-09         0.00000E+00
    0.94497E-08         0.16228E-09         0.00000E+00
    0.94443E-08         0.17372E-09         0.00000E+00
    0.94385E-08         0.18443E-09         0.00000E+00
    0.94324E-08         0.19438E-09         0.00000E+00
    0.94260E-08         0.20356E-09         0.00000E+00
    0.94193E-08         0.21197E-09         0.00000E+00
    0.94124E-08         0.21959E-09         0.00000E+00
    0.94052E-08         0.22643E-09         0.00000E+00
    0.93978E-08         0.23247E-09         0.00000E+00
    0.93903E-08         0.23771E-09         0.00000E+00
    0.93826E-08         0.24214E-09         0.00000E+00
    0.93748E-08         0.24575E-09         0.00000E+00
    0.93669E-08         0.24855E-09         0.00000E+00
    0.93590E-08         0.25052E-09         0.00000E+00
    0.93510E-08         0.25166E-09         0.00000E+00
    0.93430E-08         0.25197E-09         0.00000E+00
    0.93349E-08         0.25145E-09         0.00000E+00
    0.93270E-08         0.25009E-09         0.00000E+00
    0.93191E-08         0.24789E-09         0.00000E+00
    0.93113E-08         0.24485E-09         0.00000E+00
    0.93036E-08         0.24097E-09         0.00000E+00
    0.92960E-08         0.23625E-09         0.00000E+00
    0.92887E-08         0.23069E-09         0.00000E+00
    0.92815E-08         0.22428E-09         0.00000E+00
    0.92745E-08         0.21704E-09         0.00000E+00
    0.92678E-08         0.20896E-09         0.00000E+00
    0.92614E-08         0.20005E-09         0.00000E+00
    0.92553E-08         0.19030E-09         0.00000E+00
    0.92495E-08         0.17972E-09         0.00000E+00
    0.92440E-08         0.16832E-09         0.00000E+00
    0.92390E-08         0.15609E-09         0.00000E+00
    0.92343E-08         0.14305E-09         0.00000E+00
    0.92300E-08         0.12919E-09         0.00000E+00
    0.92262E-08         0.11453E-09         0.00000E+00
    0.92229E-08         0.99065E-10         0.00000E+00
    0.92201E-08         0.82808E-10         0.00000E+00
    0.92178E-08         0.65763E-10         0.00000E+00
    0.92160E-08         0.47940E-10         0.00000E+00
    0.92148E-08         0.29347E-10         0.00000E+00
    0.92142E-08         0.99914E-11         0.00000E+00
    0.97408E-08         0.10872E-10         0.00000E+00
    0.97402E-08         0.32143E-10         0.00000E+00
    0.97389E-08         0.52692E-10         0.00000E+00
    0.97371E-08         0.72500E-10         0.00000E+00
    0.97347E-08         0.91550E-10         0.00000E+00
    0.97318E-08         0.10982E-09         0.00000E+00
    0.97284E-08         0.12731E-09         0.00000E+00
    0.97244E-08         0.14398E-09         0.00000E+00
    0.97200E-08         0.15984E-09         0.00000E+00
    0.97152E-08         0.17485E-09         0.00000E+00
    0.97099E-08         0.18902E-09         0.00000E+00
    0.97043E-08         0.20233E-09         0.00000E+00
    0.96983E-08         0.21477E-09         0.00000E+00
    0.96919E-08         0.22632E-09         0.00000E+00
    0.96852E-08         0.23698E-09         0.00000E+00
    0.96783E-08         0.24673E-09         0.00000E+00
    0.96711E-08         0.25557E-09         0.00000E+00
    0.96636E-08         0.26348E-09         0.00000E+00
    0.96560E-08         0.27047E-09         0.00000E+00
    0.96482E-08         0.27652E-09         0.00000E+00
    0.96402E-08         0.28162E-09         0.00000E+00
    0.96321E-08         0.28578E-09         0.00000E+00
    0.96239E-08         0.28898E-09         0.00000E+00
    0.96156E-08         0.29122E-09         0.00000E+00
    0.96073E-08         0.29249E-09         0.00000E+00
    0.95990E-08         0.29280E-09         0.00000E+00
    0.95907E-08         0.29214E-09         0.00000E+00
    0.95824E-08         0.29051E-09         0.00000E+00
    0.95742E-08         0.28790E-09         0.00000E+00
    0.95662E-08         0.28432E-09         0.00000E+00
    0.95582E-08         0.27976E-09         0.00000E+00
    0.95504E-08         0.27423E-09         0.00000E+00
    0.95428E-08         0.26772E-09         0.00000E+00
    0.95353E-08         0.26024E-09         0.00000E+00
    0.95282E-08         0.25179E-09         0.00000E+00
    0.95212E-08         0.24237E-09         0.00000E+00
    0.95146E-08         0.23198E-09         0.00000E+00
    0.95083E-08         0.22063E-09         0.00000E+00
    0.95023E-08         0.20833E-09         0.00000E+00
    0.94966E-08         0.19507E-09         0.00000E+00
    0.94914E-08         0.18086E-09         0.00000E+00
    0.94866E-08         0.16571E-09         0.00000E+00
    0.94822E-08         0.14963E-09         0.00000E+00
    0.94783E-08         0.13262E-09         0.00000E+00
    0.94749E-08         0.11469E-09         0.00000E+00
    0.94720E-08         0.95844E-10         0.00000E+00
    0.94696E-08         0.76100E-10         0.00000E+00
    0.94678E-08         0.55463E-10         0.00000E+00
    0.94666E-08         0.33944E-10         0.00000E+00
    0.94659E-08         0.11554E-10         0.00000E+00
    0.10043E-07         0.12498E-10         0.00000E+00
    0.10042E-07         0.36946E-10         0.00000E+00
    0.10041E-07         0.60557E-10         0.00000E+00
    0.10039E-07         0.83310E-10         0.00000E+00
    0.10036E-07         0.10519E-09         0.00000E+00
    0.10033E-07         0.12616E-09         0.00000E+00
    0.10030E-07         0.14623E-09         0.00000E+00
    0.10025E-07         0.16536E-09         0.00000E+00
    0.10021E-07         0.18354E-09         0.00000E+00
    0.10016E-07         0.20075E-09         0.00000E+00
    0.10010E-07         0.21699E-09         0.00000E+00
    0.10004E-07         0.23223E-09         0.00000E+00
    0.99981E-08         0.24646E-09         0.00000E+00
    0.99914E-08         0.25967E-09         0.00000E+00
    0.99844E-08         0.27186E-09         0.00000E+00
    0.99772E-08         0.28300E-09         0.00000E+00
    0.99696E-08         0.29308E-09         0.00000E+00
    0.99618E-08         0.30211E-09         0.00000E+00
    0.99538E-08         0.31006E-09         0.00000E+00
    0.99457E-08         0.31694E-09         0.00000E+00
    0.99373E-08         0.32274E-09         0.00000E+00
    0.99289E-08         0.32744E-09         0.00000E+00
    0.99203E-08         0.33104E-09         0.00000E+00
    0.99117E-08         0.33355E-09         0.00000E+00
    0.99030E-08         0.33495E-09         0.00000E+00
    0.98944E-08         0.33524E-09         0.00000E+00
    0.98857E-08         0.33442E-09         0.00000E+00
    0.98771E-08         0.33249E-09         0.00000E+00
    0.98686E-08         0.32944E-09         0.00000E+00
    0.98602E-08         0.32528E-09         0.00000E+00
    0.98519E-08         0.32000E-09         0.00000E+00
    0.98438E-08         0.31361E-09         0.00000E+00
    0.98359E-08         0.30611E-09         0.00000E+00
    0.98282E-08         0.29750E-09         0.00000E+00
    0.98207E-08         0.28778E-09         0.00000E+00
    0.98135E-08         0.27696E-09         0.00000E+00
    0.98066E-08         0.26503E-09         0.00000E+00
    0.98001E-08         0.25202E-09         0.00000E+00
    0.97939E-08         0.23791E-09         0.00000E+00
    0.97881E-08         0.22272E-09         0.00000E+00
    0.97826E-08         0.20646E-09         0.00000E+00
    0.97777E-08         0.18912E-09         0.00000E+00
    0.97731E-08         0.17073E-09         0.00000E+00
    0.97691E-08         0.15129E-09         0.00000E+00
    0.97655E-08         0.13081E-09         0.00000E+00
    0.97625E-08         0.10929E-09         0.00000E+00
    0.97601E-08         0.86758E-10         0.00000E+00
    0.97582E-08         0.63217E-10         0.00000E+00
    0.97570E-08         0.38681E-10         0.00000E+00
    0.97563E-08         0.13163E-10         0.00000E+00
    0.10386E-07         0.14214E-10         0.00000E+00
    0.10386E-07         0.42013E-10         0.00000E+00
    0.10384E-07         0.68853E-10         0.00000E+00
    0.10382E-07         0.94708E-10         0.00000E+00
    0.10380E-07         0.11956E-09         0.00000E+00
    0.10376E-07         0.14338E-09         0.00000E+00
    0.10373E-07         0.16615E-09         0.00000E+00
    0.10368E-07         0.18785E-09         0.00000E+00
    0.10363E-07         0.20847E-09         0.00000E+00
    0.10358E-07         0.22798E-09         0.00000E+00
    0.10352E-07         0.24637E-09         0.00000E+00
    0.10346E-07         0.26363E-09         0.00000E+00
    0.10339E-07         0.27974E-09         0.00000E+00
    0.10332E-07         0.29468E-09         0.00000E+00
    0.10325E-07         0.30845E-09         0.00000E+00
    0.10317E-07         0.32102E-09         0.00000E+00
    0.10309E-07         0.33240E-09         0.00000E+00
    0.10301E-07         0.34258E-09         0.00000E+00
    0.10293E-07         0.35153E-09         0.00000E+00
    0.10284E-07         0.35926E-09         0.00000E+00
    0.10276E-07         0.36575E-09         0.00000E+00
    0.10267E-07         0.37101E-09         0.00000E+00
    0.10258E-07         0.37502E-09         0.00000E+00
    0.10249E-07         0.37778E-09         0.00000E+00
    0.10240E-07         0.37929E-09         0.00000E+00
    0.10231E-07         0.37954E-09         0.00000E+00
    0.10222E-07         0.37854E-09         0.00000E+00
    0.10213E-07         0.37627E-09         0.00000E+00
    0.10204E-07         0.37275E-09         0.00000E+00
    0.10195E-07         0.36796E-09         0.00000E+00
    0.10186E-07         0.36192E-09         0.00000E+00
    0.10178E-07         0.35462E-09         0.00000E+00
    0.10169E-07         0.34606E-09         0.00000E+00
    0.10161E-07         0.33625E-09         0.00000E+00
    0.10154E-07         0.32520E-09         0.00000E+00
    0.10146E-07         0.31290E-09         0.00000E+00
    0.10139E-07         0.29937E-09         0.00000E+00
    0.10132E-07         0.28460E-09         0.00000E+00
    0.10126E-07         0.26862E-09         0.00000E+00
    0.10120E-07         0.25141E-09         0.00000E+00
    0.10114E-07         0.23300E-09         0.00000E+00
    0.10109E-07         0.21339E-09         0.00000E+00
    0.10104E-07         0.19260E-09         0.00000E+00
    0.10100E-07         0.17063E-09         0.00000E+00
    0.10096E-07         0.14749E-09         0.00000E+00
    0.10093E-07         0.12321E-09         0.00000E+00
    0.10091E-07         0.97782E-10         0.00000E+00
    0.10089E-07         0.71234E-10         0.00000E+00
    0.10087E-07         0.43576E-10         0.00000E+00
    0.10087E-07         0.14825E-10         0.00000E+00
    0.10774E-07         0.16036E-10         0.00000E+00
    0.10773E-07         0.47391E-10         0.00000E+00
    0.10771E-07         0.77652E-10         0.00000E+00
    0.10769E-07         0.10679E-09         0.00000E+00
    0.10767E-07         0.13478E-09         0.00000E+00
    0.10763E-07         0.16160E-09         0.00000E+00
    0.10759E-07         0.18723E-09         0.00000E+00
    0.10754E-07         0.21165E-09         0.00000E+00
    0.10749E-07         0.23483E-09         0.00000E+00
    0.10744E-07         0.25675E-09         0.00000E+00
    0.10737E-07         0.27741E-09         0.00000E+00
    0.10731E-07         0.29678E-09         0.00000E+00
    0.10724E-07         0.31484E-09         0.00000E+00
    0.10716E-07         0.33159E-09         0.00000E+00
    0.10709E-07         0.34701E-09         0.00000E+00
    0.10701E-07         0.36108E-09         0.00000E+00
    0.10692E-07         0.37380E-09         0.00000E+00
    0.10684E-07         0.38515E-09         0.00000E+00
    0.10675E-07         0.39513E-09         0.00000E+00
    0.10666E-07         0.40373E-09         0.00000E+00
    0.10657E-07         0.41094E-09         0.00000E+00
    0.10647E-07         0.41675E-09         0.00000E+00
    0.10638E-07         0.42117E-09         0.00000E+00
    0.10628E-07         0.42418E-09         0.00000E+00
    0.10619E-07         0.42578E-09         0.00000E+00
    0.10609E-07         0.42597E-09         0.00000E+00
    0.10600E-07         0.42474E-09         0.00000E+00
    0.10590E-07         0.42211E-09         0.00000E+00
    0.10581E-07         0.41806E-09         0.00000E+00
    0.10572E-07         0.41260E-09         0.00000E+00
    0.10563E-07         0.40573E-09         0.00000E+00
    0.10554E-07         0.39746E-09         0.00000E+00
    0.10545E-07         0.38778E-09         0.00000E+00
    0.10537E-07         0.37670E-09         0.00000E+00
    0.10529E-07         0.36424E-09         0.00000E+00
    0.10521E-07         0.35038E-09         0.00000E+00
    0.10513E-07         0.33515E-09         0.00000E+00
    0.10506E-07         0.31855E-09         0.00000E+00
    0.10500E-07         0.30058E-09         0.00000E+00
    0.10493E-07         0.28127E-09         0.00000E+00
    0.10487E-07         0.26061E-09         0.00000E+00
    0.10482E-07         0.23863E-09         0.00000E+00
    0.10477E-07         0.21532E-09         0.00000E+00
    0.10473E-07         0.19071E-09         0.00000E+00
    0.10469E-07         0.16482E-09         0.00000E+00
    0.10466E-07         0.13765E-09         0.00000E+00
    0.10463E-07         0.10922E-09         0.00000E+00
    0.10461E-07         0.79544E-10         0.00000E+00
    0.10460E-07         0.48647E-10         0.00000E+00
    0.10459E-07         0.16546E-10         0.00000E+00
    0.11207E-07         0.17980E-10         0.00000E+00
    0.11206E-07         0.53126E-10         0.00000E+00
    0.11204E-07         0.87028E-10         0.00000E+00
    0.11202E-07         0.11966E-09         0.00000E+00
    0.11199E-07         0.15099E-09         0.00000E+00
    0.11195E-07         0.18099E-09         0.00000E+00
    0.11191E-07         0.20965E-09         0.00000E+00
    0.11186E-07         0.23693E-09         0.00000E+00
    0.11181E-07         0.26281E-09         0.00000E+00
    0.11174E-07         0.28728E-09         0.00000E+00
    0.11168E-07         0.31032E-09         0.00000E+00
    0.11161E-07         0.33191E-09         0.00000E+00
    0.11153E-07         0.35203E-09         0.00000E+00
    0.11146E-07         0.37066E-09         0.00000E+00
    0.11137E-07         0.38780E-09         0.00000E+00
    0.11129E-07         0.40343E-09         0.00000E+00
    0.11120E-07         0.41754E-09         0.00000E+00
    0.11111E-07         0.43012E-09         0.00000E+00
    0.11102E-07         0.44116E-09         0.00000E+00
    0.11092E-07         0.45065E-09         0.00000E+00
    0.11082E-07         0.45858E-09         0.00000E+00
    0.11072E-07         0.46495E-09         0.00000E+00
    0.11063E-07         0.46976E-09         0.00000E+00
    0.11053E-07         0.47300E-09         0.00000E+00
    0.11042E-07         0.47467E-09         0.00000E+00
    0.11032E-07         0.47477E-09         0.00000E+00
    0.11022E-07         0.47329E-09         0.00000E+00
    0.11013E-07         0.47023E-09         0.00000E+00
    0.11003E-07         0.46561E-09         0.00000E+00
    0.10993E-07         0.45942E-09         0.00000E+00
    0.10984E-07         0.45166E-09         0.00000E+00
    0.10974E-07         0.44234E-09         0.00000E+00
    0.10965E-07         0.43146E-09         0.00000E+00
    0.10956E-07         0.41904E-09         0.00000E+00
    0.10948E-07         0.40507E-09         0.00000E+00
    0.10940E-07         0.38957E-09         0.00000E+00
    0.10932E-07         0.37254E-09         0.00000E+00
    0.10924E-07         0.35400E-09         0.00000E+00
    0.10917E-07         0.33395E-09         0.00000E+00
    0.10911E-07         0.31242E-09         0.00000E+00
    0.10905E-07         0.28940E-09         0.00000E+00
    0.10899E-07         0.26492E-09         0.00000E+00
    0.10894E-07         0.23899E-09         0.00000E+00
    0.10889E-07         0.21162E-09         0.00000E+00
    0.10885E-07         0.18284E-09         0.00000E+00
    0.10882E-07         0.15266E-09         0.00000E+00
    0.10879E-07         0.12110E-09         0.00000E+00
    0.10877E-07         0.88176E-10         0.00000E+00
    0.10876E-07         0.53913E-10         0.00000E+00
    0.10875E-07         0.18332E-10         0.00000E+00
    0.11687E-07         0.20063E-10         0.00000E+00
    0.11687E-07         0.59266E-10         0.00000E+00
    0.11685E-07         0.97061E-10         0.00000E+00
    0.11682E-07         0.13342E-09         0.00000E+00
    0.11679E-07         0.16830E-09         0.00000E+00
    0.11675E-07         0.20169E-09         0.00000E+00
    0.11671E-07         0.23356E-09         0.00000E+00
    0.11665E-07         0.26388E-09         0.00000E+00
    0.11660E-07         0.29263E-09         0.00000E+00
    0.11653E-07         0.31979E-09         0.00000E+00
    0.11646E-07         0.34534E-09         0.00000E+00
    0.11639E-07         0.36926E-09         0.00000E+00
    0.11631E-07         0.39154E-09         0.00000E+00
    0.11622E-07         0.41215E-09         0.00000E+00
    0.11614E-07         0.43109E-09         0.00000E+00
    0.11605E-07         0.44834E-09         0.00000E+00
    0.11595E-07         0.46390E-09         0.00000E+00
    0.11585E-07         0.47774E-09         0.00000E+00
    0.11576E-07         0.48987E-09         0.00000E+00
    0.11565E-07         0.50027E-09         0.00000E+00
    0.11555E-07         0.50894E-09         0.00000E+00
    0.11545E-07         0.51587E-09         0.00000E+00
    0.11534E-07         0.52107E-09         0.00000E+00
    0.11524E-07         0.52452E-09         0.00000E+00
    0.11513E-07         0.52623E-09         0.00000E+00
    0.11503E-07         0.52619E-09         0.00000E+00
    0.11492E-07         0.52441E-09         0.00000E+00
    0.11482E-07         0.52089E-09         0.00000E+00
    0.11471E-07         0.51563E-09         0.00000E+00
    0.11461E-07         0.50863E-09         0.00000E+00
    0.11451E-07         0.49991E-09         0.00000E+00
    0.11441E-07         0.48946E-09         0.00000E+00
    0.11432E-07         0.47730E-09         0.00000E+00
    0.11423E-07         0.46343E-09         0.00000E+00
    0.11414E-07         0.44787E-09         0.00000E+00
    0.11405E-07         0.43061E-09         0.00000E+00
    0.11397E-07         0.41168E-09         0.00000E+00
    0.11389E-07         0.39109E-09         0.00000E+00
    0.11382E-07         0.36884E-09         0.00000E+00
    0.11375E-07         0.34497E-09         0.00000E+00
    0.11368E-07         0.31947E-09         0.00000E+00
    0.11362E-07         0.29237E-09         0.00000E+00
    0.11357E-07         0.26368E-09         0.00000E+00
    0.11352E-07         0.23343E-09         0.00000E+00
    0.11348E-07         0.20162E-09         0.00000E+00
    0.11345E-07         0.16830E-09         0.00000E+00
    0.11342E-07         0.13347E-09         0.00000E+00
    0.11340E-07         0.97156E-10         0.00000E+00
    0.11338E-07         0.59387E-10         0.00000E+00
    0.11337E-07         0.20187E-10         0.00000E+00
    0.12219E-07         0.22302E-10         0.00000E+00
    0.12218E-07         0.65861E-10         0.00000E+00
    0.12216E-07         0.10783E-09         0.00000E+00
    0.12214E-07         0.14817E-09         0.00000E+00
    0.12210E-07         0.18685E-09         0.00000E+00
    0.12206E-07         0.22385E-09         0.00000E+00
    0.12201E-07         0.25914E-09         0.00000E+00
    0.12195E-07         0.29269E-09         0.00000E+00
    0.12189E-07         0.32448E-09         0.00000E+00
    0.12182E-07         0.35449E-09         0.00000E+00
    0.12175E-07         0.38269E-09         0.00000E+00
    0.12167E-07         0.40907E-09         0.00000E+00
    0.12158E-07         0.43362E-09         0.00000E+00
    0.12149E-07         0.45631E-09         0.00000E+00
    0.12140E-07         0.47713E-09         0.00000E+00
    0.12130E-07         0.49607E-09         0.00000E+00
    0.12120E-07         0.51313E-09         0.00000E+00
    0.12110E-07         0.52828E-09         0.00000E+00
    0.12100E-07         0.54153E-09         0.00000E+00
    0.12089E-07         0.55286E-09         0.00000E+00
    0.12078E-07         0.56227E-09         0.00000E+00
    0.12067E-07         0.56976E-09         0.00000E+00
    0.12056E-07         0.57533E-09         0.00000E+00
    0.12045E-07         0.57897E-09         0.00000E+00
    0.12033E-07         0.58068E-09         0.00000E+00
    0.12022E-07         0.58047E-09         0.00000E+00
    0.12011E-07         0.57834E-09         0.00000E+00
    0.12000E-07         0.57428E-09         0.00000E+00
    0.11989E-07         0.56832E-09         0.00000E+00
    0.11979E-07         0.56045E-09         0.00000E+00
    0.11968E-07         0.55068E-09         0.00000E+00
    0.11958E-07         0.53901E-09         0.00000E+00
    0.11948E-07         0.52547E-09         0.00000E+00
    0.11938E-07         0.51005E-09         0.00000E+00
    0.11929E-07         0.49278E-09         0.00000E+00
    0.11920E-07         0.47366E-09         0.00000E+00
    0.11911E-07         0.45271E-09         0.00000E+00
    0.11903E-07         0.42994E-09         0.00000E+00
    0.11895E-07         0.40537E-09         0.00000E+00
    0.11888E-07         0.37902E-09         0.00000E+00
    0.11881E-07         0.35090E-09         0.00000E+00
    0.11875E-07         0.32104E-09         0.00000E+00
    0.11869E-07         0.28946E-09         0.00000E+00
    0.11865E-07         0.25618E-09         0.00000E+00
    0.11860E-07         0.22122E-09         0.00000E+00
    0.11857E-07         0.18460E-09         0.00000E+00
    0.11854E-07         0.14635E-09         0.00000E+00
    0.11851E-07         0.10650E-09         0.00000E+00
    0.11850E-07         0.65083E-10         0.00000E+00
    0.11849E-07         0.22116E-10         0.00000E+00
    0.12804E-07         0.24713E-10         0.00000E+00
    0.12803E-07         0.72959E-10         0.00000E+00
    0.12801E-07         0.11941E-09         0.00000E+00
    0.12798E-07         0.16402E-09         0.00000E+00
    0.12795E-07         0.20677E-09         0.00000E+00
    0.12790E-07         0.24763E-09         0.00000E+00
    0.12785E-07         0.28656E-09         0.00000E+00
    0.12779E-07         0.32355E-09         0.00000E+00
    0.12772E-07         0.35856E-09         0.00000E+00
    0.12765E-07         0.39159E-09         0.00000E+00
    0.12757E-07         0.42259E-09         0.00000E+00
    0.12748E-07         0.45157E-09         0.00000E+00
    0.12739E-07         0.47850E-09         0.00000E+00
    0.12730E-07         0.50337E-09         0.00000E+00
    0.12720E-07         0.52616E-09         0.00000E+00
    0.12710E-07         0.54686E-09         0.00000E+00
    0.12699E-07         0.56547E-09         0.00000E+00
    0.12688E-07         0.58197E-09         0.00000E+00
    0.12677E-07         0.59637E-09         0.00000E+00
    0.12665E-07         0.60865E-09         0.00000E+00
    0.12654E-07         0.61881E-09         0.00000E+00
    0.12642E-07         0.62684E-09         0.00000E+00
    0.12630E-07         0.63276E-09         0.00000E+00
    0.12619E-07         0.63656E-09         0.00000E+00
    0.12607E-07         0.63824E-09         0.00000E+00
    0.12595E-07         0.63780E-09         0.00000E+00
    0.12583E-07         0.63525E-09         0.00000E+00
    0.12572E-07         0.63060E-09         0.00000E+00
    0.12560E-07         0.62385E-09         0.00000E+00
    0.12549E-07         0.61502E-09         0.00000E+00
    0.12538E-07         0.60411E-09         0.00000E+00
    0.12527E-07         0.59113E-09         0.00000E+00
    0.12516E-07         0.57610E-09         0.00000E+00
    0.12506E-07         0.55902E-09         0.00000E+00
    0.12496E-07         0.53992E-09         0.00000E+00
    0.12487E-07         0.51882E-09         0.00000E+00
    0.12478E-07         0.49572E-09         0.00000E+00
    0.12469E-07         0.47064E-09         0.00000E+00
    0.12461E-07         0.44361E-09         0.00000E+00
    0.12454E-07         0.41465E-09         0.00000E+00
    0.12447E-07         0.38378E-09         0.00000E+00
    0.12440E-07         0.35101E-09         0.00000E+00
    0.12434E-07         0.31639E-09         0.00000E+00
    0.12429E-07         0.27992E-09         0.00000E+00
    0.12425E-07         0.24165E-09         0.00000E+00
    0.12421E-07         0.20159E-09         0.00000E+00
    0.12418E-07         0.15977E-09         0.00000E+00
    0.12415E-07         0.11624E-09         0.00000E+00
    0.12414E-07         0.71008E-10         0.00000E+00
    0.12413E-07         0.24122E-10         0.00000E+00
    0.13447E-07         0.27314E-10         0.00000E+00
    0.13446E-07         0.80607E-10         0.00000E+00
    0.13444E-07         0.13187E-09         0.00000E+00
    0.13441E-07         0.18107E-09         0.00000E+00
    0.13437E-07         0.22817E-09         0.00000E+00
    0.13432E-07         0.27315E-09         0.00000E+00
    0.13426E-07         0.31597E-09         0.00000E+00
    0.13420E-07         0.35661E-09         0.00000E+00
    0.13413E-07         0.39505E-09         0.00000E+00
    0.13405E-07         0.43127E-09         0.00000E+00
    0.13396E-07         0.46524E-09         0.00000E+00
    0.13387E-07         0.49695E-09         0.00000E+00
    0.13378E-07         0.52638E-09         0.00000E+00
    0.13367E-07         0.55353E-09         0.00000E+00
    0.13357E-07         0.57837E-09         0.00000E+00
    0.13346E-07         0.60091E-09         0.00000E+00
    0.13335E-07         0.62113E-09         0.00000E+00
    0.13323E-07         0.63902E-09         0.00000E+00
    0.13311E-07         0.65459E-09         0.00000E+00
    0.13299E-07         0.66782E-09         0.00000E+00
    0.13287E-07         0.67872E-09         0.00000E+00
    0.13274E-07         0.68730E-09         0.00000E+00
    0.13262E-07         0.69354E-09         0.00000E+00
    0.13249E-07         0.69745E-09         0.00000E+00
    0.13237E-07         0.69905E-09         0.00000E+00
    0.13224E-07         0.69833E-09         0.00000E+00
    0.13212E-07         0.69530E-09         0.00000E+00
    0.13200E-07         0.68997E-09         0.00000E+00
    0.13188E-07         0.68236E-09         0.00000E+00
    0.13176E-07         0.67247E-09         0.00000E+00
    0.13164E-07         0.66031E-09         0.00000E+00
    0.13153E-07         0.64591E-09         0.00000E+00
    0.13142E-07         0.62928E-09         0.00000E+00
    0.13131E-07         0.61043E-09         0.00000E+00
    0.13121E-07         0.58938E-09         0.00000E+00
    0.13111E-07         0.56615E-09         0.00000E+00
    0.13101E-07         0.54077E-09         0.00000E+00
    0.13092E-07         0.51325E-09         0.00000E+00
    0.13084E-07         0.48361E-09         0.00000E+00
    0.13076E-07         0.45190E-09         0.00000E+00
    0.13069E-07         0.41811E-09         0.00000E+00
    0.13062E-07         0.38230E-09         0.00000E+00
    0.13056E-07         0.34448E-09         0.00000E+00
    0.13051E-07         0.30468E-09         0.00000E+00
    0.13046E-07         0.26293E-09         0.00000E+00
    0.13042E-07         0.21928E-09         0.00000E+00
    0.13039E-07         0.17374E-09         0.00000E+00
    0.13036E-07         0.12636E-09         0.00000E+00
    0.13035E-07         0.77166E-10         0.00000E+00
    0.13034E-07         0.26204E-10         0.00000E+00
    0.14152E-07         0.30118E-10         0.00000E+00
    0.14151E-07         0.88847E-10         0.00000E+00
    0.14148E-07         0.14529E-09         0.00000E+00
    0.14145E-07         0.19940E-09         0.00000E+00
    0.14141E-07         0.25116E-09         0.00000E+00
    0.14136E-07         0.30053E-09         0.00000E+00
    0.14129E-07         0.34750E-09         0.00000E+00
    0.14122E-07         0.39202E-09         0.00000E+00
    0.14115E-07         0.43409E-09         0.00000E+00
    0.14106E-07         0.47368E-09         0.00000E+00
    0.14097E-07         0.51077E-09         0.00000E+00
    0.14088E-07         0.54536E-09         0.00000E+00
    0.14077E-07         0.57742E-09         0.00000E+00
    0.14067E-07         0.60694E-09         0.00000E+00
    0.14055E-07         0.63392E-09         0.00000E+00
    0.14044E-07         0.65836E-09         0.00000E+00
    0.14032E-07         0.68023E-09         0.00000E+00
    0.14019E-07         0.69955E-09         0.00000E+00
    0.14007E-07         0.71631E-09         0.00000E+00
    0.13994E-07         0.73050E-09         0.00000E+00
    0.13981E-07         0.74214E-09         0.00000E+00
    0.13968E-07         0.75122E-09         0.00000E+00
    0.13955E-07         0.75776E-09         0.00000E+00
    0.13942E-07         0.76175E-09         0.00000E+00
    0.13928E-07         0.76320E-09         0.00000E+00
    0.13915E-07         0.76213E-09         0.00000E+00
    0.13902E-07         0.75854E-09         0.00000E+00
    0.13889E-07         0.75246E-09         0.00000E+00
    0.13877E-07         0.74388E-09         0.00000E+00
    0.13864E-07         0.73283E-09         0.00000E+00
    0.13852E-07         0.71933E-09         0.00000E+00
    0.13840E-07         0.70339E-09         0.00000E+00
    0.13828E-07         0.68503E-09         0.00000E+00
    0.13817E-07         0.66428E-09         0.00000E+00
    0.13806E-07         0.64115E-09         0.00000E+00
    0.13796E-07         0.61567E-09         0.00000E+00
    0.13786E-07         0.58786E-09         0.00000E+00
    0.13777E-07         0.55776E-09         0.00000E+00
    0.13768E-07         0.52538E-09         0.00000E+00
    0.13760E-07         0.49075E-09         0.00000E+00
    0.13752E-07         0.45391E-09         0.00000E+00
    0.13745E-07         0.41489E-09         0.00000E+00
    0.13739E-07         0.37372E-09         0.00000E+00
    0.13733E-07         0.33043E-09         0.00000E+00
    0.13728E-07         0.28507E-09         0.00000E+00
    0.13724E-07         0.23766E-09         0.00000E+00
    0.13721E-07         0.18824E-09         0.00000E+00
    0.13718E-07         0.13686E-09         0.00000E+00
    0.13717E-07         0.83550E-10         0.00000E+00
    0.13716E-07         0.28362E-10         0.00000E+00
    0.14923E-07         0.33138E-10         0.00000E+00
    0.14922E-07         0.97709E-10         0.00000E+00
    0.14919E-07         0.15970E-09         0.00000E+00
    0.14916E-07         0.21907E-09         0.00000E+00
    0.14911E-07         0.27580E-09         0.00000E+00
    0.14906E-07         0.32986E-09         0.00000E+00
    0.14899E-07         0.38122E-09         0.00000E+00
    0.14892E-07         0.42986E-09         0.00000E+00
    0.14884E-07         0.47577E-09         0.00000E+00
    0.14875E-07         0.51891E-09         0.00000E+00
    0.14865E-07         0.55929E-09         0.00000E+00
    0.14855E-07         0.59689E-09         0.00000E+00
    0.14844E-07         0.63169E-09         0.00000E+00
    0.14832E-07         0.66369E-09         0.00000E+00
    0.14820E-07         0.69289E-09         0.00000E+00
    0.14808E-07         0.71927E-09         0.00000E+00
    0.14795E-07         0.74285E-09         0.00000E+00
    0.14782E-07         0.76362E-09         0.00000E+00
    0.14769E-07         0.78157E-09         0.00000E+00
    0.14756E-07         0.79673E-09         0.00000E+00
    0.14742E-07         0.80908E-09         0.00000E+00
    0.14728E-07         0.81864E-09         0.00000E+00
    0.14714E-07         0.82542E-09         0.00000E+00
    0.14700E-07         0.82943E-09         0.00000E+00
    0.14687E-07         0.83068E-09         0.00000E+00
    0.14673E-07         0.82918E-09         0.00000E+00
    0.14659E-07         0.82496E-09         0.00000E+00
    0.14646E-07         0.81802E-09         0.00000E+00
    0.14632E-07         0.80838E-09         0.00000E+00
    0.14619E-07         0.79607E-09         0.00000E+00
    0.14606E-07         0.78111E-09         0.00000E+00
    0.14594E-07         0.76351E-09         0.00000E+00
    0.14582E-07         0.74331E-09         0.00000E+00
    0.14570E-07         0.72052E-09         0.00000E+00
    0.14559E-07         0.69518E-09         0.00000E+00
    0.14548E-07         0.66731E-09         0.00000E+00
    0.14538E-07         0.63694E-09         0.00000E+00
    0.14528E-07         0.60410E-09         0.00000E+00
    0.14519E-07         0.56883E-09         0.00000E+00
    0.14510E-07         0.53115E-09         0.00000E+00
    0.14503E-07         0.49111E-09         0.00000E+00
    0.14495E-07         0.44873E-09         0.00000E+00
    0.14489E-07         0.40406E-09         0.00000E+00
    0.14483E-07         0.35714E-09         0.00000E+00
    0.14478E-07         0.30800E-09         0.00000E+00
    0.14474E-07         0.25668E-09         0.00000E+00
    0.14470E-07         0.20324E-09         0.00000E+00
    0.14468E-07         0.14771E-09         0.00000E+00
    0.14466E-07         0.90146E-10         0.00000E+00
    0.14465E-07         0.30589E-10         0.00000E+00
    0.15767E-07         0.36379E-10         0.00000E+00
    0.15766E-07         0.10721E-09         0.00000E+00
    0.15763E-07         0.17514E-09         0.00000E+00
    0.15759E-07         0.24013E-09         0.00000E+00
    0.15754E-07         0.30214E-09         0.00000E+00
    0.15748E-07         0.36117E-09         0.00000E+00
    0.15741E-07         0.41719E-09         0.00000E+00
    0.15734E-07         0.47017E-09         0.00000E+00
    0.15725E-07         0.52011E-09         0.00000E+00
    0.15715E-07         0.56699E-09         0.00000E+00
    0.15705E-07         0.61080E-09         0.00000E+00
    0.15694E-07         0.65154E-09         0.00000E+00
    0.15683E-07         0.68919E-09         0.00000E+00
    0.15671E-07         0.72375E-09         0.00000E+00
    0.15658E-07         0.75523E-09         0.00000E+00
    0.15645E-07         0.78362E-09         0.00000E+00
    0.15632E-07         0.80892E-09         0.00000E+00
    0.15618E-07         0.83115E-09         0.00000E+00
    0.15604E-07         0.85030E-09         0.00000E+00
    0.15590E-07         0.86640E-09         0.00000E+00
    0.15575E-07         0.87944E-09         0.00000E+00
    0.15561E-07         0.88944E-09         0.00000E+00
    0.15546E-07         0.89641E-09         0.00000E+00
    0.15532E-07         0.90037E-09         0.00000E+00
    0.15517E-07         0.90134E-09         0.00000E+00
    0.15503E-07         0.89934E-09         0.00000E+00
    0.15489E-07         0.89438E-09         0.00000E+00
    0.15475E-07         0.88649E-09         0.00000E+00
    0.15461E-07         0.87569E-09         0.00000E+00
    0.15447E-07         0.86201E-09         0.00000E+00
    0.15434E-07         0.84546E-09         0.00000E+00
    0.15421E-07         0.82609E-09         0.00000E+00
    0.15409E-07         0.80391E-09         0.00000E+00
    0.15396E-07         0.77897E-09         0.00000E+00
    0.15385E-07         0.75128E-09         0.00000E+00
    0.15374E-07         0.72088E-09         0.00000E+00
    0.15363E-07         0.68782E-09         0.00000E+00
    0.15353E-07         0.65211E-09         0.00000E+00
    0.15344E-07         0.61381E-09         0.00000E+00
    0.15335E-07         0.57294E-09         0.00000E+00
    0.15327E-07         0.52955E-09         0.00000E+00
    0.15319E-07         0.48368E-09         0.00000E+00
    0.15312E-07         0.43538E-09         0.00000E+00
    0.15306E-07         0.38468E-09         0.00000E+00
    0.15301E-07         0.33163E-09         0.00000E+00
    0.15297E-07         0.27628E-09         0.00000E+00
    0.15293E-07         0.21868E-09         0.00000E+00
    0.15291E-07         0.15888E-09         0.00000E+00
    0.15289E-07         0.96927E-10         0.00000E+00
    0.15288E-07         0.32877E-10         0.00000E+00
    0.16690E-07         0.39844E-10         0.00000E+00
    0.16689E-07         0.11736E-09         0.00000E+00
    0.16686E-07         0.19160E-09         0.00000E+00
    0.16682E-07         0.26255E-09         0.00000E+00
    0.16677E-07         0.33016E-09         0.00000E+00
    0.16670E-07         0.39444E-09         0.00000E+00
    0.16663E-07         0.45535E-09         0.00000E+00
    0.16655E-07         0.51289E-09         0.00000E+00
    0.16645E-07         0.56705E-09         0.00000E+00
    0.16635E-07         0.61783E-09         0.00000E+00
    0.16625E-07         0.66520E-09         0.00000E+00
    0.16613E-07         0.70919E-09         0.00000E+00
    0.16601E-07         0.74977E-09         0.00000E+00
    0.16588E-07         0.78696E-09         0.00000E+00
    0.16575E-07         0.82077E-09         0.00000E+00
    0.16562E-07         0.85119E-09         0.00000E+00
    0.16548E-07         0.87823E-09         0.00000E+00
    0.16533E-07         0.90192E-09         0.00000E+00
    0.16519E-07         0.92226E-09         0.00000E+00
    0.16504E-07         0.93926E-09         0.00000E+00
    0.16489E-07         0.95294E-09         0.00000E+00
    0.16474E-07         0.96332E-09         0.00000E+00
    0.16459E-07         0.97043E-09         0.00000E+00
    0.16444E-07         0.97427E-09         0.00000E+00
    0.16429E-07         0.97488E-09         0.00000E+00
    0.16414E-07         0.97228E-09         0.00000E+00
    0.16399E-07         0.96649E-09         0.00000E+00
    0.16384E-07         0.95755E-09         0.00000E+00
    0.16370E-07         0.94547E-09         0.00000E+00
    0.16356E-07         0.93030E-09         0.00000E+00
    0.16342E-07         0.91207E-09         0.00000E+00
    0.16329E-07         0.89080E-09         0.00000E+00
    0.16316E-07         0.86653E-09         0.00000E+00
    0.16304E-07         0.83930E-09         0.00000E+00
    0.16292E-07         0.80914E-09         0.00000E+00
    0.16280E-07         0.77610E-09         0.00000E+00
    0.16269E-07         0.74021E-09         0.00000E+00
    0.16259E-07         0.70151E-09         0.00000E+00
    0.16249E-07         0.66005E-09         0.00000E+00
    0.16240E-07         0.61587E-09         0.00000E+00
    0.16232E-07         0.56902E-09         0.00000E+00
    0.16224E-07         0.51954E-09         0.00000E+00
    0.16218E-07         0.46748E-09         0.00000E+00
    0.16211E-07         0.41289E-09         0.00000E+00
    0.16206E-07         0.35582E-09         0.00000E+00
    0.16202E-07         0.29633E-09         0.00000E+00
    0.16198E-07         0.23446E-09         0.00000E+00
    0.16195E-07         0.17028E-09         0.00000E+00
    0.16193E-07         0.10385E-09         0.00000E+00
    0.16193E-07         0.35211E-10         0.00000E+00
    0.17700E-07         0.43525E-10         0.00000E+00
    0.17699E-07         0.12813E-09         0.00000E+00
    0.17696E-07         0.20905E-09         0.00000E+00
    0.17692E-07         0.28627E-09         0.00000E+00
    0.17686E-07         0.35976E-09         0.00000E+00
    0.17679E-07         0.42953E-09         0.00000E+00
    0.17672E-07         0.49557E-09         0.00000E+00
    0.17663E-07         0.55785E-09         0.00000E+00
    0.17653E-07         0.61640E-09         0.00000E+00
    0.17643E-07         0.67119E-09         0.00000E+00
    0.17632E-07         0.72224E-09         0.00000E+00
    0.17620E-07         0.76955E-09         0.00000E+00
    0.17607E-07         0.81314E-09         0.00000E+00
    0.17594E-07         0.85300E-09         0.00000E+00
    0.17580E-07         0.88915E-09         0.00000E+00
    0.17566E-07         0.92161E-09         0.00000E+00
    0.17551E-07         0.95039E-09         0.00000E+00
    0.17537E-07         0.97551E-09         0.00000E+00
    0.17521E-07         0.99699E-09         0.00000E+00
    0.17506E-07         0.10148E-08         0.00000E+00
    0.17491E-07         0.10291E-08         0.00000E+00
    0.17475E-07         0.10398E-08         0.00000E+00
    0.17460E-07         0.10470E-08         0.00000E+00
    0.17444E-07         0.10506E-08         0.00000E+00
    0.17429E-07         0.10508E-08         0.00000E+00
    0.17413E-07         0.10475E-08         0.00000E+00
    0.17398E-07         0.10408E-08         0.00000E+00
    0.17383E-07         0.10307E-08         0.00000E+00
    0.17369E-07         0.10172E-08         0.00000E+00
    0.17354E-07         0.10004E-08         0.00000E+00
    0.17340E-07         0.98039E-09         0.00000E+00
    0.17327E-07         0.95712E-09         0.00000E+00
    0.17314E-07         0.93065E-09         0.00000E+00
    0.17301E-07         0.90102E-09         0.00000E+00
    0.17289E-07         0.86829E-09         0.00000E+00
    0.17277E-07         0.83248E-09         0.00000E+00
    0.17266E-07         0.79367E-09         0.00000E+00
    0.17256E-07         0.75187E-09         0.00000E+00
    0.17246E-07         0.70716E-09         0.00000E+00
    0.17237E-07         0.65957E-09         0.00000E+00
    0.17228E-07         0.60915E-09         0.00000E+00
    0.17221E-07         0.55597E-09         0.00000E+00
    0.17214E-07         0.50007E-09         0.00000E+00
    0.17207E-07         0.44151E-09         0.00000E+00
    0.17202E-07         0.38034E-09         0.00000E+00
    0.17198E-07         0.31663E-09         0.00000E+00
    0.17194E-07         0.25044E-09         0.00000E+00
    0.17191E-07         0.18182E-09         0.00000E+00
    0.17189E-07         0.11084E-09         0.00000E+00
    0.17188E-07         0.37568E-10         0.00000E+00
    0.18806E-07         0.47401E-10         0.00000E+00
    0.18805E-07         0.13945E-09         0.00000E+00
    0.18802E-07         0.22737E-09         0.00000E+00
    0.18797E-07         0.31114E-09         0.00000E+00
    0.18792E-07         0.39077E-09         0.00000E+00
    0.18785E-07         0.46624E-09         0.00000E+00
    0.18777E-07         0.53756E-09         0.00000E+00
    0.18768E-07         0.60474E-09         0.00000E+00
    0.18758E-07         0.66778E-09         0.00000E+00
    0.18747E-07         0.72669E-09         0.00000E+00
    0.18735E-07         0.78148E-09         0.00000E+00
    0.18723E-07         0.83217E-09         0.00000E+00
    0.18710E-07         0.87877E-09         0.00000E+00
    0.18696E-07         0.92130E-09         0.00000E+00
    0.18682E-07         0.95979E-09         0.00000E+00
    0.18668E-07         0.99426E-09         0.00000E+00
    0.18653E-07         0.10247E-08         0.00000E+00
    0.18638E-07         0.10512E-08         0.00000E+00
    0.18622E-07         0.10738E-08         0.00000E+00
    0.18607E-07         0.10924E-08         0.00000E+00
    0.18591E-07         0.11072E-08         0.00000E+00
    0.18575E-07         0.11181E-08         0.00000E+00
    0.18559E-07         0.11253E-08         0.00000E+00
    0.18543E-07         0.11286E-08         0.00000E+00
    0.18528E-07         0.11282E-08         0.00000E+00
    0.18512E-07         0.11241E-08         0.00000E+00
    0.18497E-07         0.11164E-08         0.00000E+00
    0.18482E-07         0.11050E-08         0.00000E+00
    0.18467E-07         0.10901E-08         0.00000E+00
    0.18453E-07         0.10716E-08         0.00000E+00
    0.18439E-07         0.10497E-08         0.00000E+00
    0.18425E-07         0.10243E-08         0.00000E+00
    0.18412E-07         0.99553E-09         0.00000E+00
    0.18399E-07         0.96342E-09         0.00000E+00
    0.18387E-07         0.92802E-09         0.00000E+00
    0.18375E-07         0.88938E-09         0.00000E+00
    0.18364E-07         0.84755E-09         0.00000E+00
    0.18353E-07         0.80259E-09         0.00000E+00
    0.18344E-07         0.75456E-09         0.00000E+00
    0.18334E-07         0.70349E-09         0.00000E+00
    0.18326E-07         0.64947E-09         0.00000E+00
    0.18318E-07         0.59253E-09         0.00000E+00
    0.18311E-07         0.53275E-09         0.00000E+00
    0.18305E-07         0.47019E-09         0.00000E+00
    0.18300E-07         0.40490E-09         0.00000E+00
    0.18296E-07         0.33695E-09         0.00000E+00
    0.18292E-07         0.26641E-09         0.00000E+00
    0.18289E-07         0.19334E-09         0.00000E+00
    0.18287E-07         0.11782E-09         0.00000E+00
    0.18286E-07         0.39918E-10         0.00000E+00
    0.20020E-07         0.51441E-10         0.00000E+00
    0.20018E-07         0.15124E-09         0.00000E+00
    0.20015E-07         0.24640E-09         0.00000E+00
    0.20010E-07         0.33694E-09         0.00000E+00
    0.20005E-07         0.42287E-09         0.00000E+00
    0.19997E-07         0.50419E-09         0.00000E+00
    0.19989E-07         0.58091E-09         0.00000E+00
    0.19980E-07         0.65306E-09         0.00000E+00
    0.19970E-07         0.72065E-09         0.00000E+00
    0.19959E-07         0.78370E-09         0.00000E+00
    0.19947E-07         0.84224E-09         0.00000E+00
    0.19934E-07         0.89629E-09         0.00000E+00
    0.19921E-07         0.94589E-09         0.00000E+00
    0.19907E-07         0.99106E-09         0.00000E+00
    0.19893E-07         0.10318E-08         0.00000E+00
    0.19878E-07         0.10682E-08         0.00000E+00
    0.19863E-07         0.11003E-08         0.00000E+00
    0.19848E-07         0.11281E-08         0.00000E+00
    0.19832E-07         0.11517E-08         0.00000E+00
    0.19817E-07         0.11710E-08         0.00000E+00
    0.19801E-07         0.11862E-08         0.00000E+00
    0.19785E-07         0.11972E-08         0.00000E+00
    0.19769E-07         0.12042E-08         0.00000E+00
    0.19753E-07         0.12072E-08         0.00000E+00
    0.19738E-07         0.12061E-08         0.00000E+00
    0.19722E-07         0.12011E-08         0.00000E+00
    0.19707E-07         0.11923E-08         0.00000E+00
    0.19692E-07         0.11795E-08         0.00000E+00
    0.19677E-07         0.11630E-08         0.00000E+00
    0.19663E-07         0.11428E-08         0.00000E+00
    0.19649E-07         0.11189E-08         0.00000E+00
    0.19635E-07         0.10913E-08         0.00000E+00
    0.19622E-07         0.10602E-08         0.00000E+00
    0.19610E-07         0.10255E-08         0.00000E+00
    0.19598E-07         0.98740E-09         0.00000E+00
    0.19586E-07         0.94588E-09         0.00000E+00
    0.19575E-07         0.90101E-09         0.00000E+00
    0.19565E-07         0.85286E-09         0.00000E+00
    0.19555E-07         0.80148E-09         0.00000E+00
    0.19546E-07         0.74694E-09         0.00000E+00
    0.19538E-07         0.68930E-09         0.00000E+00
    0.19531E-07         0.62863E-09         0.00000E+00
    0.19524E-07         0.56499E-09         0.00000E+00
    0.19518E-07         0.49844E-09         0.00000E+00
    0.19513E-07         0.42907E-09         0.00000E+00
    0.19508E-07         0.35693E-09         0.00000E+00
    0.19505E-07         0.28210E-09         0.00000E+00
    0.19502E-07         0.20466E-09         0.00000E+00
    0.19500E-07         0.12467E-09         0.00000E+00
    0.19500E-07         0.42222E-10         0.00000E+00
    0.21352E-07         0.55592E-10         0.00000E+00
    0.21351E-07         0.16332E-09         0.00000E+00
    0.21347E-07         0.26589E-09         0.00000E+00
    0.21343E-07         0.36332E-09         0.00000E+00
    0.21337E-07         0.45562E-09         0.00000E+00
    0.21330E-07         0.54283E-09         0.00000E+00
    0.21321E-07         0.62498E-09         0.00000E+00
    0.21312E-07         0.70209E-09         0.00000E+00
    0.21302E-07         0.77420E-09         0.00000E+00
    0.21291E-07         0.84135E-09         0.00000E+00
    0.21279E-07         0.90357E-09         0.00000E+00
    0.21266E-07         0.96091E-09         0.00000E+00
    0.21253E-07         0.10134E-08         0.00000E+00
    0.21239E-07         0.10611E-08         0.00000E+00
    0.21225E-07         0.11041E-08         0.00000E+00
    0.21210E-07         0.11423E-08         0.00000E+00
    0.21196E-07         0.11759E-08         0.00000E+00
    0.21180E-07         0.12048E-08         0.00000E+00
    0.21165E-07         0.12293E-08         0.00000E+00
    0.21150E-07         0.12492E-08         0.00000E+00
    0.21134E-07         0.12646E-08         0.00000E+00
    0.21119E-07         0.12757E-08         0.00000E+00
    0.21103E-07         0.12824E-08         0.00000E+00
    0.21088E-07         0.12848E-08         0.00000E+00
    0.21072E-07         0.12830E-08         0.00000E+00
    0.21057E-07         0.12770E-08         0.00000E+00
    0.21042E-07         0.12669E-08         0.00000E+00
    0.21028E-07         0.12528E-08         0.00000E+00
    0.21014E-07         0.12346E-08         0.00000E+00
    0.21000E-07         0.12125E-08         0.00000E+00
    0.20986E-07         0.11866E-08         0.00000E+00
    0.20973E-07         0.11568E-08         0.00000E+00
    0.20960E-07         0.11233E-08         0.00000E+00
    0.20948E-07         0.10860E-08         0.00000E+00
    0.20937E-07         0.10452E-08         0.00000E+00
    0.20926E-07         0.10008E-08         0.00000E+00
    0.20915E-07         0.95292E-09         0.00000E+00
    0.20905E-07         0.90161E-09         0.00000E+00
    0.20896E-07         0.84694E-09         0.00000E+00
    0.20888E-07         0.78898E-09         0.00000E+00
    0.20880E-07         0.72780E-09         0.00000E+00
    0.20873E-07         0.66348E-09         0.00000E+00
    0.20866E-07         0.59607E-09         0.00000E+00
    0.20860E-07         0.52567E-09         0.00000E+00
    0.20856E-07         0.45233E-09         0.00000E+00
    0.20851E-07         0.37614E-09         0.00000E+00
    0.20848E-07         0.29718E-09         0.00000E+00
    0.20846E-07         0.21552E-09         0.00000E+00
    0.20844E-07         0.13124E-09         0.00000E+00
    0.20843E-07         0.44429E-10         0.00000E+00
    0.22819E-07         0.59780E-10         0.00000E+00
    0.22817E-07         0.17550E-09         0.00000E+00
    0.22814E-07         0.28548E-09         0.00000E+00
    0.22809E-07         0.38976E-09         0.00000E+00
    0.22803E-07         0.48840E-09         0.00000E+00
    0.22796E-07         0.58143E-09         0.00000E+00
    0.22788E-07         0.66889E-09         0.00000E+00
    0.22779E-07         0.75085E-09         0.00000E+00
    0.22769E-07         0.82735E-09         0.00000E+00
    0.22758E-07         0.89845E-09         0.00000E+00
    0.22746E-07         0.96420E-09         0.00000E+00
    0.22734E-07         0.10247E-08         0.00000E+00
    0.22721E-07         0.10799E-08         0.00000E+00
    0.22708E-07         0.11299E-08         0.00000E+00
    0.22694E-07         0.11749E-08         0.00000E+00
    0.22680E-07         0.12148E-08         0.00000E+00
    0.22666E-07         0.12497E-08         0.00000E+00
    0.22651E-07         0.12796E-08         0.00000E+00
    0.22636E-07         0.13047E-08         0.00000E+00
    0.22621E-07         0.13250E-08         0.00000E+00
    0.22607E-07         0.13406E-08         0.00000E+00
    0.22592E-07         0.13515E-08         0.00000E+00
    0.22577E-07         0.13579E-08         0.00000E+00
    0.22562E-07         0.13596E-08         0.00000E+00
    0.22548E-07         0.13570E-08         0.00000E+00
    0.22534E-07         0.13499E-08         0.00000E+00
    0.22520E-07         0.13385E-08         0.00000E+00
    0.22506E-07         0.13228E-08         0.00000E+00
    0.22492E-07         0.13030E-08         0.00000E+00
    0.22479E-07         0.12790E-08         0.00000E+00
    0.22467E-07         0.12510E-08         0.00000E+00
    0.22454E-07         0.12190E-08         0.00000E+00
    0.22443E-07         0.11831E-08         0.00000E+00
    0.22431E-07         0.11434E-08         0.00000E+00
    0.22421E-07         0.10999E-08         0.00000E+00
    0.22410E-07         0.10527E-08         0.00000E+00
    0.22401E-07         0.10019E-08         0.00000E+00
    0.22391E-07         0.94750E-09         0.00000E+00
    0.22383E-07         0.88967E-09         0.00000E+00
    0.22375E-07         0.82844E-09         0.00000E+00
    0.22368E-07         0.76389E-09         0.00000E+00
    0.22361E-07         0.69609E-09         0.00000E+00
    0.22355E-07         0.62513E-09         0.00000E+00
    0.22350E-07         0.55108E-09         0.00000E+00
    0.22346E-07         0.47402E-09         0.00000E+00
    0.22342E-07         0.39403E-09         0.00000E+00
    0.22339E-07         0.31120E-09         0.00000E+00
    0.22337E-07         0.22560E-09         0.00000E+00
    0.22335E-07         0.13733E-09         0.00000E+00
    0.22334E-07         0.46475E-10         0.00000E+00
    0.24436E-07         0.63907E-10         0.00000E+00
    0.24434E-07         0.18747E-09         0.00000E+00
    0.24431E-07         0.30469E-09         0.00000E+00
    0.24426E-07         0.41564E-09         0.00000E+00
    0.24421E-07         0.52038E-09         0.00000E+00
    0.24414E-07         0.61898E-09         0.00000E+00
    0.24406E-07         0.71152E-09         0.00000E+00
    0.24397E-07         0.79807E-09         0.00000E+00
    0.24388E-07         0.87868E-09         0.00000E+00
    0.24377E-07         0.95346E-09         0.00000E+00
    0.24366E-07         0.10225E-08         0.00000E+00
    0.24355E-07         0.10858E-08         0.00000E+00
    0.24343E-07         0.11434E-08         0.00000E+00
    0.24330E-07         0.11956E-08         0.00000E+00
    0.24317E-07         0.12422E-08         0.00000E+00
    0.24304E-07         0.12835E-08         0.00000E+00
    0.24291E-07         0.13195E-08         0.00000E+00
    0.24277E-07         0.13502E-08         0.00000E+00
    0.24264E-07         0.13758E-08         0.00000E+00
    0.24250E-07         0.13963E-08         0.00000E+00
    0.24236E-07         0.14118E-08         0.00000E+00
    0.24223E-07         0.14225E-08         0.00000E+00
    0.24209E-07         0.14282E-08         0.00000E+00
    0.24196E-07         0.14293E-08         0.00000E+00
    0.24183E-07         0.14256E-08         0.00000E+00
    0.24170E-07         0.14174E-08         0.00000E+00
    0.24157E-07         0.14046E-08         0.00000E+00
    0.24145E-07         0.13874E-08         0.00000E+00
    0.24133E-07         0.13658E-08         0.00000E+00
    0.24121E-07         0.13400E-08         0.00000E+00
    0.24110E-07         0.13100E-08         0.00000E+00
    0.24099E-07         0.12758E-08         0.00000E+00
    0.24088E-07         0.12376E-08         0.00000E+00
    0.24078E-07         0.11955E-08         0.00000E+00
    0.24069E-07         0.11495E-08         0.00000E+00
    0.24060E-07         0.10996E-08         0.00000E+00
    0.24051E-07         0.10461E-08         0.00000E+00
    0.24043E-07         0.98887E-09         0.00000E+00
    0.24036E-07         0.92811E-09         0.00000E+00
    0.24029E-07         0.86387E-09         0.00000E+00
    0.24022E-07         0.79623E-09         0.00000E+00
    0.24017E-07         0.72527E-09         0.00000E+00
    0.24012E-07         0.65107E-09         0.00000E+00
    0.24007E-07         0.57373E-09         0.00000E+00
    0.24003E-07         0.49331E-09         0.00000E+00
    0.24000E-07         0.40992E-09         0.00000E+00
    0.23997E-07         0.32363E-09         0.00000E+00
    0.23995E-07         0.23453E-09         0.00000E+00
    0.23994E-07         0.14272E-09         0.00000E+00
    0.23993E-07         0.48280E-10         0.00000E+00
    0.26223E-07         0.67845E-10         0.00000E+00
    0.26221E-07         0.19885E-09         0.00000E+00
    0.26218E-07         0.32290E-09         0.00000E+00
    0.26214E-07         0.44009E-09         0.00000E+00
    0.26209E-07         0.55050E-09         0.00000E+00
    0.26203E-07         0.65425E-09         0.00000E+00
    0.26195E-07         0.75141E-09         0.00000E+00
    0.26187E-07         0.84210E-09         0.00000E+00
    0.26179E-07         0.92640E-09         0.00000E+00
    0.26169E-07         0.10044E-08         0.00000E+00
    0.26159E-07         0.10762E-08         0.00000E+00
    0.26149E-07         0.11420E-08         0.00000E+00
    0.26138E-07         0.12017E-08         0.00000E+00
    0.26127E-07         0.12555E-08         0.00000E+00
    0.26116E-07         0.13036E-08         0.00000E+00
    0.26104E-07         0.13459E-08         0.00000E+00
    0.26092E-07         0.13826E-08         0.00000E+00
    0.26080E-07         0.14139E-08         0.00000E+00
    0.26068E-07         0.14397E-08         0.00000E+00
    0.26057E-07         0.14601E-08         0.00000E+00
    0.26045E-07         0.14754E-08         0.00000E+00
    0.26033E-07         0.14855E-08         0.00000E+00
    0.26021E-07         0.14906E-08         0.00000E+00
    0.26010E-07         0.14907E-08         0.00000E+00
    0.25999E-07         0.14860E-08         0.00000E+00
    0.25988E-07         0.14765E-08         0.00000E+00
    0.25977E-07         0.14624E-08         0.00000E+00
    0.25967E-07         0.14436E-08         0.00000E+00
    0.25957E-07         0.14204E-08         0.00000E+00
    0.25947E-07         0.13928E-08         0.00000E+00
    0.25937E-07         0.13608E-08         0.00000E+00
    0.25928E-07         0.13247E-08         0.00000E+00
    0.25920E-07         0.12844E-08         0.00000E+00
    0.25912E-07         0.12400E-08         0.00000E+00
    0.25904E-07         0.11917E-08         0.00000E+00
    0.25896E-07         0.11394E-08         0.00000E+00
    0.25890E-07         0.10834E-08         0.00000E+00
    0.25883E-07         0.10237E-08         0.00000E+00
    0.25877E-07         0.96040E-09         0.00000E+00
    0.25872E-07         0.89353E-09         0.00000E+00
    0.25867E-07         0.82322E-09         0.00000E+00
    0.25862E-07         0.74955E-09         0.00000E+00
    0.25858E-07         0.67260E-09         0.00000E+00
    0.25855E-07         0.59246E-09         0.00000E+00
    0.25851E-07         0.50923E-09         0.00000E+00
    0.25849E-07         0.42299E-09         0.00000E+00
    0.25847E-07         0.33383E-09         0.00000E+00
    0.25845E-07         0.24184E-09         0.00000E+00
    0.25844E-07         0.14712E-09         0.00000E+00
    0.25844E-07         0.49749E-10         0.00000E+00
    0.28202E-07         0.71431E-10         0.00000E+00
    0.28201E-07         0.20918E-09         0.00000E+00
    0.28198E-07         0.33935E-09         0.00000E+00
    0.28195E-07         0.46206E-09         0.00000E+00
    0.28190E-07         0.57746E-09         0.00000E+00
    0.28185E-07         0.68565E-09         0.00000E+00
    0.28179E-07         0.78677E-09         0.00000E+00
    0.28172E-07         0.88093E-09         0.00000E+00
    0.28164E-07         0.96828E-09         0.00000E+00
    0.28156E-07         0.10489E-08         0.00000E+00
    0.28148E-07         0.11230E-08         0.00000E+00
    0.28139E-07         0.11906E-08         0.00000E+00
    0.28131E-07         0.12518E-08         0.00000E+00
    0.28121E-07         0.13069E-08         0.00000E+00
    0.28112E-07         0.13558E-08         0.00000E+00
    0.28103E-07         0.13988E-08         0.00000E+00
    0.28093E-07         0.14359E-08         0.00000E+00
    0.28084E-07         0.14672E-08         0.00000E+00
    0.28074E-07         0.14929E-08         0.00000E+00
    0.28065E-07         0.15131E-08         0.00000E+00
    0.28056E-07         0.15278E-08         0.00000E+00
    0.28047E-07         0.15372E-08         0.00000E+00
    0.28038E-07         0.15415E-08         0.00000E+00
    0.28029E-07         0.15406E-08         0.00000E+00
    0.28020E-07         0.15347E-08         0.00000E+00
    0.28012E-07         0.15240E-08         0.00000E+00
    0.28004E-07         0.15084E-08         0.00000E+00
    0.27996E-07         0.14882E-08         0.00000E+00
    0.27989E-07         0.14634E-08         0.00000E+00
    0.27982E-07         0.14341E-08         0.00000E+00
    0.27975E-07         0.14004E-08         0.00000E+00
    0.27969E-07         0.13624E-08         0.00000E+00
    0.27963E-07         0.13203E-08         0.00000E+00
    0.27957E-07         0.12740E-08         0.00000E+00
    0.27951E-07         0.12237E-08         0.00000E+00
    0.27946E-07         0.11695E-08         0.00000E+00
    0.27942E-07         0.11115E-08         0.00000E+00
    0.27937E-07         0.10497E-08         0.00000E+00
    0.27933E-07         0.98433E-09         0.00000E+00
    0.27930E-07         0.91539E-09         0.00000E+00
    0.27926E-07         0.84298E-09         0.00000E+00
    0.27923E-07         0.76722E-09         0.00000E+00
    0.27921E-07         0.68817E-09         0.00000E+00
    0.27919E-07         0.60594E-09         0.00000E+00
    0.27917E-07         0.52061E-09         0.00000E+00
    0.27915E-07         0.43228E-09         0.00000E+00
    0.27914E-07         0.34104E-09         0.00000E+00
    0.27913E-07         0.24698E-09         0.00000E+00
    0.27912E-07         0.15019E-09         0.00000E+00
    0.27912E-07         0.50770E-10         0.00000E+00
    0.30400E-07         0.74466E-10         0.00000E+00
    0.30399E-07         0.21786E-09         0.00000E+00
    0.30397E-07         0.35308E-09         0.00000E+00
    0.30394E-07         0.48029E-09         0.00000E+00
    0.30390E-07         0.59964E-09         0.00000E+00
    0.30386E-07         0.71130E-09         0.00000E+00
    0.30382E-07         0.81542E-09         0.00000E+00
    0.30376E-07         0.91216E-09         0.00000E+00
    0.30371E-07         0.10017E-08         0.00000E+00
    0.30365E-07         0.10841E-08         0.00000E+00
    0.30359E-07         0.11596E-08         0.00000E+00
    0.30353E-07         0.12284E-08         0.00000E+00
    0.30347E-07         0.12905E-08         0.00000E+00
    0.30340E-07         0.13461E-08         0.00000E+00
    0.30334E-07         0.13953E-08         0.00000E+00
    0.30327E-07         0.14384E-08         0.00000E+00
    0.30321E-07         0.14753E-08         0.00000E+00
    0.30315E-07         0.15063E-08         0.00000E+00
    0.30309E-07         0.15315E-08         0.00000E+00
    0.30303E-07         0.15511E-08         0.00000E+00
    0.30297E-07         0.15650E-08         0.00000E+00
    0.30291E-07         0.15735E-08         0.00000E+00
    0.30286E-07         0.15767E-08         0.00000E+00
    0.30281E-07         0.15747E-08         0.00000E+00
    0.30276E-07         0.15677E-08         0.00000E+00
    0.30271E-07         0.15557E-08         0.00000E+00
    0.30267E-07         0.15388E-08         0.00000E+00
    0.30262E-07         0.15172E-08         0.00000E+00
    0.30259E-07         0.14910E-08         0.00000E+00
    0.30255E-07         0.14602E-08         0.00000E+00
    0.30252E-07         0.14251E-08         0.00000E+00
    0.30248E-07         0.13856E-08         0.00000E+00
    0.30246E-07         0.13420E-08         0.00000E+00
    0.30243E-07         0.12942E-08         0.00000E+00
    0.30241E-07         0.12424E-08         0.00000E+00
    0.30238E-07         0.11868E-08         0.00000E+00
    0.30237E-07         0.11273E-08         0.00000E+00
    0.30235E-07         0.10642E-08         0.00000E+00
    0.30233E-07         0.99737E-09         0.00000E+00
    0.30232E-07         0.92708E-09         0.00000E+00
    0.30231E-07         0.85336E-09         0.00000E+00
    0.30230E-07         0.77631E-09         0.00000E+00
    0.30229E-07         0.69603E-09         0.00000E+00
    0.30229E-07         0.61261E-09         0.00000E+00
    0.30228E-07         0.52613E-09         0.00000E+00
    0.30228E-07         0.43669E-09         0.00000E+00
    0.30227E-07         0.34439E-09         0.00000E+00
    0.30227E-07         0.24931E-09         0.00000E+00
    0.30227E-07         0.15156E-09         0.00000E+00
    0.30227E-07         0.51214E-10         0.00000E+00
    0.32845E-07         0.76713E-10         0.00000E+00
    0.32845E-07         0.22422E-09         0.00000E+00
    0.32844E-07         0.36299E-09         0.00000E+00
    0.32842E-07         0.49325E-09         0.00000E+00
    0.32840E-07         0.61518E-09         0.00000E+00
    0.32837E-07         0.72898E-09         0.00000E+00
    0.32834E-07         0.83484E-09         0.00000E+00
    0.32831E-07         0.93295E-09         0.00000E+00
    0.32828E-07         0.10235E-08         0.00000E+00
    0.32825E-07         0.11067E-08         0.00000E+00
    0.32822E-07         0.11826E-08         0.00000E+00
    0.32819E-07         0.12516E-08         0.00000E+00
    0.32816E-07         0.13136E-08         0.00000E+00
    0.32814E-07         0.13690E-08         0.00000E+00
    0.32811E-07         0.14179E-08         0.00000E+00
    0.32808E-07         0.14603E-08         0.00000E+00
    0.32806E-07         0.14966E-08         0.00000E+00
    0.32804E-07         0.15268E-08         0.00000E+00
    0.32802E-07         0.15510E-08         0.00000E+00
    0.32801E-07         0.15695E-08         0.00000E+00
    0.32799E-07         0.15824E-08         0.00000E+00
    0.32798E-07         0.15898E-08         0.00000E+00
    0.32797E-07         0.15918E-08         0.00000E+00
    0.32797E-07         0.15886E-08         0.00000E+00
    0.32796E-07         0.15804E-08         0.00000E+00
    0.32796E-07         0.15671E-08         0.00000E+00
    0.32796E-07         0.15490E-08         0.00000E+00
    0.32796E-07         0.15262E-08         0.00000E+00
    0.32797E-07         0.14988E-08         0.00000E+00
    0.32798E-07         0.14670E-08         0.00000E+00
    0.32799E-07         0.14307E-08         0.00000E+00
    0.32800E-07         0.13902E-08         0.00000E+00
    0.32801E-07         0.13456E-08         0.00000E+00
    0.32802E-07         0.12969E-08         0.00000E+00
    0.32804E-07         0.12443E-08         0.00000E+00
    0.32805E-07         0.11879E-08         0.00000E+00
    0.32807E-07         0.11278E-08         0.00000E+00
    0.32808E-07         0.10640E-08         0.00000E+00
    0.32810E-07         0.99671E-09         0.00000E+00
    0.32812E-07         0.92598E-09         0.00000E+00
    0.32813E-07         0.85193E-09         0.00000E+00
    0.32815E-07         0.77464E-09         0.00000E+00
    0.32816E-07         0.69421E-09         0.00000E+00
    0.32818E-07         0.61072E-09         0.00000E+00
    0.32819E-07         0.52428E-09         0.00000E+00
    0.32820E-07         0.43498E-09         0.00000E+00
    0.32821E-07         0.34290E-09         0.00000E+00
    0.32822E-07         0.24814E-09         0.00000E+00
    0.32822E-07         0.15079E-09         0.00000E+00
    0.32822E-07         0.50934E-10         0.00000E+00
    0.35572E-07         0.77896E-10         0.00000E+00
    0.35572E-07         0.22744E-09         0.00000E+00
    0.35572E-07         0.36779E-09         0.00000E+00
    0.35571E-07         0.49920E-09         0.00000E+00
    0.35571E-07         0.62190E-09         0.00000E+00
    0.35571E-07         0.73613E-09         0.00000E+00
    0.35571E-07         0.84211E-09         0.00000E+00
    0.35571E-07         0.94008E-09         0.00000E+00
    0.35571E-07         0.10302E-08         0.00000E+00
    0.35571E-07         0.11128E-08         0.00000E+00
    0.35572E-07         0.11880E-08         0.00000E+00
    0.35573E-07         0.12560E-08         0.00000E+00
    0.35575E-07         0.13170E-08         0.00000E+00
    0.35576E-07         0.13712E-08         0.00000E+00
    0.35578E-07         0.14187E-08         0.00000E+00
    0.35581E-07         0.14599E-08         0.00000E+00
    0.35583E-07         0.14947E-08         0.00000E+00
    0.35587E-07         0.15235E-08         0.00000E+00
    0.35590E-07         0.15464E-08         0.00000E+00
    0.35594E-07         0.15635E-08         0.00000E+00
    0.35598E-07         0.15749E-08         0.00000E+00
    0.35602E-07         0.15810E-08         0.00000E+00
    0.35607E-07         0.15817E-08         0.00000E+00
    0.35612E-07         0.15772E-08         0.00000E+00
    0.35617E-07         0.15678E-08         0.00000E+00
    0.35623E-07         0.15534E-08         0.00000E+00
    0.35628E-07         0.15343E-08         0.00000E+00
    0.35634E-07         0.15106E-08         0.00000E+00
    0.35640E-07         0.14824E-08         0.00000E+00
    0.35646E-07         0.14498E-08         0.00000E+00
    0.35652E-07         0.14130E-08         0.00000E+00
    0.35658E-07         0.13720E-08         0.00000E+00
    0.35664E-07         0.13271E-08         0.00000E+00
    0.35670E-07         0.12782E-08         0.00000E+00
    0.35676E-07         0.12256E-08         0.00000E+00
    0.35682E-07         0.11693E-08         0.00000E+00
    0.35688E-07         0.11094E-08         0.00000E+00
    0.35694E-07         0.10460E-08         0.00000E+00
    0.35699E-07         0.97928E-09         0.00000E+00
    0.35704E-07         0.90926E-09         0.00000E+00
    0.35709E-07         0.83608E-09         0.00000E+00
    0.35714E-07         0.75981E-09         0.00000E+00
    0.35718E-07         0.68056E-09         0.00000E+00
    0.35722E-07         0.59841E-09         0.00000E+00
    0.35725E-07         0.51346E-09         0.00000E+00
    0.35728E-07         0.42579E-09         0.00000E+00
    0.35731E-07         0.33551E-09         0.00000E+00
    0.35732E-07         0.24268E-09         0.00000E+00
    0.35734E-07         0.14741E-09         0.00000E+00
    0.35734E-07         0.49770E-10         0.00000E+00
    0.38618E-07         0.77703E-10         0.00000E+00
    0.38619E-07         0.22662E-09         0.00000E+00
    0.38619E-07         0.36601E-09         0.00000E+00
    0.38621E-07         0.49617E-09         0.00000E+00
    0.38623E-07         0.61737E-09         0.00000E+00
    0.38625E-07         0.72989E-09         0.00000E+00
    0.38628E-07         0.83400E-09         0.00000E+00
    0.38632E-07         0.92994E-09         0.00000E+00
    0.38636E-07         0.10180E-08         0.00000E+00
    0.38641E-07         0.10983E-08         0.00000E+00
    0.38646E-07         0.11712E-08         0.00000E+00
    0.38652E-07         0.12369E-08         0.00000E+00
    0.38659E-07         0.12956E-08         0.00000E+00
    0.38666E-07         0.13475E-08         0.00000E+00
    0.38674E-07         0.13928E-08         0.00000E+00
    0.38683E-07         0.14317E-08         0.00000E+00
    0.38692E-07         0.14645E-08         0.00000E+00
    0.38701E-07         0.14912E-08         0.00000E+00
    0.38711E-07         0.15121E-08         0.00000E+00
    0.38721E-07         0.15274E-08         0.00000E+00
    0.38732E-07         0.15371E-08         0.00000E+00
    0.38743E-07         0.15416E-08         0.00000E+00
    0.38754E-07         0.15409E-08         0.00000E+00
    0.38766E-07         0.15352E-08         0.00000E+00
    0.38778E-07         0.15246E-08         0.00000E+00
    0.38790E-07         0.15093E-08         0.00000E+00
    0.38802E-07         0.14895E-08         0.00000E+00
    0.38814E-07         0.14652E-08         0.00000E+00
    0.38826E-07         0.14367E-08         0.00000E+00
    0.38839E-07         0.14040E-08         0.00000E+00
    0.38851E-07         0.13672E-08         0.00000E+00
    0.38863E-07         0.13265E-08         0.00000E+00
    0.38875E-07         0.12821E-08         0.00000E+00
    0.38887E-07         0.12339E-08         0.00000E+00
    0.38898E-07         0.11822E-08         0.00000E+00
    0.38909E-07         0.11271E-08         0.00000E+00
    0.38920E-07         0.10686E-08         0.00000E+00
    0.38931E-07         0.10068E-08         0.00000E+00
    0.38941E-07         0.94190E-09         0.00000E+00
    0.38950E-07         0.87397E-09         0.00000E+00
    0.38959E-07         0.80308E-09         0.00000E+00
    0.38967E-07         0.72935E-09         0.00000E+00
    0.38974E-07         0.65286E-09         0.00000E+00
    0.38981E-07         0.57370E-09         0.00000E+00
    0.38987E-07         0.49196E-09         0.00000E+00
    0.38992E-07         0.40773E-09         0.00000E+00
    0.38996E-07         0.32109E-09         0.00000E+00
    0.38999E-07         0.23213E-09         0.00000E+00
    0.39001E-07         0.14092E-09         0.00000E+00
    0.39002E-07         0.47554E-10         0.00000E+00
    0.42025E-07         0.75786E-10         0.00000E+00
    0.42026E-07         0.22075E-09         0.00000E+00
    0.42029E-07         0.35605E-09         0.00000E+00
    0.42032E-07         0.48201E-09         0.00000E+00
    0.42037E-07         0.59895E-09         0.00000E+00
    0.42042E-07         0.70718E-09         0.00000E+00
    0.42049E-07         0.80700E-09         0.00000E+00
    0.42057E-07         0.89868E-09         0.00000E+00
    0.42067E-07         0.98251E-09         0.00000E+00
    0.42077E-07         0.10588E-08         0.00000E+00
    0.42088E-07         0.11277E-08         0.00000E+00
    0.42100E-07         0.11895E-08         0.00000E+00
    0.42113E-07         0.12444E-08         0.00000E+00
    0.42127E-07         0.12928E-08         0.00000E+00
    0.42142E-07         0.13347E-08         0.00000E+00
    0.42157E-07         0.13705E-08         0.00000E+00
    0.42173E-07         0.14003E-08         0.00000E+00
    0.42190E-07         0.14243E-08         0.00000E+00
    0.42207E-07         0.14427E-08         0.00000E+00
    0.42225E-07         0.14557E-08         0.00000E+00
    0.42244E-07         0.14634E-08         0.00000E+00
    0.42262E-07         0.14661E-08         0.00000E+00
    0.42282E-07         0.14640E-08         0.00000E+00
    0.42301E-07         0.14571E-08         0.00000E+00
    0.42321E-07         0.14456E-08         0.00000E+00
    0.42340E-07         0.14297E-08         0.00000E+00
    0.42360E-07         0.14095E-08         0.00000E+00
    0.42380E-07         0.13852E-08         0.00000E+00
    0.42399E-07         0.13569E-08         0.00000E+00
    0.42419E-07         0.13247E-08         0.00000E+00
    0.42438E-07         0.12888E-08         0.00000E+00
    0.42457E-07         0.12493E-08         0.00000E+00
    0.42476E-07         0.12063E-08         0.00000E+00
    0.42494E-07         0.11600E-08         0.00000E+00
    0.42512E-07         0.11103E-08         0.00000E+00
    0.42529E-07         0.10576E-08         0.00000E+00
    0.42545E-07         0.10018E-08         0.00000E+00
    0.42561E-07         0.94305E-09         0.00000E+00
    0.42576E-07         0.88149E-09         0.00000E+00
    0.42590E-07         0.81720E-09         0.00000E+00
    0.42603E-07         0.75028E-09         0.00000E+00
    0.42615E-07         0.68083E-09         0.00000E+00
    0.42626E-07         0.60892E-09         0.00000E+00
    0.42636E-07         0.53466E-09         0.00000E+00
    0.42645E-07         0.45812E-09         0.00000E+00
    0.42652E-07         0.37938E-09         0.00000E+00
    0.42659E-07         0.29854E-09         0.00000E+00
    0.42663E-07         0.21567E-09         0.00000E+00
    0.42666E-07         0.13083E-09         0.00000E+00
    0.42668E-07         0.44117E-10         0.00000E+00
    0.45840E-07         0.71775E-10         0.00000E+00
    0.45842E-07         0.20877E-09         0.00000E+00
    0.45846E-07         0.33620E-09         0.00000E+00
    0.45852E-07         0.45444E-09         0.00000E+00
    0.45860E-07         0.56384E-09         0.00000E+00
    0.45870E-07         0.66473E-09         0.00000E+00
    0.45881E-07         0.75744E-09         0.00000E+00
    0.45894E-07         0.84228E-09         0.00000E+00
    0.45909E-07         0.91954E-09         0.00000E+00
    0.45925E-07         0.98951E-09         0.00000E+00
    0.45943E-07         0.10525E-08         0.00000E+00
    0.45962E-07         0.11086E-08         0.00000E+00
    0.45983E-07         0.11583E-08         0.00000E+00
    0.46004E-07         0.12018E-08         0.00000E+00
    0.46027E-07         0.12391E-08         0.00000E+00
    0.46050E-07         0.12707E-08         0.00000E+00
    0.46075E-07         0.12967E-08         0.00000E+00
    0.46100E-07         0.13173E-08         0.00000E+00
    0.46126E-07         0.13326E-08         0.00000E+00
    0.46153E-07         0.13430E-08         0.00000E+00
    0.46180E-07         0.13485E-08         0.00000E+00
    0.46208E-07         0.13494E-08         0.00000E+00
    0.46235E-07         0.13458E-08         0.00000E+00
    0.46263E-07         0.13379E-08         0.00000E+00
    0.46292E-07         0.13258E-08         0.00000E+00
    0.46320E-07         0.13097E-08         0.00000E+00
    0.46348E-07         0.12897E-08         0.00000E+00
    0.46376E-07         0.12659E-08         0.00000E+00
    0.46404E-07         0.12386E-08         0.00000E+00
    0.46432E-07         0.12079E-08         0.00000E+00
    0.46459E-07         0.11738E-08         0.00000E+00
    0.46485E-07         0.11364E-08         0.00000E+00
    0.46511E-07         0.10960E-08         0.00000E+00
    0.46537E-07         0.10527E-08         0.00000E+00
    0.46561E-07         0.10065E-08         0.00000E+00
    0.46585E-07         0.95752E-09         0.00000E+00
    0.46608E-07         0.90593E-09         0.00000E+00
    0.46629E-07         0.85181E-09         0.00000E+00
    0.46650E-07         0.79527E-09         0.00000E+00
    0.46669E-07         0.73641E-09         0.00000E+00
    0.46687E-07         0.67531E-09         0.00000E+00
    0.46704E-07         0.61207E-09         0.00000E+00
    0.46719E-07         0.54679E-09         0.00000E+00
    0.46732E-07         0.47954E-09         0.00000E+00
    0.46744E-07         0.41041E-09         0.00000E+00
    0.46754E-07         0.33949E-09         0.00000E+00
    0.46763E-07         0.26685E-09         0.00000E+00
    0.46769E-07         0.19255E-09         0.00000E+00
    0.46773E-07         0.11668E-09         0.00000E+00
    0.46775E-07         0.39298E-10         0.00000E+00
    0.50114E-07         0.65281E-10         0.00000E+00
    0.50117E-07         0.18956E-09         0.00000E+00
    0.50123E-07         0.30471E-09         0.00000E+00
    0.50132E-07         0.41113E-09         0.00000E+00
    0.50143E-07         0.50919E-09         0.00000E+00
    0.50158E-07         0.59925E-09         0.00000E+00
    0.50175E-07         0.68165E-09         0.00000E+00
    0.50194E-07         0.75672E-09         0.00000E+00
    0.50215E-07         0.82475E-09         0.00000E+00
    0.50238E-07         0.88606E-09         0.00000E+00
    0.50264E-07         0.94092E-09         0.00000E+00
    0.50291E-07         0.98959E-09         0.00000E+00
    0.50319E-07         0.10323E-08         0.00000E+00
    0.50349E-07         0.10694E-08         0.00000E+00
    0.50381E-07         0.11010E-08         0.00000E+00
    0.50413E-07         0.11274E-08         0.00000E+00
    0.50447E-07         0.11487E-08         0.00000E+00
    0.50482E-07         0.11652E-08         0.00000E+00
    0.50517E-07         0.11771E-08         0.00000E+00
    0.50554E-07         0.11846E-08         0.00000E+00
    0.50590E-07         0.11878E-08         0.00000E+00
    0.50627E-07         0.11868E-08         0.00000E+00
    0.50665E-07         0.11820E-08         0.00000E+00
    0.50702E-07         0.11733E-08         0.00000E+00
    0.50740E-07         0.11610E-08         0.00000E+00
    0.50778E-07         0.11452E-08         0.00000E+00
    0.50815E-07         0.11261E-08         0.00000E+00
    0.50852E-07         0.11038E-08         0.00000E+00
    0.50889E-07         0.10783E-08         0.00000E+00
    0.50925E-07         0.10500E-08         0.00000E+00
    0.50960E-07         0.10188E-08         0.00000E+00
    0.50995E-07         0.98484E-09         0.00000E+00
    0.51029E-07         0.94834E-09         0.00000E+00
    0.51062E-07         0.90936E-09         0.00000E+00
    0.51094E-07         0.86803E-09         0.00000E+00
    0.51124E-07         0.82444E-09         0.00000E+00
    0.51154E-07         0.77870E-09         0.00000E+00
    0.51182E-07         0.73093E-09         0.00000E+00
    0.51208E-07         0.68123E-09         0.00000E+00
    0.51233E-07         0.62969E-09         0.00000E+00
    0.51256E-07         0.57640E-09         0.00000E+00
    0.51277E-07         0.52148E-09         0.00000E+00
    0.51297E-07         0.46499E-09         0.00000E+00
    0.51314E-07         0.40704E-09         0.00000E+00
    0.51329E-07         0.34771E-09         0.00000E+00
    0.51342E-07         0.28708E-09         0.00000E+00
    0.51353E-07         0.22522E-09         0.00000E+00
    0.51361E-07         0.16220E-09         0.00000E+00
    0.51366E-07         0.98097E-10         0.00000E+00
    0.51369E-07         0.32969E-10         0.00000E+00
    0.54901E-07         0.55919E-10         0.00000E+00
    0.54905E-07         0.16202E-09         0.00000E+00
    0.54914E-07         0.25985E-09         0.00000E+00
    0.54926E-07         0.34979E-09         0.00000E+00
    0.54942E-07         0.43225E-09         0.00000E+00
    0.54962E-07         0.50758E-09         0.00000E+00
    0.54984E-07         0.57613E-09         0.00000E+00
    0.55010E-07         0.63823E-09         0.00000E+00
    0.55038E-07         0.69418E-09         0.00000E+00
    0.55070E-07         0.74428E-09         0.00000E+00
    0.55103E-07         0.78880E-09         0.00000E+00
    0.55139E-07         0.82800E-09         0.00000E+00
    0.55177E-07         0.86212E-09         0.00000E+00
    0.55216E-07         0.89140E-09         0.00000E+00
    0.55257E-07         0.91606E-09         0.00000E+00
    0.55300E-07         0.93629E-09         0.00000E+00
    0.55343E-07         0.95229E-09         0.00000E+00
    0.55388E-07         0.96426E-09         0.00000E+00
    0.55434E-07         0.97236E-09         0.00000E+00
    0.55480E-07         0.97677E-09         0.00000E+00
    0.55527E-07         0.97763E-09         0.00000E+00
    0.55574E-07         0.97511E-09         0.00000E+00
    0.55622E-07         0.96934E-09         0.00000E+00
    0.55669E-07         0.96047E-09         0.00000E+00
    0.55717E-07         0.94864E-09         0.00000E+00
    0.55764E-07         0.93396E-09         0.00000E+00
    0.55811E-07         0.91657E-09         0.00000E+00
    0.55857E-07         0.89659E-09         0.00000E+00
    0.55902E-07         0.87414E-09         0.00000E+00
    0.55947E-07         0.84933E-09         0.00000E+00
    0.55991E-07         0.82229E-09         0.00000E+00
    0.56034E-07         0.79312E-09         0.00000E+00
    0.56076E-07         0.76193E-09         0.00000E+00
    0.56116E-07         0.72884E-09         0.00000E+00
    0.56156E-07         0.69396E-09         0.00000E+00
    0.56193E-07         0.65739E-09         0.00000E+00
    0.56229E-07         0.61924E-09         0.00000E+00
    0.56263E-07         0.57961E-09         0.00000E+00
    0.56296E-07         0.53862E-09         0.00000E+00
    0.56326E-07         0.49635E-09         0.00000E+00
    0.56354E-07         0.45293E-09         0.00000E+00
    0.56380E-07         0.40844E-09         0.00000E+00
    0.56404E-07         0.36298E-09         0.00000E+00
    0.56425E-07         0.31664E-09         0.00000E+00
    0.56444E-07         0.26952E-09         0.00000E+00
    0.56459E-07         0.22171E-09         0.00000E+00
    0.56472E-07         0.17328E-09         0.00000E+00
    0.56482E-07         0.12432E-09         0.00000E+00
    0.56489E-07         0.74889E-10         0.00000E+00
    0.56492E-07         0.25059E-10         0.00000E+00
    0.60260E-07         0.43316E-10         0.00000E+00
    0.60266E-07         0.12512E-09         0.00000E+00
    0.60277E-07         0.19998E-09         0.00000E+00
    0.60293E-07         0.26832E-09         0.00000E+00
    0.60314E-07         0.33050E-09         0.00000E+00
    0.60339E-07         0.38688E-09         0.00000E+00
    0.60368E-07         0.43780E-09         0.00000E+00
    0.60401E-07         0.48357E-09         0.00000E+00
    0.60437E-07         0.52446E-09         0.00000E+00
    0.60477E-07         0.56075E-09         0.00000E+00
    0.60519E-07         0.59269E-09         0.00000E+00
    0.60564E-07         0.62051E-09         0.00000E+00
    0.60611E-07         0.64442E-09         0.00000E+00
    0.60661E-07         0.66464E-09         0.00000E+00
    0.60712E-07         0.68134E-09         0.00000E+00
    0.60765E-07         0.69469E-09         0.00000E+00
    0.60819E-07         0.70487E-09         0.00000E+00
    0.60874E-07         0.71202E-09         0.00000E+00
    0.60930E-07         0.71629E-09         0.00000E+00
    0.60987E-07         0.71780E-09         0.00000E+00
    0.61044E-07         0.71669E-09         0.00000E+00
    0.61101E-07         0.71307E-09         0.00000E+00
    0.61159E-07         0.70706E-09         0.00000E+00
    0.61216E-07         0.69877E-09         0.00000E+00
    0.61273E-07         0.68830E-09         0.00000E+00
    0.61329E-07         0.67575E-09         0.00000E+00
    0.61385E-07         0.66123E-09         0.00000E+00
    0.61440E-07         0.64483E-09         0.00000E+00
    0.61495E-07         0.62664E-09         0.00000E+00
    0.61548E-07         0.60678E-09         0.00000E+00
    0.61600E-07         0.58532E-09         0.00000E+00
    0.61650E-07         0.56238E-09         0.00000E+00
    0.61700E-07         0.53806E-09         0.00000E+00
    0.61747E-07         0.51244E-09         0.00000E+00
    0.61793E-07         0.48564E-09         0.00000E+00
    0.61837E-07         0.45777E-09         0.00000E+00
    0.61879E-07         0.42892E-09         0.00000E+00
    0.61919E-07         0.39921E-09         0.00000E+00
    0.61957E-07         0.36875E-09         0.00000E+00
    0.61992E-07         0.33764E-09         0.00000E+00
    0.62025E-07         0.30601E-09         0.00000E+00
    0.62055E-07         0.27397E-09         0.00000E+00
    0.62083E-07         0.24162E-09         0.00000E+00
    0.62107E-07         0.20907E-09         0.00000E+00
    0.62129E-07         0.17645E-09         0.00000E+00
    0.62147E-07         0.14384E-09         0.00000E+00
    0.62162E-07         0.11136E-09         0.00000E+00
    0.62174E-07         0.79104E-10         0.00000E+00
    0.62182E-07         0.47152E-10         0.00000E+00
    0.62186E-07         0.15591E-10         0.00000E+00
    0.66252E-07         0.27142E-10         0.00000E+00
    0.66259E-07         0.77918E-10         0.00000E+00
    0.66272E-07         0.12372E-09         0.00000E+00
    0.66292E-07         0.16494E-09         0.00000E+00
    0.66318E-07         0.20190E-09         0.00000E+00
    0.66349E-07         0.23493E-09         0.00000E+00
    0.66385E-07         0.26433E-09         0.00000E+00
    0.66426E-07         0.29035E-09         0.00000E+00
    0.66470E-07         0.31324E-09         0.00000E+00
    0.66518E-07         0.33322E-09         0.00000E+00
    0.66570E-07         0.35049E-09         0.00000E+00
    0.66624E-07         0.36523E-09         0.00000E+00
    0.66681E-07         0.37760E-09         0.00000E+00
    0.66741E-07         0.38775E-09         0.00000E+00
    0.66802E-07         0.39582E-09         0.00000E+00
    0.66865E-07         0.40191E-09         0.00000E+00
    0.66929E-07         0.40614E-09         0.00000E+00
    0.66995E-07         0.40860E-09         0.00000E+00
    0.67061E-07         0.40938E-09         0.00000E+00
    0.67127E-07         0.40857E-09         0.00000E+00
    0.67194E-07         0.40623E-09         0.00000E+00
    0.67261E-07         0.40243E-09         0.00000E+00
    0.67328E-07         0.39723E-09         0.00000E+00
    0.67394E-07         0.39069E-09         0.00000E+00
    0.67460E-07         0.38288E-09         0.00000E+00
    0.67524E-07         0.37385E-09         0.00000E+00
    0.67588E-07         0.36365E-09         0.00000E+00
    0.67651E-07         0.35235E-09         0.00000E+00
    0.67713E-07         0.34000E-09         0.00000E+00
    0.67773E-07         0.32668E-09         0.00000E+00
    0.67832E-07         0.31245E-09         0.00000E+00
    0.67889E-07         0.29738E-09         0.00000E+00
    0.67944E-07         0.28156E-09         0.00000E+00
    0.67997E-07         0.26507E-09         0.00000E+00
    0.68048E-07         0.24799E-09         0.00000E+00
    0.68097E-07         0.23044E-09         0.00000E+00
    0.68144E-07         0.21252E-09         0.00000E+00
    0.68188E-07         0.19434E-09         0.00000E+00
    0.68230E-07         0.17603E-09         0.00000E+00
    0.68269E-07         0.15770E-09         0.00000E+00
    0.68306E-07         0.13950E-09         0.00000E+00
    0.68339E-07         0.12157E-09         0.00000E+00
    0.68370E-07         0.10404E-09         0.00000E+00
    0.68397E-07         0.87056E-10         0.00000E+00
    0.68421E-07         0.70771E-10         0.00000E+00
    0.68441E-07         0.55328E-10         0.00000E+00
    0.68458E-07         0.40870E-10         0.00000E+00
    0.68471E-07         0.27534E-10         0.00000E+00
    0.68480E-07         0.15450E-10         0.00000E+00
    0.68484E-07         0.47388E-11         0.00000E+00
    0.72934E-07         0.71334E-11         0.00000E+00
    0.72943E-07         0.19725E-10         0.00000E+00
    0.72960E-07         0.30051E-10         0.00000E+00
    0.72984E-07         0.38424E-10         0.00000E+00
    0.73015E-07         0.45124E-10         0.00000E+00
    0.73052E-07         0.50398E-10         0.00000E+00
    0.73095E-07         0.54461E-10         0.00000E+00
    0.73143E-07         0.57503E-10         0.00000E+00
    0.73196E-07         0.59687E-10         0.00000E+00
    0.73253E-07         0.61151E-10         0.00000E+00
    0.73313E-07         0.62012E-10         0.00000E+00
    0.73377E-07         0.62367E-10         0.00000E+00
    0.73443E-07         0.62295E-10         0.00000E+00
    0.73512E-07         0.61858E-10         0.00000E+00
    0.73583E-07         0.61103E-10         0.00000E+00
    0.73656E-07         0.60067E-10         0.00000E+00
    0.73729E-07         0.58771E-10         0.00000E+00
    0.73804E-07         0.57231E-10         0.00000E+00
    0.73879E-07         0.55453E-10         0.00000E+00
    0.73954E-07         0.53435E-10         0.00000E+00
    0.74029E-07         0.51173E-10         0.00000E+00
    0.74104E-07         0.48657E-10         0.00000E+00
    0.74178E-07         0.45876E-10         0.00000E+00
    0.74252E-07         0.42817E-10         0.00000E+00
    0.74324E-07         0.39470E-10         0.00000E+00
    0.74396E-07         0.35824E-10         0.00000E+00
    0.74466E-07         0.31874E-10         0.00000E+00
    0.74534E-07         0.27619E-10         0.00000E+00
    0.74601E-07         0.23064E-10         0.00000E+00
    0.74666E-07         0.18221E-10         0.00000E+00
    0.74729E-07         0.13114E-10         0.00000E+00
    0.74790E-07         0.77738E-11         0.00000E+00
    0.74848E-07         0.22458E-11         0.00000E+00
    0.74905E-07        -0.34129E-11         0.00000E+00
    0.74959E-07        -0.91307E-11         0.00000E+00
    0.75010E-07        -0.14821E-10         0.00000E+00
    0.75059E-07        -0.20381E-10         0.00000E+00
    0.75105E-07        -0.25693E-10         0.00000E+00
    0.75149E-07        -0.30621E-10         0.00000E+00
    0.75189E-07        -0.35013E-10         0.00000E+00
    0.75227E-07        -0.38702E-10         0.00000E+00
    0.75262E-07        -0.41505E-10         0.00000E+00
    0.75294E-07        -0.43229E-10         0.00000E+00
    0.75322E-07        -0.43666E-10         0.00000E+00
    0.75347E-07        -0.42602E-10         0.00000E+00
    0.75368E-07        -0.39820E-10         0.00000E+00
    0.75385E-07        -0.35096E-10         0.00000E+00
    0.75399E-07        -0.28209E-10         0.00000E+00
    0.75408E-07        -0.18938E-10         0.00000E+00
    0.75413E-07        -0.70755E-11         0.00000E+00
    0.80365E-07        -0.16863E-10         0.00000E+00
    0.80376E-07        -0.49823E-10         0.00000E+00
    0.80395E-07        -0.81469E-10         0.00000E+00
    0.80423E-07        -0.11160E-09         0.00000E+00
    0.80459E-07        -0.14005E-09         0.00000E+00
    0.80503E-07        -0.16668E-09         0.00000E+00
    0.80552E-07        -0.19141E-09         0.00000E+00
    0.80608E-07        -0.21417E-09         0.00000E+00
    0.80668E-07        -0.23492E-09         0.00000E+00
    0.80733E-07        -0.25365E-09         0.00000E+00
    0.80802E-07        -0.27035E-09         0.00000E+00
    0.80874E-07        -0.28507E-09         0.00000E+00
    0.80949E-07        -0.29783E-09         0.00000E+00
    0.81027E-07        -0.30871E-09         0.00000E+00
    0.81106E-07        -0.31777E-09         0.00000E+00
    0.81186E-07        -0.32509E-09         0.00000E+00
    0.81267E-07        -0.33077E-09         0.00000E+00
    0.81349E-07        -0.33491E-09         0.00000E+00
    0.81431E-07        -0.33761E-09         0.00000E+00
    0.81513E-07        -0.33898E-09         0.00000E+00
    0.81594E-07        -0.33914E-09         0.00000E+00
    0.81675E-07        -0.33819E-09         0.00000E+00
    0.81754E-07        -0.33625E-09         0.00000E+00
    0.81833E-07        -0.33343E-09         0.00000E+00
    0.81909E-07        -0.32983E-09         0.00000E+00
    0.81984E-07        -0.32557E-09         0.00000E+00
    0.82057E-07        -0.32073E-09         0.00000E+00
    0.82127E-07        -0.31541E-09         0.00000E+00
    0.82196E-07        -0.30968E-09         0.00000E+00
    0.82262E-07        -0.30361E-09         0.00000E+00
    0.82325E-07        -0.29725E-09         0.00000E+00
    0.82386E-07        -0.29063E-09         0.00000E+00
    0.82445E-07        -0.28378E-09         0.00000E+00
    0.82500E-07        -0.27670E-09         0.00000E+00
    0.82553E-07        -0.26935E-09         0.00000E+00
    0.82603E-07        -0.26168E-09         0.00000E+00
    0.82650E-07        -0.25361E-09         0.00000E+00
    0.82694E-07        -0.24505E-09         0.00000E+00
    0.82735E-07        -0.23583E-09         0.00000E+00
    0.82774E-07        -0.22578E-09         0.00000E+00
    0.82810E-07        -0.21470E-09         0.00000E+00
    0.82842E-07        -0.20235E-09         0.00000E+00
    0.82872E-07        -0.18843E-09         0.00000E+00
    0.82898E-07        -0.17266E-09         0.00000E+00
    0.82922E-07        -0.15469E-09         0.00000E+00
    0.82942E-07        -0.13416E-09         0.00000E+00
    0.82958E-07        -0.11070E-09         0.00000E+00
    0.82971E-07        -0.83944E-10         0.00000E+00
    0.82980E-07        -0.53527E-10         0.00000E+00
    0.82984E-07        -0.19071E-10         0.00000E+00
    0.88594E-07        -0.44822E-10         0.00000E+00
    0.88606E-07        -0.13054E-09         0.00000E+00
    0.88628E-07        -0.21035E-09         0.00000E+00
    0.88660E-07        -0.28422E-09         0.00000E+00
    0.88701E-07        -0.35217E-09         0.00000E+00
    0.88750E-07        -0.41426E-09         0.00000E+00
    0.88805E-07        -0.47056E-09         0.00000E+00
    0.88867E-07        -0.52121E-09         0.00000E+00
    0.88934E-07        -0.56633E-09         0.00000E+00
    0.89006E-07        -0.60610E-09         0.00000E+00
    0.89082E-07        -0.64069E-09         0.00000E+00
    0.89161E-07        -0.67031E-09         0.00000E+00
    0.89242E-07        -0.69516E-09         0.00000E+00
    0.89326E-07        -0.71547E-09         0.00000E+00
    0.89411E-07        -0.73147E-09         0.00000E+00
    0.89497E-07        -0.74340E-09         0.00000E+00
    0.89583E-07        -0.75149E-09         0.00000E+00
    0.89670E-07        -0.75600E-09         0.00000E+00
    0.89756E-07        -0.75716E-09         0.00000E+00
    0.89841E-07        -0.75523E-09         0.00000E+00
    0.89925E-07        -0.75045E-09         0.00000E+00
    0.90008E-07        -0.74307E-09         0.00000E+00
    0.90089E-07        -0.73332E-09         0.00000E+00
    0.90168E-07        -0.72144E-09         0.00000E+00
    0.90245E-07        -0.70765E-09         0.00000E+00
    0.90319E-07        -0.69219E-09         0.00000E+00
    0.90390E-07        -0.67526E-09         0.00000E+00
    0.90459E-07        -0.65707E-09         0.00000E+00
    0.90524E-07        -0.63781E-09         0.00000E+00
    0.90587E-07        -0.61765E-09         0.00000E+00
    0.90646E-07        -0.59677E-09         0.00000E+00
    0.90702E-07        -0.57530E-09         0.00000E+00
    0.90754E-07        -0.55338E-09         0.00000E+00
    0.90804E-07        -0.53109E-09         0.00000E+00
    0.90849E-07        -0.50850E-09         0.00000E+00
    0.90892E-07        -0.48565E-09         0.00000E+00
    0.90932E-07        -0.46254E-09         0.00000E+00
    0.90968E-07        -0.43911E-09         0.00000E+00
    0.91001E-07        -0.41528E-09         0.00000E+00
    0.91032E-07        -0.39086E-09         0.00000E+00
    0.91059E-07        -0.36565E-09         0.00000E+00
    0.91084E-07        -0.33933E-09         0.00000E+00
    0.91107E-07        -0.31152E-09         0.00000E+00
    0.91127E-07        -0.28178E-09         0.00000E+00
    0.91144E-07        -0.24960E-09         0.00000E+00
    0.91159E-07        -0.21439E-09         0.00000E+00
    0.91172E-07        -0.17551E-09         0.00000E+00
    0.91181E-07        -0.13225E-09         0.00000E+00
    0.91188E-07        -0.83870E-10         0.00000E+00
    0.91192E-07        -0.29697E-10         0.00000E+00
    0.97656E-07        -0.76425E-10         0.00000E+00
    0.97669E-07        -0.22138E-09         0.00000E+00
    0.97694E-07        -0.35467E-09         0.00000E+00
    0.97729E-07        -0.47655E-09         0.00000E+00
    0.97774E-07        -0.58732E-09         0.00000E+00
    0.97827E-07        -0.68728E-09         0.00000E+00
    0.97887E-07        -0.77681E-09         0.00000E+00
    0.97953E-07        -0.85628E-09         0.00000E+00
    0.98025E-07        -0.92607E-09         0.00000E+00
    0.98101E-07        -0.98661E-09         0.00000E+00
    0.98181E-07        -0.10383E-08         0.00000E+00
    0.98264E-07        -0.10816E-08         0.00000E+00
    0.98349E-07        -0.11169E-08         0.00000E+00
    0.98436E-07        -0.11447E-08         0.00000E+00
    0.98523E-07        -0.11653E-08         0.00000E+00
    0.98611E-07        -0.11793E-08         0.00000E+00
    0.98699E-07        -0.11870E-08         0.00000E+00
    0.98786E-07        -0.11888E-08         0.00000E+00
    0.98872E-07        -0.11852E-08         0.00000E+00
    0.98957E-07        -0.11766E-08         0.00000E+00
    0.99040E-07        -0.11634E-08         0.00000E+00
    0.99120E-07        -0.11459E-08         0.00000E+00
    0.99198E-07        -0.11246E-08         0.00000E+00
    0.99273E-07        -0.10998E-08         0.00000E+00
    0.99345E-07        -0.10719E-08         0.00000E+00
    0.99413E-07        -0.10412E-08         0.00000E+00
    0.99478E-07        -0.10082E-08         0.00000E+00
    0.99540E-07        -0.97302E-09         0.00000E+00
    0.99597E-07        -0.93615E-09         0.00000E+00
    0.99650E-07        -0.89786E-09         0.00000E+00
    0.99699E-07        -0.85846E-09         0.00000E+00
    0.99744E-07        -0.81824E-09         0.00000E+00
    0.99785E-07        -0.77748E-09         0.00000E+00
    0.99822E-07        -0.73643E-09         0.00000E+00
    0.99854E-07        -0.69532E-09         0.00000E+00
    0.99883E-07        -0.65437E-09         0.00000E+00
    0.99907E-07        -0.61373E-09         0.00000E+00
    0.99928E-07        -0.57351E-09         0.00000E+00
    0.99945E-07        -0.53378E-09         0.00000E+00
    0.99959E-07        -0.49453E-09         0.00000E+00
    0.99970E-07        -0.45570E-09         0.00000E+00
    0.99979E-07        -0.41711E-09         0.00000E+00
    0.99986E-07        -0.37845E-09         0.00000E+00
    0.99990E-07        -0.33920E-09         0.00000E+00
    0.99994E-07        -0.29864E-09         0.00000E+00
    0.99997E-07        -0.25576E-09         0.00000E+00
    0.10000E-06        -0.20942E-09         0.00000E+00
    0.10000E-06        -0.15837E-09         0.00000E+00
    0.10000E-06        -0.10122E-09         0.00000E+00
    0.10001E-06        -0.36315E-10         0.00000E+00
    0.10757E-06        -0.11089E-09         0.00000E+00
    0.10758E-06        -0.31992E-09         0.00000E+00
    0.10761E-06        -0.51029E-09         0.00000E+00
    0.10764E-06        -0.68269E-09         0.00000E+00
    0.10769E-06        -0.83779E-09         0.00000E+00
    0.10775E-06        -0.97632E-09         0.00000E+00
    0.10781E-06        -0.10990E-08         0.00000E+00
    0.10788E-06        -0.12066E-08         0.00000E+00
    0.10795E-06        -0.12998E-08         0.00000E+00
    0.10803E-06        -0.13794E-08         0.00000E+00
    0.10811E-06        -0.14460E-08         0.00000E+00
    0.10819E-06        -0.15005E-08         0.00000E+00
    0.10827E-06        -0.15435E-08         0.00000E+00
    0.10836E-06        -0.15757E-08         0.00000E+00
    0.10844E-06        -0.15978E-08         0.00000E+00
    0.10853E-06        -0.16104E-08         0.00000E+00
    0.10861E-06        -0.16143E-08         0.00000E+00
    0.10869E-06        -0.16098E-08         0.00000E+00
    0.10877E-06        -0.15978E-08         0.00000E+00
    0.10885E-06        -0.15788E-08         0.00000E+00
    0.10893E-06        -0.15532E-08         0.00000E+00
    0.10900E-06        -0.15218E-08         0.00000E+00
    0.10907E-06        -0.14849E-08         0.00000E+00
    0.10914E-06        -0.14431E-08         0.00000E+00
    0.10920E-06        -0.13969E-08         0.00000E+00
    0.10926E-06        -0.13468E-08         0.00000E+00
    0.10931E-06        -0.12932E-08         0.00000E+00
    0.10936E-06        -0.12367E-08         0.00000E+00
    0.10940E-06        -0.11777E-08         0.00000E+00
    0.10944E-06        -0.11167E-08         0.00000E+00
    0.10947E-06        -0.10540E-08         0.00000E+00
    0.10950E-06        -0.99027E-09         0.00000E+00
    0.10952E-06        -0.92581E-09         0.00000E+00
    0.10954E-06        -0.86112E-09         0.00000E+00
    0.10956E-06        -0.79661E-09         0.00000E+00
    0.10956E-06        -0.73273E-09         0.00000E+00
    0.10957E-06        -0.66991E-09         0.00000E+00
    0.10956E-06        -0.60862E-09         0.00000E+00
    0.10956E-06        -0.54923E-09         0.00000E+00
    0.10954E-06        -0.49209E-09         0.00000E+00
    0.10953E-06        -0.43740E-09         0.00000E+00
    0.10951E-06        -0.38528E-09         0.00000E+00
    0.10949E-06        -0.33588E-09         0.00000E+00
    0.10947E-06        -0.28933E-09         0.00000E+00
    0.10944E-06        -0.24565E-09         0.00000E+00
    0.10942E-06        -0.20460E-09         0.00000E+00
    0.10940E-06        -0.16528E-09         0.00000E+00
    0.10938E-06        -0.12538E-09         0.00000E+00
    0.10937E-06        -0.81766E-10         0.00000E+00
    0.10936E-06        -0.30762E-10         0.00000E+00
    0.11831E-06        -0.14673E-09         0.00000E+00
    0.11832E-06        -0.42167E-09         0.00000E+00
    0.11835E-06        -0.66978E-09         0.00000E+00
    0.11838E-06        -0.89230E-09         0.00000E+00
    0.11843E-06        -0.10905E-08         0.00000E+00
    0.11848E-06        -0.12657E-08         0.00000E+00
    0.11854E-06        -0.14190E-08         0.00000E+00
    0.11861E-06        -0.15517E-08         0.00000E+00
    0.11868E-06        -0.16650E-08         0.00000E+00
    0.11875E-06        -0.17600E-08         0.00000E+00
    0.11882E-06        -0.18379E-08         0.00000E+00
    0.11890E-06        -0.18997E-08         0.00000E+00
    0.11898E-06        -0.19465E-08         0.00000E+00
    0.11905E-06        -0.19792E-08         0.00000E+00
    0.11913E-06        -0.19988E-08         0.00000E+00
    0.11920E-06        -0.20063E-08         0.00000E+00
    0.11928E-06        -0.20024E-08         0.00000E+00
    0.11935E-06        -0.19881E-08         0.00000E+00
    0.11941E-06        -0.19640E-08         0.00000E+00
    0.11948E-06        -0.19309E-08         0.00000E+00
    0.11954E-06        -0.18895E-08         0.00000E+00
    0.11960E-06        -0.18406E-08         0.00000E+00
    0.11965E-06        -0.17846E-08         0.00000E+00
    0.11970E-06        -0.17224E-08         0.00000E+00
    0.11975E-06        -0.16544E-08         0.00000E+00
    0.11979E-06        -0.15813E-08         0.00000E+00
    0.11983E-06        -0.15036E-08         0.00000E+00
    0.11986E-06        -0.14220E-08         0.00000E+00
    0.11988E-06        -0.13369E-08         0.00000E+00
    0.11990E-06        -0.12489E-08         0.00000E+00
    0.11992E-06        -0.11586E-08         0.00000E+00
    0.11992E-06        -0.10666E-08         0.00000E+00
    0.11992E-06        -0.97353E-09         0.00000E+00
    0.11992E-06        -0.87994E-09         0.00000E+00
    0.11991E-06        -0.78654E-09         0.00000E+00
    0.11989E-06        -0.69399E-09         0.00000E+00
    0.11987E-06        -0.60289E-09         0.00000E+00
    0.11984E-06        -0.51387E-09         0.00000E+00
    0.11980E-06        -0.42765E-09         0.00000E+00
    0.11976E-06        -0.34520E-09         0.00000E+00
    0.11971E-06        -0.26764E-09         0.00000E+00
    0.11966E-06        -0.19621E-09         0.00000E+00
    0.11960E-06        -0.13164E-09         0.00000E+00
    0.11954E-06        -0.74185E-10         0.00000E+00
    0.11948E-06        -0.24351E-10         0.00000E+00
    0.11941E-06         0.17162E-10         0.00000E+00
    0.11935E-06         0.49090E-10         0.00000E+00
    0.11928E-06         0.67454E-10         0.00000E+00
    0.11923E-06         0.62214E-10         0.00000E+00
    0.11920E-06         0.24236E-10         0.00000E+00
    0.12981E-06        -0.18144E-09         0.00000E+00
    0.12983E-06        -0.51928E-09         0.00000E+00
    0.12985E-06        -0.82112E-09         0.00000E+00
    0.12988E-06        -0.10891E-08         0.00000E+00
    0.12992E-06        -0.13251E-08         0.00000E+00
    0.12997E-06        -0.15312E-08         0.00000E+00
    0.13002E-06        -0.17093E-08         0.00000E+00
    0.13008E-06        -0.18612E-08         0.00000E+00
    0.13013E-06        -0.19887E-08         0.00000E+00
    0.13019E-06        -0.20934E-08         0.00000E+00
    0.13025E-06        -0.21770E-08         0.00000E+00
    0.13031E-06        -0.22408E-08         0.00000E+00
    0.13037E-06        -0.22863E-08         0.00000E+00
    0.13043E-06        -0.23149E-08         0.00000E+00
    0.13049E-06        -0.23278E-08         0.00000E+00
    0.13054E-06        -0.23261E-08         0.00000E+00
    0.13060E-06        -0.23110E-08         0.00000E+00
    0.13065E-06        -0.22834E-08         0.00000E+00
    0.13069E-06        -0.22442E-08         0.00000E+00
    0.13074E-06        -0.21944E-08         0.00000E+00
    0.13078E-06        -0.21348E-08         0.00000E+00
    0.13081E-06        -0.20661E-08         0.00000E+00
    0.13085E-06        -0.19891E-08         0.00000E+00
    0.13087E-06        -0.19045E-08         0.00000E+00
    0.13090E-06        -0.18129E-08         0.00000E+00
    0.13091E-06        -0.17149E-08         0.00000E+00
    0.13093E-06        -0.16112E-08         0.00000E+00
    0.13093E-06        -0.15024E-08         0.00000E+00
    0.13093E-06        -0.13891E-08         0.00000E+00
    0.13093E-06        -0.12719E-08         0.00000E+00
    0.13092E-06        -0.11514E-08         0.00000E+00
    0.13090E-06        -0.10284E-08         0.00000E+00
    0.13088E-06        -0.90342E-09         0.00000E+00
    0.13085E-06        -0.77723E-09         0.00000E+00
    0.13081E-06        -0.65041E-09         0.00000E+00
    0.13077E-06        -0.52389E-09         0.00000E+00
    0.13072E-06        -0.39888E-09         0.00000E+00
    0.13066E-06        -0.27674E-09         0.00000E+00
    0.13059E-06        -0.15853E-09         0.00000E+00
    0.13052E-06        -0.44727E-10         0.00000E+00
    0.13044E-06         0.63990E-10         0.00000E+00
    0.13036E-06         0.16689E-09         0.00000E+00
    0.13026E-06         0.26132E-09         0.00000E+00
    0.13016E-06         0.34265E-09         0.00000E+00
    0.13006E-06         0.40089E-09         0.00000E+00
    0.12995E-06         0.42812E-09         0.00000E+00
    0.12986E-06         0.42219E-09         0.00000E+00
    0.12979E-06         0.37414E-09         0.00000E+00
    0.12974E-06         0.27019E-09         0.00000E+00
    0.12972E-06         0.99699E-10         0.00000E+00
    0.14196E-06        -0.21121E-09         0.00000E+00
    0.14197E-06        -0.60164E-09         0.00000E+00
    0.14198E-06        -0.94653E-09         0.00000E+00
    0.14201E-06        -0.12490E-08         0.00000E+00
    0.14204E-06        -0.15121E-08         0.00000E+00
    0.14207E-06        -0.17387E-08         0.00000E+00
    0.14210E-06        -0.19316E-08         0.00000E+00
    0.14214E-06        -0.20932E-08         0.00000E+00
    0.14218E-06        -0.22260E-08         0.00000E+00
    0.14221E-06        -0.23323E-08         0.00000E+00
    0.14225E-06        -0.24141E-08         0.00000E+00
    0.14228E-06        -0.24733E-08         0.00000E+00
    0.14231E-06        -0.25119E-08         0.00000E+00
    0.14234E-06        -0.25314E-08         0.00000E+00
    0.14237E-06        -0.25332E-08         0.00000E+00
    0.14239E-06        -0.25189E-08         0.00000E+00
    0.14241E-06        -0.24897E-08         0.00000E+00
    0.14243E-06        -0.24466E-08         0.00000E+00
    0.14245E-06        -0.23908E-08         0.00000E+00
    0.14246E-06        -0.23232E-08         0.00000E+00
    0.14247E-06        -0.22446E-08         0.00000E+00
    0.14247E-06        -0.21559E-08         0.00000E+00
    0.14247E-06        -0.20578E-08         0.00000E+00
    0.14247E-06        -0.19510E-08         0.00000E+00
    0.14246E-06        -0.18361E-08         0.00000E+00
    0.14245E-06        -0.17136E-08         0.00000E+00
    0.14243E-06        -0.15843E-08         0.00000E+00
    0.14240E-06        -0.14487E-08         0.00000E+00
    0.14238E-06        -0.13073E-08         0.00000E+00
    0.14234E-06        -0.11608E-08         0.00000E+00
    0.14230E-06        -0.10098E-08         0.00000E+00
    0.14226E-06        -0.85470E-09         0.00000E+00
    0.14220E-06        -0.69636E-09         0.00000E+00
    0.14214E-06        -0.53586E-09         0.00000E+00
    0.14208E-06        -0.37454E-09         0.00000E+00
    0.14200E-06        -0.21298E-09         0.00000E+00
    0.14192E-06        -0.51242E-10         0.00000E+00
    0.14183E-06         0.11042E-09         0.00000E+00
    0.14174E-06         0.27026E-09         0.00000E+00
    0.14163E-06         0.42377E-09         0.00000E+00
    0.14151E-06         0.56050E-09         0.00000E+00
    0.14140E-06         0.67450E-09         0.00000E+00
    0.14129E-06         0.76419E-09         0.00000E+00
    0.14119E-06         0.82242E-09         0.00000E+00
    0.14112E-06         0.83857E-09         0.00000E+00
    0.14106E-06         0.80580E-09         0.00000E+00
    0.14101E-06         0.72291E-09         0.00000E+00
    0.14098E-06         0.58659E-09         0.00000E+00
    0.14096E-06         0.39343E-09         0.00000E+00
    0.14095E-06         0.14034E-09         0.00000E+00
    0.15451E-06        -0.23063E-09         0.00000E+00
    0.15451E-06        -0.65328E-09         0.00000E+00
    0.15452E-06        -0.10215E-08         0.00000E+00
    0.15453E-06        -0.13398E-08         0.00000E+00
    0.15454E-06        -0.16124E-08         0.00000E+00
    0.15455E-06        -0.18432E-08         0.00000E+00
    0.15456E-06        -0.20359E-08         0.00000E+00
    0.15456E-06        -0.21939E-08         0.00000E+00
    0.15456E-06        -0.23204E-08         0.00000E+00
    0.15456E-06        -0.24180E-08         0.00000E+00
    0.15456E-06        -0.24894E-08         0.00000E+00
    0.15456E-06        -0.25370E-08         0.00000E+00
    0.15455E-06        -0.25628E-08         0.00000E+00
    0.15453E-06        -0.25687E-08         0.00000E+00
    0.15452E-06        -0.25564E-08         0.00000E+00
    0.15450E-06        -0.25273E-08         0.00000E+00
    0.15448E-06        -0.24828E-08         0.00000E+00
    0.15446E-06        -0.24241E-08         0.00000E+00
    0.15443E-06        -0.23521E-08         0.00000E+00
    0.15440E-06        -0.22678E-08         0.00000E+00
    0.15436E-06        -0.21719E-08         0.00000E+00
    0.15433E-06        -0.20652E-08         0.00000E+00
    0.15429E-06        -0.19482E-08         0.00000E+00
    0.15424E-06        -0.18216E-08         0.00000E+00
    0.15420E-06        -0.16858E-08         0.00000E+00
    0.15415E-06        -0.15413E-08         0.00000E+00
    0.15409E-06        -0.13885E-08         0.00000E+00
    0.15403E-06        -0.12279E-08         0.00000E+00
    0.15396E-06        -0.10598E-08         0.00000E+00
    0.15389E-06        -0.88468E-09         0.00000E+00
    0.15382E-06        -0.70332E-09         0.00000E+00
    0.15373E-06        -0.51669E-09         0.00000E+00
    0.15365E-06        -0.32519E-09         0.00000E+00
    0.15355E-06        -0.12851E-09         0.00000E+00
    0.15345E-06         0.74242E-10         0.00000E+00
    0.15333E-06         0.28054E-09         0.00000E+00
    0.15321E-06         0.47918E-09         0.00000E+00
    0.15308E-06         0.66232E-09         0.00000E+00
    0.15295E-06         0.82759E-09         0.00000E+00
    0.15284E-06         0.96797E-09         0.00000E+00
    0.15275E-06         0.10719E-08         0.00000E+00
    0.15267E-06         0.11333E-08         0.00000E+00
    0.15260E-06         0.11519E-08         0.00000E+00
    0.15256E-06         0.11268E-08         0.00000E+00
    0.15253E-06         0.10593E-08         0.00000E+00
    0.15252E-06         0.95003E-09         0.00000E+00
    0.15252E-06         0.79941E-09         0.00000E+00
    0.15253E-06         0.60977E-09         0.00000E+00
    0.15255E-06         0.38620E-09         0.00000E+00
    0.15256E-06         0.13335E-09         0.00000E+00
    0.16713E-06        -0.23265E-09         0.00000E+00
    0.16713E-06        -0.65421E-09         0.00000E+00
    0.16712E-06        -0.10149E-08         0.00000E+00
    0.16711E-06        -0.13209E-08         0.00000E+00
    0.16709E-06        -0.15778E-08         0.00000E+00
    0.16706E-06        -0.17906E-08         0.00000E+00
    0.16703E-06        -0.19641E-08         0.00000E+00
    0.16699E-06        -0.21023E-08         0.00000E+00
    0.16695E-06        -0.22089E-08         0.00000E+00
    0.16690E-06        -0.22873E-08         0.00000E+00
    0.16685E-06        -0.23401E-08         0.00000E+00
    0.16679E-06        -0.23701E-08         0.00000E+00
    0.16673E-06        -0.23793E-08         0.00000E+00
    0.16666E-06        -0.23696E-08         0.00000E+00
    0.16660E-06        -0.23426E-08         0.00000E+00
    0.16653E-06        -0.22997E-08         0.00000E+00
    0.16645E-06        -0.22420E-08         0.00000E+00
    0.16638E-06        -0.21706E-08         0.00000E+00
    0.16630E-06        -0.20861E-08         0.00000E+00
    0.16622E-06        -0.19892E-08         0.00000E+00
    0.16614E-06        -0.18805E-08         0.00000E+00
    0.16606E-06        -0.17604E-08         0.00000E+00
    0.16598E-06        -0.16293E-08         0.00000E+00
    0.16589E-06        -0.14874E-08         0.00000E+00
    0.16580E-06        -0.13350E-08         0.00000E+00
    0.16571E-06        -0.11720E-08         0.00000E+00
    0.16561E-06        -0.99881E-09         0.00000E+00
    0.16551E-06        -0.81552E-09         0.00000E+00
    0.16541E-06        -0.62262E-09         0.00000E+00
    0.16530E-06        -0.42022E-09         0.00000E+00
    0.16518E-06        -0.20748E-09         0.00000E+00
    0.16506E-06         0.17330E-10         0.00000E+00
    0.16492E-06         0.25140E-09         0.00000E+00
    0.16478E-06         0.48354E-09         0.00000E+00
    0.16464E-06         0.70846E-09         0.00000E+00
    0.16450E-06         0.92177E-09         0.00000E+00
    0.16437E-06         0.11087E-08         0.00000E+00
    0.16425E-06         0.12587E-08         0.00000E+00
    0.16415E-06         0.13678E-08         0.00000E+00
    0.16406E-06         0.14320E-08         0.00000E+00
    0.16399E-06         0.14495E-08         0.00000E+00
    0.16393E-06         0.14199E-08         0.00000E+00
    0.16390E-06         0.13434E-08         0.00000E+00
    0.16388E-06         0.12205E-08         0.00000E+00
    0.16389E-06         0.10539E-08         0.00000E+00
    0.16393E-06         0.85527E-09         0.00000E+00
    0.16398E-06         0.64680E-09         0.00000E+00
    0.16403E-06         0.44197E-09         0.00000E+00
    0.16407E-06         0.24819E-09         0.00000E+00
    0.16410E-06         0.77482E-10         0.00000E+00
    0.17932E-06        -0.20842E-09         0.00000E+00
    0.17930E-06        -0.57978E-09         0.00000E+00
    0.17927E-06        -0.88971E-09         0.00000E+00
    0.17923E-06        -0.11462E-08         0.00000E+00
    0.17917E-06        -0.13560E-08         0.00000E+00
    0.17910E-06        -0.15252E-08         0.00000E+00
    0.17901E-06        -0.16588E-08         0.00000E+00
    0.17892E-06        -0.17613E-08         0.00000E+00
    0.17882E-06        -0.18366E-08         0.00000E+00
    0.17872E-06        -0.18878E-08         0.00000E+00
    0.17861E-06        -0.19179E-08         0.00000E+00
    0.17849E-06        -0.19289E-08         0.00000E+00
    0.17837E-06        -0.19226E-08         0.00000E+00
    0.17825E-06        -0.19006E-08         0.00000E+00
    0.17813E-06        -0.18639E-08         0.00000E+00
    0.17801E-06        -0.18135E-08         0.00000E+00
    0.17788E-06        -0.17499E-08         0.00000E+00
    0.17776E-06        -0.16735E-08         0.00000E+00
    0.17764E-06        -0.15848E-08         0.00000E+00
    0.17752E-06        -0.14838E-08         0.00000E+00
    0.17739E-06        -0.13705E-08         0.00000E+00
    0.17727E-06        -0.12449E-08         0.00000E+00
    0.17715E-06        -0.11069E-08         0.00000E+00
    0.17702E-06        -0.95645E-09         0.00000E+00
    0.17690E-06        -0.79361E-09         0.00000E+00
    0.17677E-06        -0.61832E-09         0.00000E+00
    0.17664E-06        -0.42975E-09         0.00000E+00
    0.17651E-06        -0.22649E-09         0.00000E+00
    0.17638E-06        -0.63457E-11         0.00000E+00
    0.17623E-06         0.22673E-09         0.00000E+00
    0.17608E-06         0.46527E-09         0.00000E+00
    0.17594E-06         0.70854E-09         0.00000E+00
    0.17579E-06         0.95145E-09         0.00000E+00
    0.17565E-06         0.11787E-08         0.00000E+00
    0.17552E-06         0.13799E-08         0.00000E+00
    0.17540E-06         0.15494E-08         0.00000E+00
    0.17529E-06         0.16816E-08         0.00000E+00
    0.17519E-06         0.17714E-08         0.00000E+00
    0.17511E-06         0.18130E-08         0.00000E+00
    0.17503E-06         0.18017E-08         0.00000E+00
    0.17497E-06         0.17330E-08         0.00000E+00
    0.17493E-06         0.16034E-08         0.00000E+00
    0.17492E-06         0.14098E-08         0.00000E+00
    0.17493E-06         0.11693E-08         0.00000E+00
    0.17496E-06         0.91292E-09         0.00000E+00
    0.17499E-06         0.66359E-09         0.00000E+00
    0.17502E-06         0.44331E-09         0.00000E+00
    0.17504E-06         0.26304E-09         0.00000E+00
    0.17506E-06         0.12495E-09         0.00000E+00
    0.17507E-06         0.31934E-10         0.00000E+00
    0.19034E-06        -0.14684E-09         0.00000E+00
    0.19030E-06        -0.40439E-09         0.00000E+00
    0.19024E-06        -0.61249E-09         0.00000E+00
    0.19016E-06        -0.77847E-09         0.00000E+00
    0.19006E-06        -0.90914E-09         0.00000E+00
    0.18994E-06        -0.10105E-08         0.00000E+00
    0.18980E-06        -0.10879E-08         0.00000E+00
    0.18966E-06        -0.11452E-08         0.00000E+00
    0.18950E-06        -0.11856E-08         0.00000E+00
    0.18934E-06        -0.12111E-08         0.00000E+00
    0.18918E-06        -0.12235E-08         0.00000E+00
    0.18901E-06        -0.12238E-08         0.00000E+00
    0.18885E-06        -0.12126E-08         0.00000E+00
    0.18869E-06        -0.11903E-08         0.00000E+00
    0.18852E-06        -0.11569E-08         0.00000E+00
    0.18837E-06        -0.11122E-08         0.00000E+00
    0.18821E-06        -0.10560E-08         0.00000E+00
    0.18806E-06        -0.98813E-09         0.00000E+00
    0.18791E-06        -0.90807E-09         0.00000E+00
    0.18776E-06        -0.81541E-09         0.00000E+00
    0.18762E-06        -0.70956E-09         0.00000E+00
    0.18748E-06        -0.58981E-09         0.00000E+00
    0.18734E-06        -0.45518E-09         0.00000E+00
    0.18720E-06        -0.30430E-09         0.00000E+00
    0.18707E-06        -0.13691E-09         0.00000E+00
    0.18693E-06         0.45734E-10         0.00000E+00
    0.18679E-06         0.24157E-09         0.00000E+00
    0.18665E-06         0.45018E-09         0.00000E+00
    0.18652E-06         0.67334E-09         0.00000E+00
    0.18639E-06         0.90527E-09         0.00000E+00
    0.18627E-06         0.11346E-08         0.00000E+00
    0.18615E-06         0.13547E-08         0.00000E+00
    0.18605E-06         0.15604E-08         0.00000E+00
    0.18595E-06         0.17462E-08         0.00000E+00
    0.18586E-06         0.19061E-08         0.00000E+00
    0.18578E-06         0.20337E-08         0.00000E+00
    0.18570E-06         0.21226E-08         0.00000E+00
    0.18563E-06         0.21662E-08         0.00000E+00
    0.18557E-06         0.21574E-08         0.00000E+00
    0.18552E-06         0.20883E-08         0.00000E+00
    0.18548E-06         0.19502E-08         0.00000E+00
    0.18545E-06         0.17336E-08         0.00000E+00
    0.18543E-06         0.14415E-08         0.00000E+00
    0.18543E-06         0.11258E-08         0.00000E+00
    0.18542E-06         0.83640E-09         0.00000E+00
    0.18542E-06         0.58356E-09         0.00000E+00
    0.18542E-06         0.37265E-09         0.00000E+00
    0.18542E-06         0.20673E-09         0.00000E+00
    0.18542E-06         0.88389E-10         0.00000E+00
    0.18543E-06         0.18929E-10         0.00000E+00
    0.19917E-06        -0.52134E-10         0.00000E+00
    0.19913E-06        -0.12956E-09         0.00000E+00
    0.19904E-06        -0.17993E-09         0.00000E+00
    0.19893E-06        -0.21508E-09         0.00000E+00
    0.19879E-06        -0.24314E-09         0.00000E+00
    0.19863E-06        -0.26842E-09         0.00000E+00
    0.19845E-06        -0.29190E-09         0.00000E+00
    0.19827E-06        -0.31364E-09         0.00000E+00
    0.19809E-06        -0.33343E-09         0.00000E+00
    0.19791E-06        -0.35119E-09         0.00000E+00
    0.19773E-06        -0.36667E-09         0.00000E+00
    0.19755E-06        -0.37820E-09         0.00000E+00
    0.19738E-06        -0.38380E-09         0.00000E+00
    0.19722E-06        -0.38168E-09         0.00000E+00
    0.19706E-06        -0.37036E-09         0.00000E+00
    0.19691E-06        -0.34863E-09         0.00000E+00
    0.19676E-06        -0.31548E-09         0.00000E+00
    0.19662E-06        -0.27003E-09         0.00000E+00
    0.19649E-06        -0.21153E-09         0.00000E+00
    0.19636E-06        -0.13926E-09         0.00000E+00
    0.19624E-06        -0.52548E-10         0.00000E+00
    0.19612E-06         0.49342E-10         0.00000E+00
    0.19601E-06         0.16720E-09         0.00000E+00
    0.19590E-06         0.30196E-09         0.00000E+00
    0.19580E-06         0.45365E-09         0.00000E+00
    0.19570E-06         0.62033E-09         0.00000E+00
    0.19561E-06         0.79753E-09         0.00000E+00
    0.19553E-06         0.98140E-09         0.00000E+00
    0.19546E-06         0.11695E-08         0.00000E+00
    0.19540E-06         0.13584E-08         0.00000E+00
    0.19535E-06         0.15439E-08         0.00000E+00
    0.19531E-06         0.17210E-08         0.00000E+00
    0.19528E-06         0.18848E-08         0.00000E+00
    0.19525E-06         0.20306E-08         0.00000E+00
    0.19524E-06         0.21533E-08         0.00000E+00
    0.19523E-06         0.22478E-08         0.00000E+00
    0.19522E-06         0.23081E-08         0.00000E+00
    0.19522E-06         0.23276E-08         0.00000E+00
    0.19522E-06         0.22989E-08         0.00000E+00
    0.19522E-06         0.22134E-08         0.00000E+00
    0.19521E-06         0.20609E-08         0.00000E+00
    0.19520E-06         0.18306E-08         0.00000E+00
    0.19518E-06         0.15315E-08         0.00000E+00
    0.19515E-06         0.12042E-08         0.00000E+00
    0.19513E-06         0.89294E-09         0.00000E+00
    0.19512E-06         0.61973E-09         0.00000E+00
    0.19511E-06         0.38886E-09         0.00000E+00
    0.19510E-06         0.20603E-09         0.00000E+00
    0.19510E-06         0.79405E-10         0.00000E+00
    0.19510E-06         0.13342E-10         0.00000E+00
    0.20456E-06         0.10493E-09         0.00000E+00
    0.20449E-06         0.27302E-09         0.00000E+00
    0.20437E-06         0.38898E-09         0.00000E+00
    0.20424E-06         0.46366E-09         0.00000E+00
    0.20410E-06         0.50522E-09         0.00000E+00
    0.20395E-06         0.52041E-09         0.00000E+00
    0.20381E-06         0.51128E-09         0.00000E+00
    0.20367E-06         0.48027E-09         0.00000E+00
    0.20354E-06         0.43381E-09         0.00000E+00
    0.20342E-06         0.38053E-09         0.00000E+00
    0.20331E-06         0.32853E-09         0.00000E+00
    0.20322E-06         0.28213E-09         0.00000E+00
    0.20313E-06         0.24382E-09         0.00000E+00
    0.20305E-06         0.21495E-09         0.00000E+00
    0.20297E-06         0.19665E-09         0.00000E+00
    0.20291E-06         0.18982E-09         0.00000E+00
    0.20284E-06         0.19510E-09         0.00000E+00
    0.20278E-06         0.21296E-09         0.00000E+00
    0.20273E-06         0.24380E-09         0.00000E+00
    0.20268E-06         0.28790E-09         0.00000E+00
    0.20264E-06         0.34540E-09         0.00000E+00
    0.20260E-06         0.41626E-09         0.00000E+00
    0.20258E-06         0.50019E-09         0.00000E+00
    0.20256E-06         0.59643E-09         0.00000E+00
    0.20255E-06         0.70406E-09         0.00000E+00
    0.20256E-06         0.82168E-09         0.00000E+00
    0.20258E-06         0.94697E-09         0.00000E+00
    0.20261E-06         0.10772E-08         0.00000E+00
    0.20265E-06         0.12097E-08         0.00000E+00
    0.20270E-06         0.13420E-08         0.00000E+00
    0.20277E-06         0.14713E-08         0.00000E+00
    0.20286E-06         0.15949E-08         0.00000E+00
    0.20295E-06         0.17098E-08         0.00000E+00
    0.20305E-06         0.18127E-08         0.00000E+00
    0.20316E-06         0.19001E-08         0.00000E+00
    0.20328E-06         0.19683E-08         0.00000E+00
    0.20340E-06         0.20130E-08         0.00000E+00
    0.20352E-06         0.20296E-08         0.00000E+00
    0.20364E-06         0.20129E-08         0.00000E+00
    0.20375E-06         0.19568E-08         0.00000E+00
    0.20384E-06         0.18544E-08         0.00000E+00
    0.20392E-06         0.16982E-08         0.00000E+00
    0.20398E-06         0.14848E-08         0.00000E+00
    0.20401E-06         0.12188E-08         0.00000E+00
    0.20402E-06         0.92841E-09         0.00000E+00
    0.20403E-06         0.64072E-09         0.00000E+00
    0.20404E-06         0.38041E-09         0.00000E+00
    0.20405E-06         0.17561E-09         0.00000E+00
    0.20406E-06         0.41315E-10         0.00000E+00
    0.20407E-06        -0.18168E-11         0.00000E+00
    0.20389E-06         0.10447E-09         0.00000E+00
    0.20397E-06         0.25836E-09         0.00000E+00
    0.20409E-06         0.35266E-09         0.00000E+00
    0.20424E-06         0.40720E-09         0.00000E+00
    0.20441E-06         0.43516E-09         0.00000E+00
    0.20458E-06         0.44459E-09         0.00000E+00
    0.20476E-06         0.43590E-09         0.00000E+00
    0.20493E-06         0.40978E-09         0.00000E+00
    0.20509E-06         0.37134E-09         0.00000E+00
    0.20523E-06         0.32848E-09         0.00000E+00
    0.20535E-06         0.28872E-09         0.00000E+00
    0.20546E-06         0.25461E-09         0.00000E+00
    0.20555E-06         0.22670E-09         0.00000E+00
    0.20564E-06         0.20479E-09         0.00000E+00
    0.20572E-06         0.18891E-09         0.00000E+00
    0.20579E-06         0.17911E-09         0.00000E+00
    0.20586E-06         0.17538E-09         0.00000E+00
    0.20593E-06         0.17768E-09         0.00000E+00
    0.20601E-06         0.18600E-09         0.00000E+00
    0.20608E-06         0.20028E-09         0.00000E+00
    0.20617E-06         0.22041E-09         0.00000E+00
    0.20626E-06         0.24616E-09         0.00000E+00
    0.20637E-06         0.27722E-09         0.00000E+00
    0.20648E-06         0.31318E-09         0.00000E+00
    0.20662E-06         0.35345E-09         0.00000E+00
    0.20677E-06         0.39731E-09         0.00000E+00
    0.20694E-06         0.44400E-09         0.00000E+00
    0.20712E-06         0.49270E-09         0.00000E+00
    0.20733E-06         0.54246E-09         0.00000E+00
    0.20756E-06         0.59234E-09         0.00000E+00
    0.20780E-06         0.64138E-09         0.00000E+00
    0.20807E-06         0.68854E-09         0.00000E+00
    0.20835E-06         0.73274E-09         0.00000E+00
    0.20866E-06         0.77281E-09         0.00000E+00
    0.20897E-06         0.80749E-09         0.00000E+00
    0.20930E-06         0.83537E-09         0.00000E+00
    0.20964E-06         0.85495E-09         0.00000E+00
    0.20998E-06         0.86462E-09         0.00000E+00
    0.21033E-06         0.86255E-09         0.00000E+00
    0.21067E-06         0.84664E-09         0.00000E+00
    0.21100E-06         0.81447E-09         0.00000E+00
    0.21132E-06         0.76321E-09         0.00000E+00
    0.21161E-06         0.68737E-09         0.00000E+00
    0.21186E-06         0.58464E-09         0.00000E+00
    0.21207E-06         0.45908E-09         0.00000E+00
    0.21222E-06         0.31430E-09         0.00000E+00
    0.21232E-06         0.17573E-09         0.00000E+00
    0.21237E-06         0.69074E-10         0.00000E+00
    0.21239E-06         0.19691E-11         0.00000E+00
    0.21239E-06        -0.75113E-11         0.00000E+00
POINT_DATA       5151
VECTORS vDarcyNodal double 
    0.14638E-06         0.00000E+00         0.00000E+00
    0.14640E-06         0.00000E+00         0.00000E+00
    0.14644E-06         0.00000E+00         0.00000E+00
    0.14649E-06         0.00000E+00         0.00000E+00
    0.14655E-06         0.00000E+00         0.00000E+00
    0.14663E-06         0.00000E+00         0.00000E+00
    0.14671E-06         0.00000E+00         0.00000E+00
    0.14678E-06         0.00000E+00         0.00000E+00
    0.14683E-06         0.00000E+00         0.00000E+00
    0.14687E-06         0.00000E+00         0.00000E+00
    0.14689E-06         0.00000E+00         0.00000E+00
    0.14690E-06         0.00000E+00         0.00000E+00
    0.14689E-06         0.00000E+00         0.00000E+00
    0.14686E-06         0.00000E+00         0.00000E+00
    0.14681E-06         0.00000E+00         0.00000E+00
    0.14676E-06         0.00000E+00         0.00000E+00
    0.14669E-06         0.00000E+00         0.00000E+00
    0.14661E-06         0.00000E+00         0.00000E+00
    0.14653E-06         0.00000E+00         0.00000E+00
    0.14644E-06         0.00000E+00         0.00000E+00
    0.14635E-06         0.00000E+00         0.00000E+00
    0.14626E-06         0.00000E+00         0.00000E+00
    0.14618E-06         0.00000E+00         0.00000E+00
    0.14610E-06         0.00000E+00         0.00000E+00
    0.14604E-06         0.00000E+00         0.00000E+00
    0.14600E-06         0.00000E+00         0.00000E+00
    0.14597E-06         0.00000E+00         0.00000E+00
    0.14597E-06         0.00000E+00         0.00000E+00
    0.14601E-06         0.00000E+00         0.00000E+00
    0.14609E-06         0.00000E+00         0.00000E+00
    0.14621E-06         0.00000E+00         0.00000E+00
    0.14637E-06         0.00000E+00         0.00000E+00
    0.14659E-06         0.00000E+00         0.00000E+00
    0.14686E-06         0.00000E+00         0.00000E+00
    0.14718E-06         0.00000E+00         0.00000E+00
    0.14756E-06         0.00000E+00         0.00000E+00
    0.14798E-06         0.00000E+00         0.00000E+00
    0.14845E-06         0.00000E+00         0.00000E+00
    0.14897E-06         0.00000E+00         0.00000E+00
    0.14951E-06         0.00000E+00         0.00000E+00
    0.15009E-06         0.00000E+00         0.00000E+00
    0.15068E-06         0.00000E+00         0.00000E+00
    0.15127E-06         0.00000E+00         0.00000E+00
    0.15185E-06         0.00000E+00         0.00000E+00
    0.15239E-06         0.00000E+00         0.00000E+00
    0.15284E-06         0.00000E+00         0.00000E+00
    0.15318E-06         0.00000E+00         0.00000E+00
    0.15338E-06         0.00000E+00         0.00000E+00
    0.15347E-06         0.00000E+00         0.00000E+00
    0.15348E-06         0.00000E+00         0.00000E+00
    0.15347E-06         0.00000E+00         0.00000E+00
    0.14498E-06        -0.75541E-10         0.00000E+00
    0.14495E-06        -0.12574E-09         0.00000E+00
    0.14488E-06        -0.21462E-09         0.00000E+00
    0.14480E-06        -0.29189E-09         0.00000E+00
    0.14471E-06        -0.35761E-09         0.00000E+00
    0.14463E-06        -0.38731E-09         0.00000E+00
    0.14455E-06        -0.36820E-09         0.00000E+00
    0.14447E-06        -0.31218E-09         0.00000E+00
    0.14440E-06        -0.23844E-09         0.00000E+00
    0.14433E-06        -0.15671E-09         0.00000E+00
    0.14426E-06        -0.70257E-10         0.00000E+00
    0.14419E-06         0.17823E-10         0.00000E+00
    0.14412E-06         0.10320E-09         0.00000E+00
    0.14404E-06         0.18288E-09         0.00000E+00
    0.14396E-06         0.25493E-09         0.00000E+00
    0.14388E-06         0.31648E-09         0.00000E+00
    0.14379E-06         0.36601E-09         0.00000E+00
    0.14371E-06         0.40392E-09         0.00000E+00
    0.14362E-06         0.42985E-09         0.00000E+00
    0.14353E-06         0.44199E-09         0.00000E+00
    0.14345E-06         0.44031E-09         0.00000E+00
    0.14337E-06         0.42737E-09         0.00000E+00
    0.14331E-06         0.39900E-09         0.00000E+00
    0.14325E-06         0.34560E-09         0.00000E+00
    0.14321E-06         0.26737E-09         0.00000E+00
    0.14318E-06         0.17058E-09         0.00000E+00
    0.14318E-06         0.52145E-10         0.00000E+00
    0.14319E-06        -0.97353E-10         0.00000E+00
    0.14324E-06        -0.27917E-09         0.00000E+00
    0.14331E-06        -0.48761E-09         0.00000E+00
    0.14342E-06        -0.71726E-09         0.00000E+00
    0.14356E-06        -0.96293E-09         0.00000E+00
    0.14373E-06        -0.12193E-08         0.00000E+00
    0.14394E-06        -0.14809E-08         0.00000E+00
    0.14420E-06        -0.17418E-08         0.00000E+00
    0.14448E-06        -0.19961E-08         0.00000E+00
    0.14481E-06        -0.22373E-08         0.00000E+00
    0.14517E-06        -0.24587E-08         0.00000E+00
    0.14555E-06        -0.26526E-08         0.00000E+00
    0.14596E-06        -0.28099E-08         0.00000E+00
    0.14639E-06        -0.29191E-08         0.00000E+00
    0.14682E-06        -0.29647E-08         0.00000E+00
    0.14725E-06        -0.29265E-08         0.00000E+00
    0.14767E-06        -0.27763E-08         0.00000E+00
    0.14805E-06        -0.24760E-08         0.00000E+00
    0.14838E-06        -0.19820E-08         0.00000E+00
    0.14863E-06        -0.13450E-08         0.00000E+00
    0.14879E-06        -0.72834E-09         0.00000E+00
    0.14889E-06        -0.25444E-09         0.00000E+00
    0.14893E-06        -0.11657E-10         0.00000E+00
    0.14894E-06         0.37778E-10         0.00000E+00
    0.13896E-06         0.30097E-09         0.00000E+00
    0.13893E-06         0.49617E-09         0.00000E+00
    0.13887E-06         0.76858E-09         0.00000E+00
    0.13878E-06         0.86236E-09         0.00000E+00
    0.13866E-06         0.86671E-09         0.00000E+00
    0.13853E-06         0.83082E-09         0.00000E+00
    0.13840E-06         0.78221E-09         0.00000E+00
    0.13826E-06         0.73816E-09         0.00000E+00
    0.13813E-06         0.70807E-09         0.00000E+00
    0.13800E-06         0.69389E-09         0.00000E+00
    0.13788E-06         0.69477E-09         0.00000E+00
    0.13777E-06         0.71006E-09         0.00000E+00
    0.13766E-06         0.74008E-09         0.00000E+00
    0.13756E-06         0.77922E-09         0.00000E+00
    0.13747E-06         0.81502E-09         0.00000E+00
    0.13739E-06         0.84080E-09         0.00000E+00
    0.13731E-06         0.85686E-09         0.00000E+00
    0.13724E-06         0.86486E-09         0.00000E+00
    0.13718E-06         0.86271E-09         0.00000E+00
    0.13712E-06         0.84178E-09         0.00000E+00
    0.13707E-06         0.79563E-09         0.00000E+00
    0.13704E-06         0.72341E-09         0.00000E+00
    0.13701E-06         0.62476E-09         0.00000E+00
    0.13699E-06         0.49834E-09         0.00000E+00
    0.13698E-06         0.34242E-09         0.00000E+00
    0.13698E-06         0.15528E-09         0.00000E+00
    0.13700E-06        -0.62940E-10         0.00000E+00
    0.13703E-06        -0.31046E-09         0.00000E+00
    0.13706E-06        -0.58656E-09         0.00000E+00
    0.13711E-06        -0.89074E-09         0.00000E+00
    0.13717E-06        -0.12209E-08         0.00000E+00
    0.13725E-06        -0.15735E-08         0.00000E+00
    0.13734E-06        -0.19428E-08         0.00000E+00
    0.13744E-06        -0.23215E-08         0.00000E+00
    0.13756E-06        -0.27000E-08         0.00000E+00
    0.13769E-06        -0.30678E-08         0.00000E+00
    0.13784E-06        -0.34129E-08         0.00000E+00
    0.13801E-06        -0.37227E-08         0.00000E+00
    0.13819E-06        -0.39840E-08         0.00000E+00
    0.13839E-06        -0.41824E-08         0.00000E+00
    0.13859E-06        -0.43017E-08         0.00000E+00
    0.13879E-06        -0.43229E-08         0.00000E+00
    0.13899E-06        -0.42230E-08         0.00000E+00
    0.13917E-06        -0.39741E-08         0.00000E+00
    0.13935E-06        -0.35417E-08         0.00000E+00
    0.13952E-06        -0.28862E-08         0.00000E+00
    0.13967E-06        -0.20730E-08         0.00000E+00
    0.13979E-06        -0.12976E-08         0.00000E+00
    0.13988E-06        -0.68837E-09         0.00000E+00
    0.13994E-06        -0.26994E-09         0.00000E+00
    0.13997E-06        -0.10976E-09         0.00000E+00
    0.12972E-06         0.16741E-09         0.00000E+00
    0.12975E-06         0.30956E-09         0.00000E+00
    0.12982E-06         0.55832E-09         0.00000E+00
    0.12988E-06         0.73914E-09         0.00000E+00
    0.12994E-06         0.86285E-09         0.00000E+00
    0.12998E-06         0.94463E-09         0.00000E+00
    0.13001E-06         0.99818E-09         0.00000E+00
    0.13002E-06         0.10339E-08         0.00000E+00
    0.13001E-06         0.10589E-08         0.00000E+00
    0.13000E-06         0.10784E-08         0.00000E+00
    0.12997E-06         0.10953E-08         0.00000E+00
    0.12995E-06         0.11106E-08         0.00000E+00
    0.12992E-06         0.11232E-08         0.00000E+00
    0.12989E-06         0.11313E-08         0.00000E+00
    0.12986E-06         0.11327E-08         0.00000E+00
    0.12984E-06         0.11249E-08         0.00000E+00
    0.12982E-06         0.11057E-08         0.00000E+00
    0.12981E-06         0.10725E-08         0.00000E+00
    0.12980E-06         0.10230E-08         0.00000E+00
    0.12980E-06         0.95599E-09         0.00000E+00
    0.12980E-06         0.86976E-09         0.00000E+00
    0.12981E-06         0.76189E-09         0.00000E+00
    0.12982E-06         0.63034E-09         0.00000E+00
    0.12983E-06         0.47365E-09         0.00000E+00
    0.12984E-06         0.29073E-09         0.00000E+00
    0.12986E-06         0.80911E-10         0.00000E+00
    0.12987E-06        -0.15655E-09         0.00000E+00
    0.12989E-06        -0.42240E-09         0.00000E+00
    0.12990E-06        -0.71682E-09         0.00000E+00
    0.12992E-06        -0.10394E-08         0.00000E+00
    0.12993E-06        -0.13896E-08         0.00000E+00
    0.12994E-06        -0.17658E-08         0.00000E+00
    0.12994E-06        -0.21652E-08         0.00000E+00
    0.12995E-06        -0.25826E-08         0.00000E+00
    0.12996E-06        -0.30099E-08         0.00000E+00
    0.12997E-06        -0.34349E-08         0.00000E+00
    0.12999E-06        -0.38420E-08         0.00000E+00
    0.13002E-06        -0.42137E-08         0.00000E+00
    0.13006E-06        -0.45306E-08         0.00000E+00
    0.13012E-06        -0.47728E-08         0.00000E+00
    0.13018E-06        -0.49216E-08         0.00000E+00
    0.13025E-06        -0.49582E-08         0.00000E+00
    0.13033E-06        -0.48618E-08         0.00000E+00
    0.13041E-06        -0.46113E-08         0.00000E+00
    0.13051E-06        -0.41830E-08         0.00000E+00
    0.13061E-06        -0.35508E-08         0.00000E+00
    0.13073E-06        -0.27157E-08         0.00000E+00
    0.13085E-06        -0.18055E-08         0.00000E+00
    0.13096E-06        -0.10194E-08         0.00000E+00
    0.13103E-06        -0.43649E-09         0.00000E+00
    0.13105E-06        -0.19408E-09         0.00000E+00
    0.12125E-06         0.42201E-11         0.00000E+00
    0.12126E-06         0.33028E-10         0.00000E+00
    0.12130E-06         0.11399E-09         0.00000E+00
    0.12135E-06         0.22958E-09         0.00000E+00
    0.12140E-06         0.36015E-09         0.00000E+00
    0.12146E-06         0.49141E-09         0.00000E+00
    0.12152E-06         0.61334E-09         0.00000E+00
    0.12157E-06         0.72141E-09         0.00000E+00
    0.12162E-06         0.81407E-09         0.00000E+00
    0.12166E-06         0.89111E-09         0.00000E+00
    0.12169E-06         0.95277E-09         0.00000E+00
    0.12173E-06         0.99930E-09         0.00000E+00
    0.12176E-06         0.10307E-08         0.00000E+00
    0.12179E-06         0.10466E-08         0.00000E+00
    0.12182E-06         0.10471E-08         0.00000E+00
    0.12185E-06         0.10343E-08         0.00000E+00
    0.12188E-06         0.10096E-08         0.00000E+00
    0.12191E-06         0.97162E-09         0.00000E+00
    0.12194E-06         0.91793E-09         0.00000E+00
    0.12197E-06         0.84679E-09         0.00000E+00
    0.12200E-06         0.75690E-09         0.00000E+00
    0.12203E-06         0.64741E-09         0.00000E+00
    0.12206E-06         0.51758E-09         0.00000E+00
    0.12209E-06         0.36673E-09         0.00000E+00
    0.12211E-06         0.19422E-09         0.00000E+00
    0.12213E-06        -0.52940E-12         0.00000E+00
    0.12214E-06        -0.21799E-09         0.00000E+00
    0.12215E-06        -0.45853E-09         0.00000E+00
    0.12215E-06        -0.72250E-09         0.00000E+00
    0.12214E-06        -0.10102E-08         0.00000E+00
    0.12213E-06        -0.13220E-08         0.00000E+00
    0.12210E-06        -0.16578E-08         0.00000E+00
    0.12206E-06        -0.20176E-08         0.00000E+00
    0.12201E-06        -0.24009E-08         0.00000E+00
    0.12195E-06        -0.28063E-08         0.00000E+00
    0.12188E-06        -0.32302E-08         0.00000E+00
    0.12180E-06        -0.36607E-08         0.00000E+00
    0.12172E-06        -0.40756E-08         0.00000E+00
    0.12164E-06        -0.44505E-08         0.00000E+00
    0.12157E-06        -0.47610E-08         0.00000E+00
    0.12152E-06        -0.49784E-08         0.00000E+00
    0.12148E-06        -0.50776E-08         0.00000E+00
    0.12146E-06        -0.50399E-08         0.00000E+00
    0.12145E-06        -0.48511E-08         0.00000E+00
    0.12147E-06        -0.45030E-08         0.00000E+00
    0.12151E-06        -0.39918E-08         0.00000E+00
    0.12157E-06        -0.33137E-08         0.00000E+00
    0.12167E-06        -0.24737E-08         0.00000E+00
    0.12178E-06        -0.15511E-08         0.00000E+00
    0.12187E-06        -0.70593E-09         0.00000E+00
    0.12191E-06        -0.32469E-09         0.00000E+00
    0.11338E-06         0.27824E-10         0.00000E+00
    0.11337E-06         0.59172E-10         0.00000E+00
    0.11336E-06         0.12674E-09         0.00000E+00
    0.11336E-06         0.20352E-09         0.00000E+00
    0.11336E-06         0.28713E-09         0.00000E+00
    0.11337E-06         0.37398E-09         0.00000E+00
    0.11338E-06         0.46048E-09         0.00000E+00
    0.11340E-06         0.54302E-09         0.00000E+00
    0.11342E-06         0.61859E-09         0.00000E+00
    0.11345E-06         0.68491E-09         0.00000E+00
    0.11349E-06         0.74034E-09         0.00000E+00
    0.11352E-06         0.78375E-09         0.00000E+00
    0.11356E-06         0.81441E-09         0.00000E+00
    0.11360E-06         0.83194E-09         0.00000E+00
    0.11363E-06         0.83629E-09         0.00000E+00
    0.11367E-06         0.82734E-09         0.00000E+00
    0.11371E-06         0.80481E-09         0.00000E+00
    0.11375E-06         0.76825E-09         0.00000E+00
    0.11379E-06         0.71717E-09         0.00000E+00
    0.11383E-06         0.65103E-09         0.00000E+00
    0.11387E-06         0.56933E-09         0.00000E+00
    0.11390E-06         0.47158E-09         0.00000E+00
    0.11394E-06         0.35741E-09         0.00000E+00
    0.11397E-06         0.22651E-09         0.00000E+00
    0.11399E-06         0.78677E-10         0.00000E+00
    0.11401E-06        -0.86234E-10         0.00000E+00
    0.11402E-06        -0.26830E-09         0.00000E+00
    0.11403E-06        -0.46756E-09         0.00000E+00
    0.11402E-06        -0.68398E-09         0.00000E+00
    0.11401E-06        -0.91745E-09         0.00000E+00
    0.11398E-06        -0.11679E-08         0.00000E+00
    0.11395E-06        -0.14352E-08         0.00000E+00
    0.11389E-06        -0.17195E-08         0.00000E+00
    0.11383E-06        -0.20213E-08         0.00000E+00
    0.11374E-06        -0.23420E-08         0.00000E+00
    0.11364E-06        -0.26839E-08         0.00000E+00
    0.11352E-06        -0.30461E-08         0.00000E+00
    0.11339E-06        -0.34266E-08         0.00000E+00
    0.11323E-06        -0.38097E-08         0.00000E+00
    0.11307E-06        -0.41613E-08         0.00000E+00
    0.11290E-06        -0.44524E-08         0.00000E+00
    0.11275E-06        -0.46525E-08         0.00000E+00
    0.11261E-06        -0.47314E-08         0.00000E+00
    0.11250E-06        -0.46699E-08         0.00000E+00
    0.11242E-06        -0.44517E-08         0.00000E+00
    0.11238E-06        -0.40703E-08         0.00000E+00
    0.11236E-06        -0.35324E-08         0.00000E+00
    0.11237E-06        -0.28497E-08         0.00000E+00
    0.11241E-06        -0.20280E-08         0.00000E+00
    0.11246E-06        -0.10664E-08         0.00000E+00
    0.11248E-06        -0.55055E-09         0.00000E+00
    0.10526E-06         0.50518E-10         0.00000E+00
    0.10525E-06         0.95878E-10         0.00000E+00
    0.10525E-06         0.18108E-09         0.00000E+00
    0.10524E-06         0.25681E-09         0.00000E+00
    0.10524E-06         0.32564E-09         0.00000E+00
    0.10524E-06         0.38884E-09         0.00000E+00
    0.10524E-06         0.44671E-09         0.00000E+00
    0.10524E-06         0.49906E-09         0.00000E+00
    0.10525E-06         0.54534E-09         0.00000E+00
    0.10527E-06         0.58479E-09         0.00000E+00
    0.10529E-06         0.61665E-09         0.00000E+00
    0.10531E-06         0.64018E-09         0.00000E+00
    0.10534E-06         0.65472E-09         0.00000E+00
    0.10537E-06         0.65971E-09         0.00000E+00
    0.10540E-06         0.65460E-09         0.00000E+00
    0.10544E-06         0.63899E-09         0.00000E+00
    0.10547E-06         0.61252E-09         0.00000E+00
    0.10551E-06         0.57488E-09         0.00000E+00
    0.10554E-06         0.52575E-09         0.00000E+00
    0.10558E-06         0.46488E-09         0.00000E+00
    0.10561E-06         0.39201E-09         0.00000E+00
    0.10564E-06         0.30698E-09         0.00000E+00
    0.10567E-06         0.20966E-09         0.00000E+00
    0.10570E-06         0.99951E-10         0.00000E+00
    0.10572E-06        -0.22154E-10         0.00000E+00
    0.10573E-06        -0.15662E-09         0.00000E+00
    0.10574E-06        -0.30335E-09         0.00000E+00
    0.10574E-06        -0.46216E-09         0.00000E+00
    0.10573E-06        -0.63283E-09         0.00000E+00
    0.10572E-06        -0.81507E-09         0.00000E+00
    0.10569E-06        -0.10086E-08         0.00000E+00
    0.10565E-06        -0.12129E-08         0.00000E+00
    0.10560E-06        -0.14275E-08         0.00000E+00
    0.10554E-06        -0.16517E-08         0.00000E+00
    0.10546E-06        -0.18844E-08         0.00000E+00
    0.10536E-06        -0.21239E-08         0.00000E+00
    0.10524E-06        -0.23684E-08         0.00000E+00
    0.10510E-06        -0.26163E-08         0.00000E+00
    0.10494E-06        -0.28660E-08         0.00000E+00
    0.10475E-06        -0.31192E-08         0.00000E+00
    0.10454E-06        -0.33717E-08         0.00000E+00
    0.10432E-06        -0.36131E-08         0.00000E+00
    0.10410E-06        -0.38111E-08         0.00000E+00
    0.10388E-06        -0.39097E-08         0.00000E+00
    0.10368E-06        -0.38718E-08         0.00000E+00
    0.10351E-06        -0.36724E-08         0.00000E+00
    0.10338E-06        -0.32932E-08         0.00000E+00
    0.10329E-06        -0.27294E-08         0.00000E+00
    0.10324E-06        -0.19799E-08         0.00000E+00
    0.10322E-06        -0.10539E-08         0.00000E+00
    0.10321E-06        -0.54860E-09         0.00000E+00
    0.97052E-07         0.52390E-10         0.00000E+00
    0.97053E-07         0.99759E-10         0.00000E+00
    0.97054E-07         0.18735E-09         0.00000E+00
    0.97057E-07         0.26157E-09         0.00000E+00
    0.97061E-07         0.32419E-09         0.00000E+00
    0.97067E-07         0.37675E-09         0.00000E+00
    0.97075E-07         0.42046E-09         0.00000E+00
    0.97087E-07         0.45618E-09         0.00000E+00
    0.97101E-07         0.48445E-09         0.00000E+00
    0.97117E-07         0.50557E-09         0.00000E+00
    0.97137E-07         0.51966E-09         0.00000E+00
    0.97160E-07         0.52669E-09         0.00000E+00
    0.97185E-07         0.52654E-09         0.00000E+00
    0.97212E-07         0.51905E-09         0.00000E+00
    0.97241E-07         0.50402E-09         0.00000E+00
    0.97271E-07         0.48125E-09         0.00000E+00
    0.97302E-07         0.45053E-09         0.00000E+00
    0.97333E-07         0.41170E-09         0.00000E+00
    0.97363E-07         0.36460E-09         0.00000E+00
    0.97393E-07         0.30912E-09         0.00000E+00
    0.97421E-07         0.24518E-09         0.00000E+00
    0.97447E-07         0.17274E-09         0.00000E+00
    0.97470E-07         0.91792E-10         0.00000E+00
    0.97489E-07         0.24010E-11         0.00000E+00
    0.97504E-07        -0.95321E-10         0.00000E+00
    0.97513E-07        -0.20120E-09         0.00000E+00
    0.97517E-07        -0.31498E-09         0.00000E+00
    0.97513E-07        -0.43635E-09         0.00000E+00
    0.97503E-07        -0.56490E-09         0.00000E+00
    0.97483E-07        -0.70012E-09         0.00000E+00
    0.97455E-07        -0.84137E-09         0.00000E+00
    0.97416E-07        -0.98789E-09         0.00000E+00
    0.97366E-07        -0.11387E-08         0.00000E+00
    0.97303E-07        -0.12928E-08         0.00000E+00
    0.97227E-07        -0.14488E-08         0.00000E+00
    0.97137E-07        -0.16054E-08         0.00000E+00
    0.97031E-07        -0.17606E-08         0.00000E+00
    0.96909E-07        -0.19125E-08         0.00000E+00
    0.96769E-07        -0.20582E-08         0.00000E+00
    0.96610E-07        -0.21930E-08         0.00000E+00
    0.96431E-07        -0.23131E-08         0.00000E+00
    0.96231E-07        -0.24156E-08         0.00000E+00
    0.96009E-07        -0.24985E-08         0.00000E+00
    0.95770E-07        -0.25627E-08         0.00000E+00
    0.95524E-07        -0.25971E-08         0.00000E+00
    0.95282E-07        -0.25770E-08         0.00000E+00
    0.95058E-07        -0.24542E-08         0.00000E+00
    0.94867E-07        -0.21640E-08         0.00000E+00
    0.94723E-07        -0.16641E-08         0.00000E+00
    0.94637E-07        -0.92672E-09         0.00000E+00
    0.94608E-07        -0.49469E-09         0.00000E+00
    0.89022E-07         0.45632E-10         0.00000E+00
    0.89024E-07         0.86353E-10         0.00000E+00
    0.89030E-07         0.16121E-09         0.00000E+00
    0.89038E-07         0.22363E-09         0.00000E+00
    0.89050E-07         0.27502E-09         0.00000E+00
    0.89064E-07         0.31652E-09         0.00000E+00
    0.89080E-07         0.34911E-09         0.00000E+00
    0.89099E-07         0.37362E-09         0.00000E+00
    0.89120E-07         0.39073E-09         0.00000E+00
    0.89143E-07         0.40097E-09         0.00000E+00
    0.89167E-07         0.40475E-09         0.00000E+00
    0.89193E-07         0.40237E-09         0.00000E+00
    0.89221E-07         0.39405E-09         0.00000E+00
    0.89249E-07         0.37991E-09         0.00000E+00
    0.89278E-07         0.36006E-09         0.00000E+00
    0.89308E-07         0.33453E-09         0.00000E+00
    0.89337E-07         0.30336E-09         0.00000E+00
    0.89366E-07         0.26658E-09         0.00000E+00
    0.89395E-07         0.22420E-09         0.00000E+00
    0.89421E-07         0.17627E-09         0.00000E+00
    0.89446E-07         0.12284E-09         0.00000E+00
    0.89468E-07         0.64001E-10         0.00000E+00
    0.89487E-07        -0.11901E-12         0.00000E+00
    0.89502E-07        -0.69352E-10         0.00000E+00
    0.89513E-07        -0.14348E-09         0.00000E+00
    0.89519E-07        -0.22223E-09         0.00000E+00
    0.89520E-07        -0.30525E-09         0.00000E+00
    0.89514E-07        -0.39213E-09         0.00000E+00
    0.89502E-07        -0.48236E-09         0.00000E+00
    0.89482E-07        -0.57536E-09         0.00000E+00
    0.89454E-07        -0.67042E-09         0.00000E+00
    0.89418E-07        -0.76673E-09         0.00000E+00
    0.89371E-07        -0.86333E-09         0.00000E+00
    0.89315E-07        -0.95914E-09         0.00000E+00
    0.89248E-07        -0.10529E-08         0.00000E+00
    0.89170E-07        -0.11430E-08         0.00000E+00
    0.89080E-07        -0.12280E-08         0.00000E+00
    0.88978E-07        -0.13057E-08         0.00000E+00
    0.88864E-07        -0.13742E-08         0.00000E+00
    0.88736E-07        -0.14315E-08         0.00000E+00
    0.88597E-07        -0.14752E-08         0.00000E+00
    0.88445E-07        -0.15019E-08         0.00000E+00
    0.88281E-07        -0.15074E-08         0.00000E+00
    0.88106E-07        -0.14855E-08         0.00000E+00
    0.87921E-07        -0.14318E-08         0.00000E+00
    0.87726E-07        -0.13441E-08         0.00000E+00
    0.87528E-07        -0.12198E-08         0.00000E+00
    0.87338E-07        -0.10546E-08         0.00000E+00
    0.87174E-07        -0.82688E-09         0.00000E+00
    0.87056E-07        -0.47828E-09         0.00000E+00
    0.87012E-07        -0.26394E-09         0.00000E+00
    0.81346E-07         0.32907E-10         0.00000E+00
    0.81349E-07         0.62310E-10         0.00000E+00
    0.81356E-07         0.11615E-09         0.00000E+00
    0.81368E-07         0.16049E-09         0.00000E+00
    0.81384E-07         0.19616E-09         0.00000E+00
    0.81402E-07         0.22396E-09         0.00000E+00
    0.81424E-07         0.24457E-09         0.00000E+00
    0.81447E-07         0.25861E-09         0.00000E+00
    0.81473E-07         0.26663E-09         0.00000E+00
    0.81500E-07         0.26910E-09         0.00000E+00
    0.81529E-07         0.26641E-09         0.00000E+00
    0.81558E-07         0.25892E-09         0.00000E+00
    0.81588E-07         0.24691E-09         0.00000E+00
    0.81619E-07         0.23062E-09         0.00000E+00
    0.81650E-07         0.21027E-09         0.00000E+00
    0.81680E-07         0.18603E-09         0.00000E+00
    0.81710E-07         0.15805E-09         0.00000E+00
    0.81739E-07         0.12650E-09         0.00000E+00
    0.81766E-07         0.91498E-10         0.00000E+00
    0.81792E-07         0.53208E-10         0.00000E+00
    0.81816E-07         0.11786E-10         0.00000E+00
    0.81837E-07        -0.32591E-10         0.00000E+00
    0.81855E-07        -0.79719E-10         0.00000E+00
    0.81869E-07        -0.12936E-09         0.00000E+00
    0.81880E-07        -0.18125E-09         0.00000E+00
    0.81886E-07        -0.23505E-09         0.00000E+00
    0.81887E-07        -0.29042E-09         0.00000E+00
    0.81883E-07        -0.34691E-09         0.00000E+00
    0.81873E-07        -0.40405E-09         0.00000E+00
    0.81857E-07        -0.46128E-09         0.00000E+00
    0.81835E-07        -0.51798E-09         0.00000E+00
    0.81806E-07        -0.57343E-09         0.00000E+00
    0.81769E-07        -0.62684E-09         0.00000E+00
    0.81725E-07        -0.67732E-09         0.00000E+00
    0.81673E-07        -0.72391E-09         0.00000E+00
    0.81613E-07        -0.76553E-09         0.00000E+00
    0.81546E-07        -0.80104E-09         0.00000E+00
    0.81470E-07        -0.82917E-09         0.00000E+00
    0.81387E-07        -0.84855E-09         0.00000E+00
    0.81296E-07        -0.85762E-09         0.00000E+00
    0.81198E-07        -0.85478E-09         0.00000E+00
    0.81095E-07        -0.83847E-09         0.00000E+00
    0.80987E-07        -0.80733E-09         0.00000E+00
    0.80875E-07        -0.76054E-09         0.00000E+00
    0.80763E-07        -0.69692E-09         0.00000E+00
    0.80652E-07        -0.61496E-09         0.00000E+00
    0.80547E-07        -0.51326E-09         0.00000E+00
    0.80450E-07        -0.39116E-09         0.00000E+00
    0.80366E-07        -0.25458E-09         0.00000E+00
    0.80303E-07        -0.11972E-09         0.00000E+00
    0.80279E-07        -0.55333E-10         0.00000E+00
    0.74138E-07         0.18425E-10         0.00000E+00
    0.74141E-07         0.34619E-10         0.00000E+00
    0.74149E-07         0.63856E-10         0.00000E+00
    0.74162E-07         0.87020E-10         0.00000E+00
    0.74178E-07         0.10456E-09         0.00000E+00
    0.74198E-07         0.11692E-09         0.00000E+00
    0.74221E-07         0.12449E-09         0.00000E+00
    0.74247E-07         0.12769E-09         0.00000E+00
    0.74274E-07         0.12685E-09         0.00000E+00
    0.74303E-07         0.12233E-09         0.00000E+00
    0.74333E-07         0.11442E-09         0.00000E+00
    0.74364E-07         0.10339E-09         0.00000E+00
    0.74396E-07         0.89506E-10         0.00000E+00
    0.74428E-07         0.72990E-10         0.00000E+00
    0.74460E-07         0.54056E-10         0.00000E+00
    0.74491E-07         0.32899E-10         0.00000E+00
    0.74521E-07         0.97073E-11         0.00000E+00
    0.74551E-07        -0.15340E-10         0.00000E+00
    0.74579E-07        -0.42062E-10         0.00000E+00
    0.74605E-07        -0.70279E-10         0.00000E+00
    0.74629E-07        -0.99800E-10         0.00000E+00
    0.74651E-07        -0.13042E-09         0.00000E+00
    0.74670E-07        -0.16193E-09         0.00000E+00
    0.74686E-07        -0.19409E-09         0.00000E+00
    0.74699E-07        -0.22664E-09         0.00000E+00
    0.74709E-07        -0.25929E-09         0.00000E+00
    0.74714E-07        -0.29173E-09         0.00000E+00
    0.74715E-07        -0.32360E-09         0.00000E+00
    0.74712E-07        -0.35453E-09         0.00000E+00
    0.74704E-07        -0.38409E-09         0.00000E+00
    0.74692E-07        -0.41184E-09         0.00000E+00
    0.74674E-07        -0.43728E-09         0.00000E+00
    0.74652E-07        -0.45989E-09         0.00000E+00
    0.74624E-07        -0.47913E-09         0.00000E+00
    0.74591E-07        -0.49441E-09         0.00000E+00
    0.74554E-07        -0.50515E-09         0.00000E+00
    0.74511E-07        -0.51074E-09         0.00000E+00
    0.74465E-07        -0.51060E-09         0.00000E+00
    0.74414E-07        -0.50419E-09         0.00000E+00
    0.74360E-07        -0.49105E-09         0.00000E+00
    0.74303E-07        -0.47082E-09         0.00000E+00
    0.74245E-07        -0.44329E-09         0.00000E+00
    0.74186E-07        -0.40841E-09         0.00000E+00
    0.74128E-07        -0.36630E-09         0.00000E+00
    0.74073E-07        -0.31758E-09         0.00000E+00
    0.74021E-07        -0.26358E-09         0.00000E+00
    0.73975E-07        -0.20647E-09         0.00000E+00
    0.73937E-07        -0.14943E-09         0.00000E+00
    0.73909E-07        -0.95211E-10         0.00000E+00
    0.73893E-07        -0.45061E-10         0.00000E+00
    0.73888E-07        -0.21062E-10         0.00000E+00
    0.67458E-07         0.40671E-11         0.00000E+00
    0.67461E-07         0.70877E-11         0.00000E+00
    0.67469E-07         0.11626E-10         0.00000E+00
    0.67481E-07         0.13255E-10         0.00000E+00
    0.67497E-07         0.12171E-10         0.00000E+00
    0.67517E-07         0.85765E-11         0.00000E+00
    0.67539E-07         0.26756E-11         0.00000E+00
    0.67564E-07        -0.53293E-11         0.00000E+00
    0.67591E-07        -0.15239E-10         0.00000E+00
    0.67620E-07        -0.26862E-10         0.00000E+00
    0.67650E-07        -0.40009E-10         0.00000E+00
    0.67680E-07        -0.54503E-10         0.00000E+00
    0.67712E-07        -0.70171E-10         0.00000E+00
    0.67743E-07        -0.86847E-10         0.00000E+00
    0.67775E-07        -0.10437E-09         0.00000E+00
    0.67806E-07        -0.12259E-09         0.00000E+00
    0.67837E-07        -0.14135E-09         0.00000E+00
    0.67866E-07        -0.16050E-09         0.00000E+00
    0.67895E-07        -0.17989E-09         0.00000E+00
    0.67922E-07        -0.19937E-09         0.00000E+00
    0.67948E-07        -0.21877E-09         0.00000E+00
    0.67971E-07        -0.23792E-09         0.00000E+00
    0.67993E-07        -0.25667E-09         0.00000E+00
    0.68012E-07        -0.27481E-09         0.00000E+00
    0.68029E-07        -0.29217E-09         0.00000E+00
    0.68043E-07        -0.30853E-09         0.00000E+00
    0.68054E-07        -0.32368E-09         0.00000E+00
    0.68062E-07        -0.33739E-09         0.00000E+00
    0.68068E-07        -0.34943E-09         0.00000E+00
    0.68069E-07        -0.35954E-09         0.00000E+00
    0.68068E-07        -0.36749E-09         0.00000E+00
    0.68064E-07        -0.37301E-09         0.00000E+00
    0.68056E-07        -0.37585E-09         0.00000E+00
    0.68045E-07        -0.37578E-09         0.00000E+00
    0.68031E-07        -0.37256E-09         0.00000E+00
    0.68014E-07        -0.36602E-09         0.00000E+00
    0.67995E-07        -0.35599E-09         0.00000E+00
    0.67973E-07        -0.34237E-09         0.00000E+00
    0.67950E-07        -0.32515E-09         0.00000E+00
    0.67925E-07        -0.30437E-09         0.00000E+00
    0.67899E-07        -0.28022E-09         0.00000E+00
    0.67874E-07        -0.25298E-09         0.00000E+00
    0.67848E-07        -0.22314E-09         0.00000E+00
    0.67824E-07        -0.19139E-09         0.00000E+00
    0.67802E-07        -0.15855E-09         0.00000E+00
    0.67782E-07        -0.12561E-09         0.00000E+00
    0.67766E-07        -0.93627E-10         0.00000E+00
    0.67753E-07        -0.63642E-10         0.00000E+00
    0.67744E-07        -0.36991E-10         0.00000E+00
    0.67738E-07        -0.15462E-10         0.00000E+00
    0.67736E-07        -0.62267E-11         0.00000E+00
    0.61331E-07        -0.90364E-11         0.00000E+00
    0.61334E-07        -0.18168E-10         0.00000E+00
    0.61341E-07        -0.36564E-10         0.00000E+00
    0.61352E-07        -0.55209E-10         0.00000E+00
    0.61367E-07        -0.74067E-10         0.00000E+00
    0.61384E-07        -0.93090E-10         0.00000E+00
    0.61405E-07        -0.11222E-09         0.00000E+00
    0.61428E-07        -0.13138E-09         0.00000E+00
    0.61453E-07        -0.15050E-09         0.00000E+00
    0.61480E-07        -0.16950E-09         0.00000E+00
    0.61508E-07        -0.18831E-09         0.00000E+00
    0.61537E-07        -0.20683E-09         0.00000E+00
    0.61566E-07        -0.22497E-09         0.00000E+00
    0.61597E-07        -0.24266E-09         0.00000E+00
    0.61627E-07        -0.25980E-09         0.00000E+00
    0.61657E-07        -0.27630E-09         0.00000E+00
    0.61687E-07        -0.29208E-09         0.00000E+00
    0.61716E-07        -0.30704E-09         0.00000E+00
    0.61745E-07        -0.32109E-09         0.00000E+00
    0.61773E-07        -0.33413E-09         0.00000E+00
    0.61799E-07        -0.34607E-09         0.00000E+00
    0.61825E-07        -0.35681E-09         0.00000E+00
    0.61848E-07        -0.36624E-09         0.00000E+00
    0.61871E-07        -0.37426E-09         0.00000E+00
    0.61891E-07        -0.38077E-09         0.00000E+00
    0.61910E-07        -0.38565E-09         0.00000E+00
    0.61926E-07        -0.38881E-09         0.00000E+00
    0.61941E-07        -0.39013E-09         0.00000E+00
    0.61954E-07        -0.38951E-09         0.00000E+00
    0.61964E-07        -0.38686E-09         0.00000E+00
    0.61972E-07        -0.38209E-09         0.00000E+00
    0.61979E-07        -0.37512E-09         0.00000E+00
    0.61983E-07        -0.36590E-09         0.00000E+00
    0.61985E-07        -0.35440E-09         0.00000E+00
    0.61986E-07        -0.34059E-09         0.00000E+00
    0.61985E-07        -0.32453E-09         0.00000E+00
    0.61983E-07        -0.30626E-09         0.00000E+00
    0.61979E-07        -0.28591E-09         0.00000E+00
    0.61974E-07        -0.26364E-09         0.00000E+00
    0.61969E-07        -0.23969E-09         0.00000E+00
    0.61963E-07        -0.21436E-09         0.00000E+00
    0.61957E-07        -0.18803E-09         0.00000E+00
    0.61951E-07        -0.16114E-09         0.00000E+00
    0.61945E-07        -0.13419E-09         0.00000E+00
    0.61940E-07        -0.10775E-09         0.00000E+00
    0.61936E-07        -0.82495E-10         0.00000E+00
    0.61932E-07        -0.59129E-10         0.00000E+00
    0.61930E-07        -0.38464E-10         0.00000E+00
    0.61928E-07        -0.21299E-10         0.00000E+00
    0.61928E-07        -0.83630E-11         0.00000E+00
    0.61927E-07        -0.30411E-11         0.00000E+00
    0.55754E-07        -0.20443E-10         0.00000E+00
    0.55756E-07        -0.40239E-10         0.00000E+00
    0.55762E-07        -0.78889E-10         0.00000E+00
    0.55772E-07        -0.11569E-09         0.00000E+00
    0.55785E-07        -0.15069E-09         0.00000E+00
    0.55800E-07        -0.18394E-09         0.00000E+00
    0.55818E-07        -0.21548E-09         0.00000E+00
    0.55839E-07        -0.24532E-09         0.00000E+00
    0.55861E-07        -0.27349E-09         0.00000E+00
    0.55885E-07        -0.29999E-09         0.00000E+00
    0.55910E-07        -0.32482E-09         0.00000E+00
    0.55936E-07        -0.34797E-09         0.00000E+00
    0.55964E-07        -0.36943E-09         0.00000E+00
    0.55991E-07        -0.38919E-09         0.00000E+00
    0.56020E-07        -0.40723E-09         0.00000E+00
    0.56048E-07        -0.42353E-09         0.00000E+00
    0.56076E-07        -0.43806E-09         0.00000E+00
    0.56104E-07        -0.45080E-09         0.00000E+00
    0.56132E-07        -0.46172E-09         0.00000E+00
    0.56159E-07        -0.47079E-09         0.00000E+00
    0.56186E-07        -0.47798E-09         0.00000E+00
    0.56212E-07        -0.48326E-09         0.00000E+00
    0.56237E-07        -0.48661E-09         0.00000E+00
    0.56261E-07        -0.48799E-09         0.00000E+00
    0.56283E-07        -0.48738E-09         0.00000E+00
    0.56305E-07        -0.48475E-09         0.00000E+00
    0.56325E-07        -0.48010E-09         0.00000E+00
    0.56345E-07        -0.47340E-09         0.00000E+00
    0.56362E-07        -0.46466E-09         0.00000E+00
    0.56379E-07        -0.45388E-09         0.00000E+00
    0.56394E-07        -0.44108E-09         0.00000E+00
    0.56408E-07        -0.42629E-09         0.00000E+00
    0.56420E-07        -0.40957E-09         0.00000E+00
    0.56432E-07        -0.39098E-09         0.00000E+00
    0.56442E-07        -0.37063E-09         0.00000E+00
    0.56451E-07        -0.34862E-09         0.00000E+00
    0.56459E-07        -0.32512E-09         0.00000E+00
    0.56466E-07        -0.30029E-09         0.00000E+00
    0.56473E-07        -0.27435E-09         0.00000E+00
    0.56478E-07        -0.24756E-09         0.00000E+00
    0.56484E-07        -0.22018E-09         0.00000E+00
    0.56488E-07        -0.19255E-09         0.00000E+00
    0.56493E-07        -0.16500E-09         0.00000E+00
    0.56497E-07        -0.13795E-09         0.00000E+00
    0.56500E-07        -0.11180E-09         0.00000E+00
    0.56504E-07        -0.87009E-10         0.00000E+00
    0.56507E-07        -0.64043E-10         0.00000E+00
    0.56509E-07        -0.43380E-10         0.00000E+00
    0.56512E-07        -0.25527E-10         0.00000E+00
    0.56513E-07        -0.11021E-10         0.00000E+00
    0.56514E-07        -0.46723E-11         0.00000E+00
    0.50707E-07        -0.30027E-10         0.00000E+00
    0.50709E-07        -0.58853E-10         0.00000E+00
    0.50714E-07        -0.11475E-09         0.00000E+00
    0.50722E-07        -0.16719E-09         0.00000E+00
    0.50733E-07        -0.21630E-09         0.00000E+00
    0.50746E-07        -0.26218E-09         0.00000E+00
    0.50761E-07        -0.30492E-09         0.00000E+00
    0.50779E-07        -0.34460E-09         0.00000E+00
    0.50798E-07        -0.38131E-09         0.00000E+00
    0.50818E-07        -0.41510E-09         0.00000E+00
    0.50840E-07        -0.44604E-09         0.00000E+00
    0.50864E-07        -0.47419E-09         0.00000E+00
    0.50887E-07        -0.49958E-09         0.00000E+00
    0.50912E-07        -0.52227E-09         0.00000E+00
    0.50937E-07        -0.54229E-09         0.00000E+00
    0.50963E-07        -0.55969E-09         0.00000E+00
    0.50989E-07        -0.57448E-09         0.00000E+00
    0.51015E-07        -0.58671E-09         0.00000E+00
    0.51041E-07        -0.59640E-09         0.00000E+00
    0.51066E-07        -0.60358E-09         0.00000E+00
    0.51092E-07        -0.60829E-09         0.00000E+00
    0.51117E-07        -0.61054E-09         0.00000E+00
    0.51141E-07        -0.61038E-09         0.00000E+00
    0.51166E-07        -0.60782E-09         0.00000E+00
    0.51189E-07        -0.60292E-09         0.00000E+00
    0.51212E-07        -0.59570E-09         0.00000E+00
    0.51234E-07        -0.58622E-09         0.00000E+00
    0.51255E-07        -0.57452E-09         0.00000E+00
    0.51275E-07        -0.56067E-09         0.00000E+00
    0.51295E-07        -0.54472E-09         0.00000E+00
    0.51313E-07        -0.52677E-09         0.00000E+00
    0.51331E-07        -0.50691E-09         0.00000E+00
    0.51348E-07        -0.48522E-09         0.00000E+00
    0.51364E-07        -0.46184E-09         0.00000E+00
    0.51379E-07        -0.43689E-09         0.00000E+00
    0.51394E-07        -0.41052E-09         0.00000E+00
    0.51408E-07        -0.38291E-09         0.00000E+00
    0.51421E-07        -0.35422E-09         0.00000E+00
    0.51433E-07        -0.32468E-09         0.00000E+00
    0.51444E-07        -0.29450E-09         0.00000E+00
    0.51455E-07        -0.26392E-09         0.00000E+00
    0.51465E-07        -0.23320E-09         0.00000E+00
    0.51475E-07        -0.20261E-09         0.00000E+00
    0.51483E-07        -0.17246E-09         0.00000E+00
    0.51491E-07        -0.14305E-09         0.00000E+00
    0.51498E-07        -0.11468E-09         0.00000E+00
    0.51504E-07        -0.87697E-10         0.00000E+00
    0.51509E-07        -0.62429E-10         0.00000E+00
    0.51513E-07        -0.39214E-10         0.00000E+00
    0.51515E-07        -0.18377E-10         0.00000E+00
    0.51516E-07        -0.85938E-11         0.00000E+00
    0.46160E-07        -0.37827E-10         0.00000E+00
    0.46162E-07        -0.74050E-10         0.00000E+00
    0.46166E-07        -0.14415E-09         0.00000E+00
    0.46172E-07        -0.20963E-09         0.00000E+00
    0.46181E-07        -0.27063E-09         0.00000E+00
    0.46192E-07        -0.32731E-09         0.00000E+00
    0.46204E-07        -0.37978E-09         0.00000E+00
    0.46219E-07        -0.42817E-09         0.00000E+00
    0.46235E-07        -0.47259E-09         0.00000E+00
    0.46252E-07        -0.51316E-09         0.00000E+00
    0.46270E-07        -0.54997E-09         0.00000E+00
    0.46290E-07        -0.58312E-09         0.00000E+00
    0.46310E-07        -0.61269E-09         0.00000E+00
    0.46331E-07        -0.63879E-09         0.00000E+00
    0.46353E-07        -0.66148E-09         0.00000E+00
    0.46375E-07        -0.68085E-09         0.00000E+00
    0.46398E-07        -0.69698E-09         0.00000E+00
    0.46421E-07        -0.70993E-09         0.00000E+00
    0.46444E-07        -0.71978E-09         0.00000E+00
    0.46467E-07        -0.72660E-09         0.00000E+00
    0.46490E-07        -0.73047E-09         0.00000E+00
    0.46513E-07        -0.73145E-09         0.00000E+00
    0.46536E-07        -0.72962E-09         0.00000E+00
    0.46559E-07        -0.72506E-09         0.00000E+00
    0.46581E-07        -0.71783E-09         0.00000E+00
    0.46603E-07        -0.70803E-09         0.00000E+00
    0.46624E-07        -0.69573E-09         0.00000E+00
    0.46646E-07        -0.68102E-09         0.00000E+00
    0.46666E-07        -0.66401E-09         0.00000E+00
    0.46686E-07        -0.64478E-09         0.00000E+00
    0.46706E-07        -0.62346E-09         0.00000E+00
    0.46725E-07        -0.60015E-09         0.00000E+00
    0.46743E-07        -0.57498E-09         0.00000E+00
    0.46761E-07        -0.54808E-09         0.00000E+00
    0.46778E-07        -0.51960E-09         0.00000E+00
    0.46794E-07        -0.48968E-09         0.00000E+00
    0.46810E-07        -0.45849E-09         0.00000E+00
    0.46825E-07        -0.42621E-09         0.00000E+00
    0.46840E-07        -0.39300E-09         0.00000E+00
    0.46854E-07        -0.35907E-09         0.00000E+00
    0.46866E-07        -0.32461E-09         0.00000E+00
    0.46879E-07        -0.28984E-09         0.00000E+00
    0.46890E-07        -0.25497E-09         0.00000E+00
    0.46900E-07        -0.22023E-09         0.00000E+00
    0.46910E-07        -0.18584E-09         0.00000E+00
    0.46918E-07        -0.15205E-09         0.00000E+00
    0.46925E-07        -0.11908E-09         0.00000E+00
    0.46931E-07        -0.87172E-10         0.00000E+00
    0.46935E-07        -0.56563E-10         0.00000E+00
    0.46938E-07        -0.27485E-10         0.00000E+00
    0.46939E-07        -0.13359E-10         0.00000E+00
    0.42078E-07        -0.43945E-10         0.00000E+00
    0.42079E-07        -0.86007E-10         0.00000E+00
    0.42082E-07        -0.16737E-09         0.00000E+00
    0.42087E-07        -0.24330E-09         0.00000E+00
    0.42094E-07        -0.31396E-09         0.00000E+00
    0.42103E-07        -0.37950E-09         0.00000E+00
    0.42113E-07        -0.44009E-09         0.00000E+00
    0.42124E-07        -0.49586E-09         0.00000E+00
    0.42136E-07        -0.54695E-09         0.00000E+00
    0.42150E-07        -0.59349E-09         0.00000E+00
    0.42165E-07        -0.63562E-09         0.00000E+00
    0.42181E-07        -0.67345E-09         0.00000E+00
    0.42197E-07        -0.70711E-09         0.00000E+00
    0.42215E-07        -0.73670E-09         0.00000E+00
    0.42233E-07        -0.76234E-09         0.00000E+00
    0.42251E-07        -0.78413E-09         0.00000E+00
    0.42270E-07        -0.80218E-09         0.00000E+00
    0.42289E-07        -0.81660E-09         0.00000E+00
    0.42309E-07        -0.82748E-09         0.00000E+00
    0.42329E-07        -0.83492E-09         0.00000E+00
    0.42349E-07        -0.83903E-09         0.00000E+00
    0.42369E-07        -0.83990E-09         0.00000E+00
    0.42389E-07        -0.83764E-09         0.00000E+00
    0.42409E-07        -0.83234E-09         0.00000E+00
    0.42429E-07        -0.82410E-09         0.00000E+00
    0.42448E-07        -0.81304E-09         0.00000E+00
    0.42468E-07        -0.79926E-09         0.00000E+00
    0.42487E-07        -0.78286E-09         0.00000E+00
    0.42506E-07        -0.76396E-09         0.00000E+00
    0.42525E-07        -0.74268E-09         0.00000E+00
    0.42543E-07        -0.71914E-09         0.00000E+00
    0.42561E-07        -0.69346E-09         0.00000E+00
    0.42579E-07        -0.66577E-09         0.00000E+00
    0.42596E-07        -0.63622E-09         0.00000E+00
    0.42613E-07        -0.60493E-09         0.00000E+00
    0.42629E-07        -0.57205E-09         0.00000E+00
    0.42645E-07        -0.53774E-09         0.00000E+00
    0.42660E-07        -0.50214E-09         0.00000E+00
    0.42674E-07        -0.46543E-09         0.00000E+00
    0.42688E-07        -0.42775E-09         0.00000E+00
    0.42701E-07        -0.38929E-09         0.00000E+00
    0.42713E-07        -0.35022E-09         0.00000E+00
    0.42724E-07        -0.31070E-09         0.00000E+00
    0.42734E-07        -0.27093E-09         0.00000E+00
    0.42744E-07        -0.23107E-09         0.00000E+00
    0.42752E-07        -0.19130E-09         0.00000E+00
    0.42759E-07        -0.15182E-09         0.00000E+00
    0.42765E-07        -0.11278E-09         0.00000E+00
    0.42769E-07        -0.74366E-10         0.00000E+00
    0.42771E-07        -0.36750E-10         0.00000E+00
    0.42772E-07        -0.18161E-10         0.00000E+00
    0.38422E-07        -0.48509E-10         0.00000E+00
    0.38423E-07        -0.94957E-10         0.00000E+00
    0.38425E-07        -0.18483E-09         0.00000E+00
    0.38429E-07        -0.26873E-09         0.00000E+00
    0.38434E-07        -0.34685E-09         0.00000E+00
    0.38440E-07        -0.41934E-09         0.00000E+00
    0.38447E-07        -0.48636E-09         0.00000E+00
    0.38456E-07        -0.54808E-09         0.00000E+00
    0.38465E-07        -0.60463E-09         0.00000E+00
    0.38476E-07        -0.65618E-09         0.00000E+00
    0.38487E-07        -0.70285E-09         0.00000E+00
    0.38499E-07        -0.74479E-09         0.00000E+00
    0.38512E-07        -0.78212E-09         0.00000E+00
    0.38525E-07        -0.81499E-09         0.00000E+00
    0.38539E-07        -0.84350E-09         0.00000E+00
    0.38553E-07        -0.86780E-09         0.00000E+00
    0.38568E-07        -0.88799E-09         0.00000E+00
    0.38584E-07        -0.90421E-09         0.00000E+00
    0.38599E-07        -0.91656E-09         0.00000E+00
    0.38615E-07        -0.92516E-09         0.00000E+00
    0.38632E-07        -0.93014E-09         0.00000E+00
    0.38648E-07        -0.93159E-09         0.00000E+00
    0.38664E-07        -0.92965E-09         0.00000E+00
    0.38681E-07        -0.92442E-09         0.00000E+00
    0.38698E-07        -0.91602E-09         0.00000E+00
    0.38714E-07        -0.90456E-09         0.00000E+00
    0.38731E-07        -0.89017E-09         0.00000E+00
    0.38747E-07        -0.87295E-09         0.00000E+00
    0.38763E-07        -0.85304E-09         0.00000E+00
    0.38780E-07        -0.83055E-09         0.00000E+00
    0.38796E-07        -0.80561E-09         0.00000E+00
    0.38811E-07        -0.77834E-09         0.00000E+00
    0.38827E-07        -0.74887E-09         0.00000E+00
    0.38842E-07        -0.71733E-09         0.00000E+00
    0.38857E-07        -0.68386E-09         0.00000E+00
    0.38871E-07        -0.64859E-09         0.00000E+00
    0.38885E-07        -0.61166E-09         0.00000E+00
    0.38899E-07        -0.57320E-09         0.00000E+00
    0.38912E-07        -0.53336E-09         0.00000E+00
    0.38924E-07        -0.49229E-09         0.00000E+00
    0.38936E-07        -0.45012E-09         0.00000E+00
    0.38947E-07        -0.40700E-09         0.00000E+00
    0.38957E-07        -0.36308E-09         0.00000E+00
    0.38966E-07        -0.31850E-09         0.00000E+00
    0.38975E-07        -0.27342E-09         0.00000E+00
    0.38982E-07        -0.22796E-09         0.00000E+00
    0.38988E-07        -0.18228E-09         0.00000E+00
    0.38993E-07        -0.13651E-09         0.00000E+00
    0.38997E-07        -0.90796E-10         0.00000E+00
    0.38999E-07        -0.45261E-10         0.00000E+00
    0.39000E-07        -0.22556E-10         0.00000E+00
    0.35153E-07        -0.51662E-10         0.00000E+00
    0.35153E-07        -0.10116E-09         0.00000E+00
    0.35154E-07        -0.19700E-09         0.00000E+00
    0.35157E-07        -0.28657E-09         0.00000E+00
    0.35160E-07        -0.37006E-09         0.00000E+00
    0.35164E-07        -0.44763E-09         0.00000E+00
    0.35169E-07        -0.51944E-09         0.00000E+00
    0.35175E-07        -0.58564E-09         0.00000E+00
    0.35182E-07        -0.64641E-09         0.00000E+00
    0.35189E-07        -0.70187E-09         0.00000E+00
    0.35197E-07        -0.75218E-09         0.00000E+00
    0.35205E-07        -0.79747E-09         0.00000E+00
    0.35214E-07        -0.83790E-09         0.00000E+00
    0.35224E-07        -0.87358E-09         0.00000E+00
    0.35234E-07        -0.90467E-09         0.00000E+00
    0.35245E-07        -0.93128E-09         0.00000E+00
    0.35256E-07        -0.95354E-09         0.00000E+00
    0.35267E-07        -0.97159E-09         0.00000E+00
    0.35278E-07        -0.98554E-09         0.00000E+00
    0.35290E-07        -0.99552E-09         0.00000E+00
    0.35303E-07        -0.10017E-08         0.00000E+00
    0.35315E-07        -0.10041E-08         0.00000E+00
    0.35327E-07        -0.10029E-08         0.00000E+00
    0.35340E-07        -0.99818E-09         0.00000E+00
    0.35353E-07        -0.99013E-09         0.00000E+00
    0.35366E-07        -0.97884E-09         0.00000E+00
    0.35379E-07        -0.96442E-09         0.00000E+00
    0.35392E-07        -0.94699E-09         0.00000E+00
    0.35405E-07        -0.92668E-09         0.00000E+00
    0.35418E-07        -0.90360E-09         0.00000E+00
    0.35431E-07        -0.87788E-09         0.00000E+00
    0.35443E-07        -0.84964E-09         0.00000E+00
    0.35456E-07        -0.81900E-09         0.00000E+00
    0.35468E-07        -0.78610E-09         0.00000E+00
    0.35481E-07        -0.75104E-09         0.00000E+00
    0.35492E-07        -0.71395E-09         0.00000E+00
    0.35504E-07        -0.67498E-09         0.00000E+00
    0.35515E-07        -0.63422E-09         0.00000E+00
    0.35526E-07        -0.59183E-09         0.00000E+00
    0.35536E-07        -0.54791E-09         0.00000E+00
    0.35546E-07        -0.50261E-09         0.00000E+00
    0.35555E-07        -0.45603E-09         0.00000E+00
    0.35563E-07        -0.40832E-09         0.00000E+00
    0.35571E-07        -0.35959E-09         0.00000E+00
    0.35578E-07        -0.30996E-09         0.00000E+00
    0.35584E-07        -0.25956E-09         0.00000E+00
    0.35590E-07        -0.20850E-09         0.00000E+00
    0.35594E-07        -0.15691E-09         0.00000E+00
    0.35597E-07        -0.10488E-09         0.00000E+00
    0.35599E-07        -0.52543E-10         0.00000E+00
    0.35600E-07        -0.26307E-10         0.00000E+00
    0.32232E-07        -0.53552E-10         0.00000E+00
    0.32232E-07        -0.10491E-09         0.00000E+00
    0.32233E-07        -0.20441E-09         0.00000E+00
    0.32234E-07        -0.29755E-09         0.00000E+00
    0.32236E-07        -0.38449E-09         0.00000E+00
    0.32239E-07        -0.46538E-09         0.00000E+00
    0.32242E-07        -0.54040E-09         0.00000E+00
    0.32245E-07        -0.60969E-09         0.00000E+00
    0.32249E-07        -0.67339E-09         0.00000E+00
    0.32253E-07        -0.73167E-09         0.00000E+00
    0.32258E-07        -0.78464E-09         0.00000E+00
    0.32263E-07        -0.83247E-09         0.00000E+00
    0.32269E-07        -0.87528E-09         0.00000E+00
    0.32275E-07        -0.91322E-09         0.00000E+00
    0.32281E-07        -0.94640E-09         0.00000E+00
    0.32288E-07        -0.97497E-09         0.00000E+00
    0.32295E-07        -0.99905E-09         0.00000E+00
    0.32302E-07        -0.10188E-08         0.00000E+00
    0.32310E-07        -0.10342E-08         0.00000E+00
    0.32318E-07        -0.10456E-08         0.00000E+00
    0.32326E-07        -0.10530E-08         0.00000E+00
    0.32334E-07        -0.10565E-08         0.00000E+00
    0.32343E-07        -0.10562E-08         0.00000E+00
    0.32352E-07        -0.10524E-08         0.00000E+00
    0.32361E-07        -0.10450E-08         0.00000E+00
    0.32370E-07        -0.10342E-08         0.00000E+00
    0.32379E-07        -0.10201E-08         0.00000E+00
    0.32388E-07        -0.10029E-08         0.00000E+00
    0.32398E-07        -0.98263E-09         0.00000E+00
    0.32407E-07        -0.95945E-09         0.00000E+00
    0.32416E-07        -0.93345E-09         0.00000E+00
    0.32426E-07        -0.90477E-09         0.00000E+00
    0.32435E-07        -0.87350E-09         0.00000E+00
    0.32444E-07        -0.83978E-09         0.00000E+00
    0.32453E-07        -0.80372E-09         0.00000E+00
    0.32462E-07        -0.76542E-09         0.00000E+00
    0.32471E-07        -0.72501E-09         0.00000E+00
    0.32479E-07        -0.68261E-09         0.00000E+00
    0.32488E-07        -0.63832E-09         0.00000E+00
    0.32495E-07        -0.59226E-09         0.00000E+00
    0.32503E-07        -0.54454E-09         0.00000E+00
    0.32510E-07        -0.49527E-09         0.00000E+00
    0.32516E-07        -0.44457E-09         0.00000E+00
    0.32522E-07        -0.39254E-09         0.00000E+00
    0.32528E-07        -0.33930E-09         0.00000E+00
    0.32533E-07        -0.28494E-09         0.00000E+00
    0.32537E-07        -0.22957E-09         0.00000E+00
    0.32540E-07        -0.17328E-09         0.00000E+00
    0.32542E-07        -0.11619E-09         0.00000E+00
    0.32544E-07        -0.58386E-10         0.00000E+00
    0.32545E-07        -0.29315E-10         0.00000E+00
    0.29624E-07        -0.54336E-10         0.00000E+00
    0.29624E-07        -0.10650E-09         0.00000E+00
    0.29625E-07        -0.20764E-09         0.00000E+00
    0.29625E-07        -0.30246E-09         0.00000E+00
    0.29626E-07        -0.39111E-09         0.00000E+00
    0.29626E-07        -0.47375E-09         0.00000E+00
    0.29627E-07        -0.55052E-09         0.00000E+00
    0.29629E-07        -0.62156E-09         0.00000E+00
    0.29630E-07        -0.68702E-09         0.00000E+00
    0.29632E-07        -0.74703E-09         0.00000E+00
    0.29634E-07        -0.80172E-09         0.00000E+00
    0.29636E-07        -0.85123E-09         0.00000E+00
    0.29638E-07        -0.89570E-09         0.00000E+00
    0.29641E-07        -0.93524E-09         0.00000E+00
    0.29644E-07        -0.96998E-09         0.00000E+00
    0.29647E-07        -0.10001E-08         0.00000E+00
    0.29650E-07        -0.10256E-08         0.00000E+00
    0.29654E-07        -0.10467E-08         0.00000E+00
    0.29658E-07        -0.10635E-08         0.00000E+00
    0.29662E-07        -0.10761E-08         0.00000E+00
    0.29667E-07        -0.10847E-08         0.00000E+00
    0.29671E-07        -0.10893E-08         0.00000E+00
    0.29676E-07        -0.10900E-08         0.00000E+00
    0.29681E-07        -0.10871E-08         0.00000E+00
    0.29686E-07        -0.10805E-08         0.00000E+00
    0.29692E-07        -0.10704E-08         0.00000E+00
    0.29697E-07        -0.10570E-08         0.00000E+00
    0.29703E-07        -0.10403E-08         0.00000E+00
    0.29709E-07        -0.10204E-08         0.00000E+00
    0.29714E-07        -0.99749E-09         0.00000E+00
    0.29720E-07        -0.97163E-09         0.00000E+00
    0.29726E-07        -0.94295E-09         0.00000E+00
    0.29732E-07        -0.91154E-09         0.00000E+00
    0.29738E-07        -0.87753E-09         0.00000E+00
    0.29744E-07        -0.84100E-09         0.00000E+00
    0.29750E-07        -0.80208E-09         0.00000E+00
    0.29756E-07        -0.76086E-09         0.00000E+00
    0.29762E-07        -0.71746E-09         0.00000E+00
    0.29767E-07        -0.67198E-09         0.00000E+00
    0.29773E-07        -0.62451E-09         0.00000E+00
    0.29778E-07        -0.57516E-09         0.00000E+00
    0.29783E-07        -0.52404E-09         0.00000E+00
    0.29787E-07        -0.47124E-09         0.00000E+00
    0.29792E-07        -0.41687E-09         0.00000E+00
    0.29795E-07        -0.36101E-09         0.00000E+00
    0.29799E-07        -0.30376E-09         0.00000E+00
    0.29802E-07        -0.24522E-09         0.00000E+00
    0.29804E-07        -0.18548E-09         0.00000E+00
    0.29806E-07        -0.12463E-09         0.00000E+00
    0.29807E-07        -0.62748E-10         0.00000E+00
    0.29807E-07        -0.31563E-10         0.00000E+00
    0.27296E-07        -0.54173E-10         0.00000E+00
    0.27296E-07        -0.10624E-09         0.00000E+00
    0.27295E-07        -0.20726E-09         0.00000E+00
    0.27295E-07        -0.30212E-09         0.00000E+00
    0.27294E-07        -0.39098E-09         0.00000E+00
    0.27294E-07        -0.47395E-09         0.00000E+00
    0.27293E-07        -0.55117E-09         0.00000E+00
    0.27292E-07        -0.62277E-09         0.00000E+00
    0.27292E-07        -0.68889E-09         0.00000E+00
    0.27291E-07        -0.74963E-09         0.00000E+00
    0.27291E-07        -0.80514E-09         0.00000E+00
    0.27290E-07        -0.85553E-09         0.00000E+00
    0.27290E-07        -0.90092E-09         0.00000E+00
    0.27290E-07        -0.94143E-09         0.00000E+00
    0.27290E-07        -0.97718E-09         0.00000E+00
    0.27290E-07        -0.10083E-08         0.00000E+00
    0.27290E-07        -0.10349E-08         0.00000E+00
    0.27290E-07        -0.10570E-08         0.00000E+00
    0.27291E-07        -0.10749E-08         0.00000E+00
    0.27292E-07        -0.10885E-08         0.00000E+00
    0.27293E-07        -0.10981E-08         0.00000E+00
    0.27294E-07        -0.11037E-08         0.00000E+00
    0.27295E-07        -0.11055E-08         0.00000E+00
    0.27297E-07        -0.11034E-08         0.00000E+00
    0.27298E-07        -0.10978E-08         0.00000E+00
    0.27300E-07        -0.10886E-08         0.00000E+00
    0.27302E-07        -0.10759E-08         0.00000E+00
    0.27305E-07        -0.10599E-08         0.00000E+00
    0.27307E-07        -0.10407E-08         0.00000E+00
    0.27309E-07        -0.10184E-08         0.00000E+00
    0.27312E-07        -0.99298E-09         0.00000E+00
    0.27315E-07        -0.96468E-09         0.00000E+00
    0.27318E-07        -0.93356E-09         0.00000E+00
    0.27321E-07        -0.89971E-09         0.00000E+00
    0.27324E-07        -0.86324E-09         0.00000E+00
    0.27327E-07        -0.82424E-09         0.00000E+00
    0.27330E-07        -0.78281E-09         0.00000E+00
    0.27333E-07        -0.73904E-09         0.00000E+00
    0.27336E-07        -0.69304E-09         0.00000E+00
    0.27339E-07        -0.64490E-09         0.00000E+00
    0.27342E-07        -0.59471E-09         0.00000E+00
    0.27345E-07        -0.54256E-09         0.00000E+00
    0.27348E-07        -0.48855E-09         0.00000E+00
    0.27350E-07        -0.43276E-09         0.00000E+00
    0.27352E-07        -0.37529E-09         0.00000E+00
    0.27354E-07        -0.31622E-09         0.00000E+00
    0.27356E-07        -0.25564E-09         0.00000E+00
    0.27358E-07        -0.19364E-09         0.00000E+00
    0.27359E-07        -0.13030E-09         0.00000E+00
    0.27359E-07        -0.65691E-10         0.00000E+00
    0.27360E-07        -0.33084E-10         0.00000E+00
    0.25215E-07        -0.53220E-10         0.00000E+00
    0.25215E-07        -0.10442E-09         0.00000E+00
    0.25214E-07        -0.20386E-09         0.00000E+00
    0.25213E-07        -0.29739E-09         0.00000E+00
    0.25212E-07        -0.38514E-09         0.00000E+00
    0.25210E-07        -0.46724E-09         0.00000E+00
    0.25208E-07        -0.54379E-09         0.00000E+00
    0.25206E-07        -0.61490E-09         0.00000E+00
    0.25203E-07        -0.68071E-09         0.00000E+00
    0.25201E-07        -0.74130E-09         0.00000E+00
    0.25198E-07        -0.79681E-09         0.00000E+00
    0.25195E-07        -0.84733E-09         0.00000E+00
    0.25193E-07        -0.89297E-09         0.00000E+00
    0.25190E-07        -0.93385E-09         0.00000E+00
    0.25187E-07        -0.97006E-09         0.00000E+00
    0.25185E-07        -0.10017E-08         0.00000E+00
    0.25182E-07        -0.10289E-08         0.00000E+00
    0.25180E-07        -0.10518E-08         0.00000E+00
    0.25177E-07        -0.10704E-08         0.00000E+00
    0.25175E-07        -0.10848E-08         0.00000E+00
    0.25173E-07        -0.10953E-08         0.00000E+00
    0.25171E-07        -0.11018E-08         0.00000E+00
    0.25170E-07        -0.11044E-08         0.00000E+00
    0.25168E-07        -0.11033E-08         0.00000E+00
    0.25167E-07        -0.10985E-08         0.00000E+00
    0.25165E-07        -0.10902E-08         0.00000E+00
    0.25164E-07        -0.10785E-08         0.00000E+00
    0.25164E-07        -0.10634E-08         0.00000E+00
    0.25163E-07        -0.10450E-08         0.00000E+00
    0.25163E-07        -0.10235E-08         0.00000E+00
    0.25162E-07        -0.99884E-09         0.00000E+00
    0.25162E-07        -0.97126E-09         0.00000E+00
    0.25162E-07        -0.94078E-09         0.00000E+00
    0.25162E-07        -0.90751E-09         0.00000E+00
    0.25163E-07        -0.87154E-09         0.00000E+00
    0.25163E-07        -0.83296E-09         0.00000E+00
    0.25164E-07        -0.79185E-09         0.00000E+00
    0.25165E-07        -0.74831E-09         0.00000E+00
    0.25165E-07        -0.70243E-09         0.00000E+00
    0.25166E-07        -0.65429E-09         0.00000E+00
    0.25167E-07        -0.60397E-09         0.00000E+00
    0.25168E-07        -0.55157E-09         0.00000E+00
    0.25169E-07        -0.49718E-09         0.00000E+00
    0.25170E-07        -0.44086E-09         0.00000E+00
    0.25171E-07        -0.38271E-09         0.00000E+00
    0.25172E-07        -0.32282E-09         0.00000E+00
    0.25173E-07        -0.26125E-09         0.00000E+00
    0.25173E-07        -0.19810E-09         0.00000E+00
    0.25174E-07        -0.13343E-09         0.00000E+00
    0.25174E-07        -0.67339E-10         0.00000E+00
    0.25174E-07        -0.33945E-10         0.00000E+00
    0.23355E-07        -0.51630E-10         0.00000E+00
    0.23354E-07        -0.10136E-09         0.00000E+00
    0.23353E-07        -0.19800E-09         0.00000E+00
    0.23352E-07        -0.28907E-09         0.00000E+00
    0.23349E-07        -0.37465E-09         0.00000E+00
    0.23347E-07        -0.45486E-09         0.00000E+00
    0.23344E-07        -0.52979E-09         0.00000E+00
    0.23340E-07        -0.59953E-09         0.00000E+00
    0.23336E-07        -0.66420E-09         0.00000E+00
    0.23332E-07        -0.72387E-09         0.00000E+00
    0.23328E-07        -0.77866E-09         0.00000E+00
    0.23323E-07        -0.82866E-09         0.00000E+00
    0.23319E-07        -0.87395E-09         0.00000E+00
    0.23314E-07        -0.91465E-09         0.00000E+00
    0.23309E-07        -0.95083E-09         0.00000E+00
    0.23304E-07        -0.98259E-09         0.00000E+00
    0.23299E-07        -0.10100E-08         0.00000E+00
    0.23295E-07        -0.10332E-08         0.00000E+00
    0.23290E-07        -0.10523E-08         0.00000E+00
    0.23285E-07        -0.10673E-08         0.00000E+00
    0.23281E-07        -0.10784E-08         0.00000E+00
    0.23276E-07        -0.10856E-08         0.00000E+00
    0.23272E-07        -0.10890E-08         0.00000E+00
    0.23267E-07        -0.10888E-08         0.00000E+00
    0.23263E-07        -0.10849E-08         0.00000E+00
    0.23260E-07        -0.10775E-08         0.00000E+00
    0.23256E-07        -0.10667E-08         0.00000E+00
    0.23252E-07        -0.10526E-08         0.00000E+00
    0.23249E-07        -0.10352E-08         0.00000E+00
    0.23246E-07        -0.10147E-08         0.00000E+00
    0.23243E-07        -0.99104E-09         0.00000E+00
    0.23241E-07        -0.96443E-09         0.00000E+00
    0.23238E-07        -0.93491E-09         0.00000E+00
    0.23236E-07        -0.90257E-09         0.00000E+00
    0.23234E-07        -0.86748E-09         0.00000E+00
    0.23232E-07        -0.82975E-09         0.00000E+00
    0.23231E-07        -0.78944E-09         0.00000E+00
    0.23229E-07        -0.74664E-09         0.00000E+00
    0.23228E-07        -0.70143E-09         0.00000E+00
    0.23227E-07        -0.65389E-09         0.00000E+00
    0.23226E-07        -0.60410E-09         0.00000E+00
    0.23226E-07        -0.55214E-09         0.00000E+00
    0.23225E-07        -0.49810E-09         0.00000E+00
    0.23225E-07        -0.44205E-09         0.00000E+00
    0.23225E-07        -0.38406E-09         0.00000E+00
    0.23224E-07        -0.32422E-09         0.00000E+00
    0.23224E-07        -0.26260E-09         0.00000E+00
    0.23224E-07        -0.19928E-09         0.00000E+00
    0.23224E-07        -0.13434E-09         0.00000E+00
    0.23224E-07        -0.67846E-10         0.00000E+00
    0.23224E-07        -0.34224E-10         0.00000E+00
    0.21689E-07        -0.49545E-10         0.00000E+00
    0.21689E-07        -0.97316E-10         0.00000E+00
    0.21687E-07        -0.19023E-09         0.00000E+00
    0.21685E-07        -0.27793E-09         0.00000E+00
    0.21683E-07        -0.36049E-09         0.00000E+00
    0.21679E-07        -0.43799E-09         0.00000E+00
    0.21675E-07        -0.51053E-09         0.00000E+00
    0.21671E-07        -0.57818E-09         0.00000E+00
    0.21666E-07        -0.64102E-09         0.00000E+00
    0.21660E-07        -0.69913E-09         0.00000E+00
    0.21655E-07        -0.75261E-09         0.00000E+00
    0.21649E-07        -0.80152E-09         0.00000E+00
    0.21642E-07        -0.84595E-09         0.00000E+00
    0.21636E-07        -0.88598E-09         0.00000E+00
    0.21630E-07        -0.92169E-09         0.00000E+00
    0.21623E-07        -0.95317E-09         0.00000E+00
    0.21616E-07        -0.98050E-09         0.00000E+00
    0.21609E-07        -0.10037E-08         0.00000E+00
    0.21603E-07        -0.10230E-08         0.00000E+00
    0.21596E-07        -0.10383E-08         0.00000E+00
    0.21589E-07        -0.10499E-08         0.00000E+00
    0.21583E-07        -0.10576E-08         0.00000E+00
    0.21576E-07        -0.10617E-08         0.00000E+00
    0.21570E-07        -0.10622E-08         0.00000E+00
    0.21563E-07        -0.10592E-08         0.00000E+00
    0.21557E-07        -0.10527E-08         0.00000E+00
    0.21552E-07        -0.10429E-08         0.00000E+00
    0.21546E-07        -0.10298E-08         0.00000E+00
    0.21540E-07        -0.10135E-08         0.00000E+00
    0.21535E-07        -0.99406E-09         0.00000E+00
    0.21530E-07        -0.97160E-09         0.00000E+00
    0.21526E-07        -0.94617E-09         0.00000E+00
    0.21521E-07        -0.91785E-09         0.00000E+00
    0.21517E-07        -0.88672E-09         0.00000E+00
    0.21513E-07        -0.85285E-09         0.00000E+00
    0.21509E-07        -0.81632E-09         0.00000E+00
    0.21506E-07        -0.77720E-09         0.00000E+00
    0.21503E-07        -0.73557E-09         0.00000E+00
    0.21500E-07        -0.69151E-09         0.00000E+00
    0.21497E-07        -0.64509E-09         0.00000E+00
    0.21495E-07        -0.59638E-09         0.00000E+00
    0.21493E-07        -0.54547E-09         0.00000E+00
    0.21491E-07        -0.49241E-09         0.00000E+00
    0.21490E-07        -0.43729E-09         0.00000E+00
    0.21488E-07        -0.38019E-09         0.00000E+00
    0.21487E-07        -0.32116E-09         0.00000E+00
    0.21486E-07        -0.26030E-09         0.00000E+00
    0.21486E-07        -0.19766E-09         0.00000E+00
    0.21485E-07        -0.13333E-09         0.00000E+00
    0.21485E-07        -0.67379E-10         0.00000E+00
    0.21485E-07        -0.34006E-10         0.00000E+00
    0.20196E-07        -0.47093E-10         0.00000E+00
    0.20196E-07        -0.92548E-10         0.00000E+00
    0.20194E-07        -0.18103E-09         0.00000E+00
    0.20192E-07        -0.26467E-09         0.00000E+00
    0.20188E-07        -0.34355E-09         0.00000E+00
    0.20185E-07        -0.41773E-09         0.00000E+00
    0.20180E-07        -0.48728E-09         0.00000E+00
    0.20175E-07        -0.55225E-09         0.00000E+00
    0.20169E-07        -0.61272E-09         0.00000E+00
    0.20163E-07        -0.66875E-09         0.00000E+00
    0.20156E-07        -0.72042E-09         0.00000E+00
    0.20149E-07        -0.76779E-09         0.00000E+00
    0.20141E-07        -0.81092E-09         0.00000E+00
    0.20134E-07        -0.84989E-09         0.00000E+00
    0.20126E-07        -0.88477E-09         0.00000E+00
    0.20118E-07        -0.91562E-09         0.00000E+00
    0.20110E-07        -0.94251E-09         0.00000E+00
    0.20101E-07        -0.96552E-09         0.00000E+00
    0.20093E-07        -0.98471E-09         0.00000E+00
    0.20085E-07        -0.10001E-08         0.00000E+00
    0.20076E-07        -0.10119E-08         0.00000E+00
    0.20068E-07        -0.10201E-08         0.00000E+00
    0.20060E-07        -0.10247E-08         0.00000E+00
    0.20052E-07        -0.10258E-08         0.00000E+00
    0.20044E-07        -0.10236E-08         0.00000E+00
    0.20036E-07        -0.10180E-08         0.00000E+00
    0.20028E-07        -0.10092E-08         0.00000E+00
    0.20021E-07        -0.99712E-09         0.00000E+00
    0.20014E-07        -0.98197E-09         0.00000E+00
    0.20007E-07        -0.96377E-09         0.00000E+00
    0.20000E-07        -0.94259E-09         0.00000E+00
    0.19994E-07        -0.91850E-09         0.00000E+00
    0.19987E-07        -0.89157E-09         0.00000E+00
    0.19982E-07        -0.86186E-09         0.00000E+00
    0.19976E-07        -0.82946E-09         0.00000E+00
    0.19971E-07        -0.79442E-09         0.00000E+00
    0.19966E-07        -0.75681E-09         0.00000E+00
    0.19961E-07        -0.71672E-09         0.00000E+00
    0.19957E-07        -0.67419E-09         0.00000E+00
    0.19953E-07        -0.62931E-09         0.00000E+00
    0.19950E-07        -0.58214E-09         0.00000E+00
    0.19947E-07        -0.53276E-09         0.00000E+00
    0.19944E-07        -0.48122E-09         0.00000E+00
    0.19941E-07        -0.42760E-09         0.00000E+00
    0.19939E-07        -0.37197E-09         0.00000E+00
    0.19937E-07        -0.31440E-09         0.00000E+00
    0.19936E-07        -0.25496E-09         0.00000E+00
    0.19935E-07        -0.19372E-09         0.00000E+00
    0.19934E-07        -0.13074E-09         0.00000E+00
    0.19933E-07        -0.66102E-10         0.00000E+00
    0.19933E-07        -0.33376E-10         0.00000E+00
    0.18856E-07        -0.44387E-10         0.00000E+00
    0.18855E-07        -0.87276E-10         0.00000E+00
    0.18853E-07        -0.17082E-09         0.00000E+00
    0.18851E-07        -0.24994E-09         0.00000E+00
    0.18847E-07        -0.32466E-09         0.00000E+00
    0.18843E-07        -0.39505E-09         0.00000E+00
    0.18838E-07        -0.46115E-09         0.00000E+00
    0.18832E-07        -0.52301E-09         0.00000E+00
    0.18826E-07        -0.58070E-09         0.00000E+00
    0.18819E-07        -0.63425E-09         0.00000E+00
    0.18812E-07        -0.68373E-09         0.00000E+00
    0.18804E-07        -0.72918E-09         0.00000E+00
    0.18795E-07        -0.77068E-09         0.00000E+00
    0.18787E-07        -0.80826E-09         0.00000E+00
    0.18778E-07        -0.84199E-09         0.00000E+00
    0.18769E-07        -0.87193E-09         0.00000E+00
    0.18760E-07        -0.89813E-09         0.00000E+00
    0.18750E-07        -0.92065E-09         0.00000E+00
    0.18741E-07        -0.93956E-09         0.00000E+00
    0.18731E-07        -0.95490E-09         0.00000E+00
    0.18722E-07        -0.96674E-09         0.00000E+00
    0.18712E-07        -0.97515E-09         0.00000E+00
    0.18703E-07        -0.98017E-09         0.00000E+00
    0.18693E-07        -0.98187E-09         0.00000E+00
    0.18684E-07        -0.98032E-09         0.00000E+00
    0.18675E-07        -0.97556E-09         0.00000E+00
    0.18666E-07        -0.96768E-09         0.00000E+00
    0.18657E-07        -0.95671E-09         0.00000E+00
    0.18648E-07        -0.94273E-09         0.00000E+00
    0.18640E-07        -0.92581E-09         0.00000E+00
    0.18632E-07        -0.90599E-09         0.00000E+00
    0.18624E-07        -0.88334E-09         0.00000E+00
    0.18617E-07        -0.85793E-09         0.00000E+00
    0.18610E-07        -0.82982E-09         0.00000E+00
    0.18603E-07        -0.79907E-09         0.00000E+00
    0.18596E-07        -0.76574E-09         0.00000E+00
    0.18590E-07        -0.72990E-09         0.00000E+00
    0.18585E-07        -0.69160E-09         0.00000E+00
    0.18579E-07        -0.65092E-09         0.00000E+00
    0.18574E-07        -0.60792E-09         0.00000E+00
    0.18570E-07        -0.56265E-09         0.00000E+00
    0.18566E-07        -0.51519E-09         0.00000E+00
    0.18562E-07        -0.46559E-09         0.00000E+00
    0.18559E-07        -0.41393E-09         0.00000E+00
    0.18556E-07        -0.36026E-09         0.00000E+00
    0.18554E-07        -0.30465E-09         0.00000E+00
    0.18552E-07        -0.24717E-09         0.00000E+00
    0.18550E-07        -0.18789E-09         0.00000E+00
    0.18549E-07        -0.12687E-09         0.00000E+00
    0.18548E-07        -0.64171E-10         0.00000E+00
    0.18548E-07        -0.32414E-10         0.00000E+00
    0.17651E-07        -0.41526E-10         0.00000E+00
    0.17650E-07        -0.81691E-10         0.00000E+00
    0.17648E-07        -0.15999E-09         0.00000E+00
    0.17646E-07        -0.23425E-09         0.00000E+00
    0.17642E-07        -0.30450E-09         0.00000E+00
    0.17637E-07        -0.37079E-09         0.00000E+00
    0.17632E-07        -0.43313E-09         0.00000E+00
    0.17626E-07        -0.49158E-09         0.00000E+00
    0.17619E-07        -0.54617E-09         0.00000E+00
    0.17612E-07        -0.59695E-09         0.00000E+00
    0.17604E-07        -0.64395E-09         0.00000E+00
    0.17596E-07        -0.68722E-09         0.00000E+00
    0.17587E-07        -0.72681E-09         0.00000E+00
    0.17578E-07        -0.76275E-09         0.00000E+00
    0.17568E-07        -0.79509E-09         0.00000E+00
    0.17558E-07        -0.82389E-09         0.00000E+00
    0.17548E-07        -0.84918E-09         0.00000E+00
    0.17538E-07        -0.87102E-09         0.00000E+00
    0.17528E-07        -0.88945E-09         0.00000E+00
    0.17517E-07        -0.90453E-09         0.00000E+00
    0.17507E-07        -0.91630E-09         0.00000E+00
    0.17497E-07        -0.92481E-09         0.00000E+00
    0.17486E-07        -0.93013E-09         0.00000E+00
    0.17476E-07        -0.93229E-09         0.00000E+00
    0.17466E-07        -0.93135E-09         0.00000E+00
    0.17455E-07        -0.92736E-09         0.00000E+00
    0.17445E-07        -0.92039E-09         0.00000E+00
    0.17436E-07        -0.91047E-09         0.00000E+00
    0.17426E-07        -0.89766E-09         0.00000E+00
    0.17417E-07        -0.88203E-09         0.00000E+00
    0.17408E-07        -0.86362E-09         0.00000E+00
    0.17399E-07        -0.84248E-09         0.00000E+00
    0.17391E-07        -0.81868E-09         0.00000E+00
    0.17383E-07        -0.79227E-09         0.00000E+00
    0.17375E-07        -0.76331E-09         0.00000E+00
    0.17367E-07        -0.73185E-09         0.00000E+00
    0.17360E-07        -0.69794E-09         0.00000E+00
    0.17354E-07        -0.66166E-09         0.00000E+00
    0.17348E-07        -0.62304E-09         0.00000E+00
    0.17342E-07        -0.58216E-09         0.00000E+00
    0.17337E-07        -0.53907E-09         0.00000E+00
    0.17332E-07        -0.49383E-09         0.00000E+00
    0.17328E-07        -0.44650E-09         0.00000E+00
    0.17324E-07        -0.39714E-09         0.00000E+00
    0.17321E-07        -0.34580E-09         0.00000E+00
    0.17318E-07        -0.29256E-09         0.00000E+00
    0.17315E-07        -0.23747E-09         0.00000E+00
    0.17314E-07        -0.18059E-09         0.00000E+00
    0.17312E-07        -0.12199E-09         0.00000E+00
    0.17311E-07        -0.61726E-10         0.00000E+00
    0.17311E-07        -0.31190E-10         0.00000E+00
    0.16566E-07        -0.38589E-10         0.00000E+00
    0.16565E-07        -0.75951E-10         0.00000E+00
    0.16564E-07        -0.14884E-09         0.00000E+00
    0.16561E-07        -0.21807E-09         0.00000E+00
    0.16557E-07        -0.28367E-09         0.00000E+00
    0.16552E-07        -0.34566E-09         0.00000E+00
    0.16547E-07        -0.40405E-09         0.00000E+00
    0.16541E-07        -0.45889E-09         0.00000E+00
    0.16534E-07        -0.51019E-09         0.00000E+00
    0.16526E-07        -0.55799E-09         0.00000E+00
    0.16518E-07        -0.60232E-09         0.00000E+00
    0.16509E-07        -0.64321E-09         0.00000E+00
    0.16500E-07        -0.68069E-09         0.00000E+00
    0.16491E-07        -0.71479E-09         0.00000E+00
    0.16481E-07        -0.74557E-09         0.00000E+00
    0.16471E-07        -0.77304E-09         0.00000E+00
    0.16460E-07        -0.79725E-09         0.00000E+00
    0.16450E-07        -0.81824E-09         0.00000E+00
    0.16439E-07        -0.83605E-09         0.00000E+00
    0.16428E-07        -0.85072E-09         0.00000E+00
    0.16417E-07        -0.86228E-09         0.00000E+00
    0.16406E-07        -0.87079E-09         0.00000E+00
    0.16395E-07        -0.87629E-09         0.00000E+00
    0.16384E-07        -0.87881E-09         0.00000E+00
    0.16373E-07        -0.87840E-09         0.00000E+00
    0.16362E-07        -0.87512E-09         0.00000E+00
    0.16351E-07        -0.86900E-09         0.00000E+00
    0.16341E-07        -0.86009E-09         0.00000E+00
    0.16331E-07        -0.84843E-09         0.00000E+00
    0.16321E-07        -0.83409E-09         0.00000E+00
    0.16311E-07        -0.81709E-09         0.00000E+00
    0.16302E-07        -0.79749E-09         0.00000E+00
    0.16292E-07        -0.77535E-09         0.00000E+00
    0.16284E-07        -0.75071E-09         0.00000E+00
    0.16275E-07        -0.72361E-09         0.00000E+00
    0.16267E-07        -0.69412E-09         0.00000E+00
    0.16260E-07        -0.66227E-09         0.00000E+00
    0.16253E-07        -0.62813E-09         0.00000E+00
    0.16246E-07        -0.59175E-09         0.00000E+00
    0.16240E-07        -0.55317E-09         0.00000E+00
    0.16234E-07        -0.51246E-09         0.00000E+00
    0.16228E-07        -0.46965E-09         0.00000E+00
    0.16224E-07        -0.42482E-09         0.00000E+00
    0.16219E-07        -0.37802E-09         0.00000E+00
    0.16216E-07        -0.32929E-09         0.00000E+00
    0.16213E-07        -0.27870E-09         0.00000E+00
    0.16210E-07        -0.22631E-09         0.00000E+00
    0.16208E-07        -0.17217E-09         0.00000E+00
    0.16206E-07        -0.11635E-09         0.00000E+00
    0.16205E-07        -0.58893E-10         0.00000E+00
    0.16205E-07        -0.29768E-10         0.00000E+00
    0.15588E-07        -0.35644E-10         0.00000E+00
    0.15588E-07        -0.70187E-10         0.00000E+00
    0.15586E-07        -0.13763E-09         0.00000E+00
    0.15583E-07        -0.20177E-09         0.00000E+00
    0.15579E-07        -0.26264E-09         0.00000E+00
    0.15575E-07        -0.32025E-09         0.00000E+00
    0.15569E-07        -0.37460E-09         0.00000E+00
    0.15563E-07        -0.42571E-09         0.00000E+00
    0.15556E-07        -0.47361E-09         0.00000E+00
    0.15548E-07        -0.51831E-09         0.00000E+00
    0.15540E-07        -0.55984E-09         0.00000E+00
    0.15531E-07        -0.59821E-09         0.00000E+00
    0.15522E-07        -0.63345E-09         0.00000E+00
    0.15513E-07        -0.66560E-09         0.00000E+00
    0.15502E-07        -0.69466E-09         0.00000E+00
    0.15492E-07        -0.72068E-09         0.00000E+00
    0.15481E-07        -0.74369E-09         0.00000E+00
    0.15471E-07        -0.76370E-09         0.00000E+00
    0.15460E-07        -0.78076E-09         0.00000E+00
    0.15448E-07        -0.79490E-09         0.00000E+00
    0.15437E-07        -0.80615E-09         0.00000E+00
    0.15426E-07        -0.81454E-09         0.00000E+00
    0.15414E-07        -0.82012E-09         0.00000E+00
    0.15403E-07        -0.82291E-09         0.00000E+00
    0.15392E-07        -0.82296E-09         0.00000E+00
    0.15381E-07        -0.82031E-09         0.00000E+00
    0.15370E-07        -0.81498E-09         0.00000E+00
    0.15359E-07        -0.80703E-09         0.00000E+00
    0.15348E-07        -0.79649E-09         0.00000E+00
    0.15338E-07        -0.78340E-09         0.00000E+00
    0.15327E-07        -0.76780E-09         0.00000E+00
    0.15318E-07        -0.74975E-09         0.00000E+00
    0.15308E-07        -0.72927E-09         0.00000E+00
    0.15299E-07        -0.70641E-09         0.00000E+00
    0.15290E-07        -0.68123E-09         0.00000E+00
    0.15282E-07        -0.65375E-09         0.00000E+00
    0.15273E-07        -0.62404E-09         0.00000E+00
    0.15266E-07        -0.59213E-09         0.00000E+00
    0.15259E-07        -0.55807E-09         0.00000E+00
    0.15252E-07        -0.52191E-09         0.00000E+00
    0.15246E-07        -0.48369E-09         0.00000E+00
    0.15240E-07        -0.44348E-09         0.00000E+00
    0.15235E-07        -0.40131E-09         0.00000E+00
    0.15231E-07        -0.35723E-09         0.00000E+00
    0.15227E-07        -0.31131E-09         0.00000E+00
    0.15223E-07        -0.26359E-09         0.00000E+00
    0.15220E-07        -0.21412E-09         0.00000E+00
    0.15218E-07        -0.16295E-09         0.00000E+00
    0.15217E-07        -0.11016E-09         0.00000E+00
    0.15216E-07        -0.55779E-10         0.00000E+00
    0.15215E-07        -0.28202E-10         0.00000E+00
    0.14707E-07        -0.32739E-10         0.00000E+00
    0.14706E-07        -0.64497E-10         0.00000E+00
    0.14704E-07        -0.12654E-09         0.00000E+00
    0.14702E-07        -0.18564E-09         0.00000E+00
    0.14698E-07        -0.24180E-09         0.00000E+00
    0.14693E-07        -0.29502E-09         0.00000E+00
    0.14688E-07        -0.34530E-09         0.00000E+00
    0.14682E-07        -0.39267E-09         0.00000E+00
    0.14675E-07        -0.43712E-09         0.00000E+00
    0.14667E-07        -0.47866E-09         0.00000E+00
    0.14659E-07        -0.51732E-09         0.00000E+00
    0.14650E-07        -0.55311E-09         0.00000E+00
    0.14641E-07        -0.58604E-09         0.00000E+00
    0.14632E-07        -0.61613E-09         0.00000E+00
    0.14621E-07        -0.64340E-09         0.00000E+00
    0.14611E-07        -0.66788E-09         0.00000E+00
    0.14600E-07        -0.68957E-09         0.00000E+00
    0.14590E-07        -0.70852E-09         0.00000E+00
    0.14578E-07        -0.72474E-09         0.00000E+00
    0.14567E-07        -0.73825E-09         0.00000E+00
    0.14556E-07        -0.74909E-09         0.00000E+00
    0.14544E-07        -0.75728E-09         0.00000E+00
    0.14533E-07        -0.76285E-09         0.00000E+00
    0.14521E-07        -0.76583E-09         0.00000E+00
    0.14510E-07        -0.76626E-09         0.00000E+00
    0.14499E-07        -0.76416E-09         0.00000E+00
    0.14487E-07        -0.75956E-09         0.00000E+00
    0.14476E-07        -0.75251E-09         0.00000E+00
    0.14466E-07        -0.74302E-09         0.00000E+00
    0.14455E-07        -0.73115E-09         0.00000E+00
    0.14445E-07        -0.71692E-09         0.00000E+00
    0.14434E-07        -0.70037E-09         0.00000E+00
    0.14425E-07        -0.68155E-09         0.00000E+00
    0.14415E-07        -0.66048E-09         0.00000E+00
    0.14406E-07        -0.63720E-09         0.00000E+00
    0.14397E-07        -0.61176E-09         0.00000E+00
    0.14389E-07        -0.58420E-09         0.00000E+00
    0.14381E-07        -0.55455E-09         0.00000E+00
    0.14374E-07        -0.52287E-09         0.00000E+00
    0.14367E-07        -0.48918E-09         0.00000E+00
    0.14361E-07        -0.45354E-09         0.00000E+00
    0.14355E-07        -0.41600E-09         0.00000E+00
    0.14350E-07        -0.37658E-09         0.00000E+00
    0.14345E-07        -0.33535E-09         0.00000E+00
    0.14341E-07        -0.29235E-09         0.00000E+00
    0.14337E-07        -0.24762E-09         0.00000E+00
    0.14334E-07        -0.20122E-09         0.00000E+00
    0.14332E-07        -0.15319E-09         0.00000E+00
    0.14330E-07        -0.10359E-09         0.00000E+00
    0.14329E-07        -0.52472E-10         0.00000E+00
    0.14329E-07        -0.26537E-10         0.00000E+00
    0.13911E-07        -0.29914E-10         0.00000E+00
    0.13910E-07        -0.58958E-10         0.00000E+00
    0.13909E-07        -0.11573E-09         0.00000E+00
    0.13906E-07        -0.16989E-09         0.00000E+00
    0.13903E-07        -0.22142E-09         0.00000E+00
    0.13898E-07        -0.27032E-09         0.00000E+00
    0.13893E-07        -0.31659E-09         0.00000E+00
    0.13887E-07        -0.36023E-09         0.00000E+00
    0.13880E-07        -0.40124E-09         0.00000E+00
    0.13873E-07        -0.43963E-09         0.00000E+00
    0.13865E-07        -0.47541E-09         0.00000E+00
    0.13856E-07        -0.50859E-09         0.00000E+00
    0.13847E-07        -0.53917E-09         0.00000E+00
    0.13838E-07        -0.56716E-09         0.00000E+00
    0.13828E-07        -0.59259E-09         0.00000E+00
    0.13817E-07        -0.61546E-09         0.00000E+00
    0.13807E-07        -0.63578E-09         0.00000E+00
    0.13796E-07        -0.65359E-09         0.00000E+00
    0.13785E-07        -0.66889E-09         0.00000E+00
    0.13774E-07        -0.68171E-09         0.00000E+00
    0.13763E-07        -0.69206E-09         0.00000E+00
    0.13751E-07        -0.69997E-09         0.00000E+00
    0.13740E-07        -0.70546E-09         0.00000E+00
    0.13728E-07        -0.70855E-09         0.00000E+00
    0.13717E-07        -0.70928E-09         0.00000E+00
    0.13706E-07        -0.70766E-09         0.00000E+00
    0.13695E-07        -0.70373E-09         0.00000E+00
    0.13683E-07        -0.69750E-09         0.00000E+00
    0.13673E-07        -0.68902E-09         0.00000E+00
    0.13662E-07        -0.67831E-09         0.00000E+00
    0.13651E-07        -0.66539E-09         0.00000E+00
    0.13641E-07        -0.65031E-09         0.00000E+00
    0.13631E-07        -0.63310E-09         0.00000E+00
    0.13622E-07        -0.61378E-09         0.00000E+00
    0.13613E-07        -0.59239E-09         0.00000E+00
    0.13604E-07        -0.56897E-09         0.00000E+00
    0.13596E-07        -0.54355E-09         0.00000E+00
    0.13588E-07        -0.51616E-09         0.00000E+00
    0.13580E-07        -0.48686E-09         0.00000E+00
    0.13573E-07        -0.45567E-09         0.00000E+00
    0.13567E-07        -0.42263E-09         0.00000E+00
    0.13561E-07        -0.38778E-09         0.00000E+00
    0.13555E-07        -0.35117E-09         0.00000E+00
    0.13551E-07        -0.31283E-09         0.00000E+00
    0.13546E-07        -0.27281E-09         0.00000E+00
    0.13543E-07        -0.23115E-09         0.00000E+00
    0.13540E-07        -0.18790E-09         0.00000E+00
    0.13537E-07        -0.14310E-09         0.00000E+00
    0.13536E-07        -0.96801E-10         0.00000E+00
    0.13535E-07        -0.49046E-10         0.00000E+00
    0.13534E-07        -0.24812E-10         0.00000E+00
    0.13193E-07        -0.27196E-10         0.00000E+00
    0.13192E-07        -0.53622E-10         0.00000E+00
    0.13191E-07        -0.10531E-09         0.00000E+00
    0.13188E-07        -0.15468E-09         0.00000E+00
    0.13185E-07        -0.20172E-09         0.00000E+00
    0.13181E-07        -0.24641E-09         0.00000E+00
    0.13176E-07        -0.28875E-09         0.00000E+00
    0.13170E-07        -0.32874E-09         0.00000E+00
    0.13163E-07        -0.36637E-09         0.00000E+00
    0.13156E-07        -0.40165E-09         0.00000E+00
    0.13148E-07        -0.43457E-09         0.00000E+00
    0.13140E-07        -0.46515E-09         0.00000E+00
    0.13131E-07        -0.49337E-09         0.00000E+00
    0.13122E-07        -0.51926E-09         0.00000E+00
    0.13112E-07        -0.54282E-09         0.00000E+00
    0.13102E-07        -0.56405E-09         0.00000E+00
    0.13092E-07        -0.58297E-09         0.00000E+00
    0.13082E-07        -0.59960E-09         0.00000E+00
    0.13071E-07        -0.61393E-09         0.00000E+00
    0.13060E-07        -0.62599E-09         0.00000E+00
    0.13049E-07        -0.63580E-09         0.00000E+00
    0.13038E-07        -0.64336E-09         0.00000E+00
    0.13026E-07        -0.64870E-09         0.00000E+00
    0.13015E-07        -0.65185E-09         0.00000E+00
    0.13004E-07        -0.65280E-09         0.00000E+00
    0.12993E-07        -0.65160E-09         0.00000E+00
    0.12982E-07        -0.64826E-09         0.00000E+00
    0.12971E-07        -0.64280E-09         0.00000E+00
    0.12960E-07        -0.63525E-09         0.00000E+00
    0.12949E-07        -0.62563E-09         0.00000E+00
    0.12939E-07        -0.61397E-09         0.00000E+00
    0.12929E-07        -0.60029E-09         0.00000E+00
    0.12919E-07        -0.58463E-09         0.00000E+00
    0.12910E-07        -0.56701E-09         0.00000E+00
    0.12901E-07        -0.54747E-09         0.00000E+00
    0.12892E-07        -0.52602E-09         0.00000E+00
    0.12883E-07        -0.50271E-09         0.00000E+00
    0.12876E-07        -0.47756E-09         0.00000E+00
    0.12868E-07        -0.45061E-09         0.00000E+00
    0.12861E-07        -0.42189E-09         0.00000E+00
    0.12855E-07        -0.39144E-09         0.00000E+00
    0.12849E-07        -0.35929E-09         0.00000E+00
    0.12843E-07        -0.32548E-09         0.00000E+00
    0.12838E-07        -0.29005E-09         0.00000E+00
    0.12834E-07        -0.25303E-09         0.00000E+00
    0.12830E-07        -0.21446E-09         0.00000E+00
    0.12827E-07        -0.17439E-09         0.00000E+00
    0.12825E-07        -0.13285E-09         0.00000E+00
    0.12823E-07        -0.89896E-10         0.00000E+00
    0.12822E-07        -0.45561E-10         0.00000E+00
    0.12822E-07        -0.23054E-10         0.00000E+00
    0.12546E-07        -0.24601E-10         0.00000E+00
    0.12545E-07        -0.48524E-10         0.00000E+00
    0.12544E-07        -0.95349E-10         0.00000E+00
    0.12541E-07        -0.14012E-09         0.00000E+00
    0.12538E-07        -0.18283E-09         0.00000E+00
    0.12534E-07        -0.22345E-09         0.00000E+00
    0.12529E-07        -0.26199E-09         0.00000E+00
    0.12523E-07        -0.29844E-09         0.00000E+00
    0.12517E-07        -0.33278E-09         0.00000E+00
    0.12510E-07        -0.36501E-09         0.00000E+00
    0.12503E-07        -0.39513E-09         0.00000E+00
    0.12495E-07        -0.42315E-09         0.00000E+00
    0.12486E-07        -0.44905E-09         0.00000E+00
    0.12477E-07        -0.47284E-09         0.00000E+00
    0.12468E-07        -0.49453E-09         0.00000E+00
    0.12459E-07        -0.51412E-09         0.00000E+00
    0.12449E-07        -0.53162E-09         0.00000E+00
    0.12438E-07        -0.54703E-09         0.00000E+00
    0.12428E-07        -0.56036E-09         0.00000E+00
    0.12417E-07        -0.57163E-09         0.00000E+00
    0.12406E-07        -0.58084E-09         0.00000E+00
    0.12396E-07        -0.58801E-09         0.00000E+00
    0.12385E-07        -0.59315E-09         0.00000E+00
    0.12374E-07        -0.59628E-09         0.00000E+00
    0.12363E-07        -0.59740E-09         0.00000E+00
    0.12352E-07        -0.59655E-09         0.00000E+00
    0.12341E-07        -0.59373E-09         0.00000E+00
    0.12330E-07        -0.58897E-09         0.00000E+00
    0.12320E-07        -0.58228E-09         0.00000E+00
    0.12309E-07        -0.57368E-09         0.00000E+00
    0.12299E-07        -0.56321E-09         0.00000E+00
    0.12289E-07        -0.55087E-09         0.00000E+00
    0.12280E-07        -0.53670E-09         0.00000E+00
    0.12270E-07        -0.52072E-09         0.00000E+00
    0.12261E-07        -0.50295E-09         0.00000E+00
    0.12253E-07        -0.48342E-09         0.00000E+00
    0.12244E-07        -0.46216E-09         0.00000E+00
    0.12237E-07        -0.43920E-09         0.00000E+00
    0.12229E-07        -0.41455E-09         0.00000E+00
    0.12222E-07        -0.38827E-09         0.00000E+00
    0.12216E-07        -0.36036E-09         0.00000E+00
    0.12210E-07        -0.33088E-09         0.00000E+00
    0.12204E-07        -0.29984E-09         0.00000E+00
    0.12200E-07        -0.26728E-09         0.00000E+00
    0.12195E-07        -0.23324E-09         0.00000E+00
    0.12192E-07        -0.19775E-09         0.00000E+00
    0.12189E-07        -0.16085E-09         0.00000E+00
    0.12186E-07        -0.12258E-09         0.00000E+00
    0.12185E-07        -0.82968E-10         0.00000E+00
    0.12184E-07        -0.42061E-10         0.00000E+00
    0.12183E-07        -0.21289E-10         0.00000E+00
    0.11963E-07        -0.22139E-10         0.00000E+00
    0.11962E-07        -0.43684E-10         0.00000E+00
    0.11961E-07        -0.85876E-10         0.00000E+00
    0.11959E-07        -0.12626E-09         0.00000E+00
    0.11956E-07        -0.16483E-09         0.00000E+00
    0.11952E-07        -0.20156E-09         0.00000E+00
    0.11947E-07        -0.23645E-09         0.00000E+00
    0.11942E-07        -0.26947E-09         0.00000E+00
    0.11936E-07        -0.30063E-09         0.00000E+00
    0.11929E-07        -0.32991E-09         0.00000E+00
    0.11922E-07        -0.35730E-09         0.00000E+00
    0.11914E-07        -0.38282E-09         0.00000E+00
    0.11906E-07        -0.40644E-09         0.00000E+00
    0.11898E-07        -0.42817E-09         0.00000E+00
    0.11889E-07        -0.44802E-09         0.00000E+00
    0.11880E-07        -0.46597E-09         0.00000E+00
    0.11870E-07        -0.48204E-09         0.00000E+00
    0.11860E-07        -0.49623E-09         0.00000E+00
    0.11850E-07        -0.50855E-09         0.00000E+00
    0.11840E-07        -0.51899E-09         0.00000E+00
    0.11829E-07        -0.52757E-09         0.00000E+00
    0.11819E-07        -0.53430E-09         0.00000E+00
    0.11808E-07        -0.53919E-09         0.00000E+00
    0.11798E-07        -0.54225E-09         0.00000E+00
    0.11787E-07        -0.54349E-09         0.00000E+00
    0.11776E-07        -0.54292E-09         0.00000E+00
    0.11766E-07        -0.54056E-09         0.00000E+00
    0.11755E-07        -0.53642E-09         0.00000E+00
    0.11745E-07        -0.53053E-09         0.00000E+00
    0.11735E-07        -0.52289E-09         0.00000E+00
    0.11725E-07        -0.51353E-09         0.00000E+00
    0.11715E-07        -0.50246E-09         0.00000E+00
    0.11706E-07        -0.48971E-09         0.00000E+00
    0.11697E-07        -0.47529E-09         0.00000E+00
    0.11688E-07        -0.45923E-09         0.00000E+00
    0.11680E-07        -0.44155E-09         0.00000E+00
    0.11672E-07        -0.42227E-09         0.00000E+00
    0.11664E-07        -0.40142E-09         0.00000E+00
    0.11657E-07        -0.37902E-09         0.00000E+00
    0.11650E-07        -0.35510E-09         0.00000E+00
    0.11643E-07        -0.32968E-09         0.00000E+00
    0.11638E-07        -0.30280E-09         0.00000E+00
    0.11632E-07        -0.27448E-09         0.00000E+00
    0.11628E-07        -0.24475E-09         0.00000E+00
    0.11623E-07        -0.21364E-09         0.00000E+00
    0.11620E-07        -0.18119E-09         0.00000E+00
    0.11617E-07        -0.14742E-09         0.00000E+00
    0.11614E-07        -0.11238E-09         0.00000E+00
    0.11613E-07        -0.76084E-10         0.00000E+00
    0.11612E-07        -0.38582E-10         0.00000E+00
    0.11611E-07        -0.19532E-10         0.00000E+00
    0.11439E-07        -0.19813E-10         0.00000E+00
    0.11439E-07        -0.39107E-10         0.00000E+00
    0.11438E-07        -0.76911E-10         0.00000E+00
    0.11435E-07        -0.11314E-09         0.00000E+00
    0.11433E-07        -0.14776E-09         0.00000E+00
    0.11429E-07        -0.18078E-09         0.00000E+00
    0.11424E-07        -0.21216E-09         0.00000E+00
    0.11419E-07        -0.24191E-09         0.00000E+00
    0.11414E-07        -0.27000E-09         0.00000E+00
    0.11407E-07        -0.29643E-09         0.00000E+00
    0.11401E-07        -0.32120E-09         0.00000E+00
    0.11393E-07        -0.34428E-09         0.00000E+00
    0.11386E-07        -0.36569E-09         0.00000E+00
    0.11377E-07        -0.38541E-09         0.00000E+00
    0.11369E-07        -0.40344E-09         0.00000E+00
    0.11360E-07        -0.41978E-09         0.00000E+00
    0.11351E-07        -0.43444E-09         0.00000E+00
    0.11341E-07        -0.44741E-09         0.00000E+00
    0.11332E-07        -0.45869E-09         0.00000E+00
    0.11322E-07        -0.46829E-09         0.00000E+00
    0.11312E-07        -0.47622E-09         0.00000E+00
    0.11302E-07        -0.48248E-09         0.00000E+00
    0.11291E-07        -0.48708E-09         0.00000E+00
    0.11281E-07        -0.49002E-09         0.00000E+00
    0.11271E-07        -0.49132E-09         0.00000E+00
    0.11261E-07        -0.49098E-09         0.00000E+00
    0.11251E-07        -0.48902E-09         0.00000E+00
    0.11240E-07        -0.48545E-09         0.00000E+00
    0.11231E-07        -0.48028E-09         0.00000E+00
    0.11221E-07        -0.47353E-09         0.00000E+00
    0.11211E-07        -0.46521E-09         0.00000E+00
    0.11202E-07        -0.45533E-09         0.00000E+00
    0.11193E-07        -0.44392E-09         0.00000E+00
    0.11184E-07        -0.43099E-09         0.00000E+00
    0.11175E-07        -0.41656E-09         0.00000E+00
    0.11167E-07        -0.40064E-09         0.00000E+00
    0.11159E-07        -0.38327E-09         0.00000E+00
    0.11151E-07        -0.36445E-09         0.00000E+00
    0.11144E-07        -0.34422E-09         0.00000E+00
    0.11138E-07        -0.32259E-09         0.00000E+00
    0.11132E-07        -0.29959E-09         0.00000E+00
    0.11126E-07        -0.27524E-09         0.00000E+00
    0.11121E-07        -0.24957E-09         0.00000E+00
    0.11116E-07        -0.22260E-09         0.00000E+00
    0.11112E-07        -0.19436E-09         0.00000E+00
    0.11108E-07        -0.16489E-09         0.00000E+00
    0.11105E-07        -0.13419E-09         0.00000E+00
    0.11103E-07        -0.10232E-09         0.00000E+00
    0.11101E-07        -0.69294E-10         0.00000E+00
    0.11100E-07        -0.35147E-10         0.00000E+00
    0.11100E-07        -0.17797E-10         0.00000E+00
    0.10971E-07        -0.17621E-10         0.00000E+00
    0.10970E-07        -0.34791E-10         0.00000E+00
    0.10969E-07        -0.68449E-10         0.00000E+00
    0.10967E-07        -0.10073E-09         0.00000E+00
    0.10964E-07        -0.13162E-09         0.00000E+00
    0.10961E-07        -0.16110E-09         0.00000E+00
    0.10957E-07        -0.18915E-09         0.00000E+00
    0.10952E-07        -0.21576E-09         0.00000E+00
    0.10946E-07        -0.24092E-09         0.00000E+00
    0.10941E-07        -0.26462E-09         0.00000E+00
    0.10934E-07        -0.28684E-09         0.00000E+00
    0.10927E-07        -0.30758E-09         0.00000E+00
    0.10920E-07        -0.32683E-09         0.00000E+00
    0.10912E-07        -0.34460E-09         0.00000E+00
    0.10904E-07        -0.36086E-09         0.00000E+00
    0.10895E-07        -0.37562E-09         0.00000E+00
    0.10887E-07        -0.38888E-09         0.00000E+00
    0.10878E-07        -0.40064E-09         0.00000E+00
    0.10868E-07        -0.41089E-09         0.00000E+00
    0.10859E-07        -0.41965E-09         0.00000E+00
    0.10849E-07        -0.42691E-09         0.00000E+00
    0.10840E-07        -0.43267E-09         0.00000E+00
    0.10830E-07        -0.43694E-09         0.00000E+00
    0.10820E-07        -0.43973E-09         0.00000E+00
    0.10810E-07        -0.44104E-09         0.00000E+00
    0.10800E-07        -0.44089E-09         0.00000E+00
    0.10790E-07        -0.43927E-09         0.00000E+00
    0.10781E-07        -0.43620E-09         0.00000E+00
    0.10771E-07        -0.43170E-09         0.00000E+00
    0.10762E-07        -0.42576E-09         0.00000E+00
    0.10752E-07        -0.41841E-09         0.00000E+00
    0.10743E-07        -0.40965E-09         0.00000E+00
    0.10734E-07        -0.39950E-09         0.00000E+00
    0.10726E-07        -0.38798E-09         0.00000E+00
    0.10717E-07        -0.37510E-09         0.00000E+00
    0.10709E-07        -0.36087E-09         0.00000E+00
    0.10702E-07        -0.34532E-09         0.00000E+00
    0.10694E-07        -0.32846E-09         0.00000E+00
    0.10687E-07        -0.31031E-09         0.00000E+00
    0.10681E-07        -0.29089E-09         0.00000E+00
    0.10675E-07        -0.27022E-09         0.00000E+00
    0.10669E-07        -0.24833E-09         0.00000E+00
    0.10664E-07        -0.22523E-09         0.00000E+00
    0.10660E-07        -0.20094E-09         0.00000E+00
    0.10656E-07        -0.17550E-09         0.00000E+00
    0.10652E-07        -0.14892E-09         0.00000E+00
    0.10649E-07        -0.12123E-09         0.00000E+00
    0.10647E-07        -0.92457E-10         0.00000E+00
    0.10646E-07        -0.62629E-10         0.00000E+00
    0.10645E-07        -0.31774E-10         0.00000E+00
    0.10644E-07        -0.16092E-10         0.00000E+00
    0.10553E-07        -0.15557E-10         0.00000E+00
    0.10553E-07        -0.30726E-10         0.00000E+00
    0.10552E-07        -0.60473E-10         0.00000E+00
    0.10550E-07        -0.89029E-10         0.00000E+00
    0.10547E-07        -0.11638E-09         0.00000E+00
    0.10544E-07        -0.14250E-09         0.00000E+00
    0.10540E-07        -0.16738E-09         0.00000E+00
    0.10536E-07        -0.19100E-09         0.00000E+00
    0.10530E-07        -0.21335E-09         0.00000E+00
    0.10525E-07        -0.23442E-09         0.00000E+00
    0.10519E-07        -0.25421E-09         0.00000E+00
    0.10512E-07        -0.27269E-09         0.00000E+00
    0.10505E-07        -0.28986E-09         0.00000E+00
    0.10498E-07        -0.30573E-09         0.00000E+00
    0.10490E-07        -0.32027E-09         0.00000E+00
    0.10482E-07        -0.33349E-09         0.00000E+00
    0.10473E-07        -0.34538E-09         0.00000E+00
    0.10465E-07        -0.35594E-09         0.00000E+00
    0.10456E-07        -0.36517E-09         0.00000E+00
    0.10447E-07        -0.37307E-09         0.00000E+00
    0.10438E-07        -0.37965E-09         0.00000E+00
    0.10428E-07        -0.38490E-09         0.00000E+00
    0.10419E-07        -0.38882E-09         0.00000E+00
    0.10410E-07        -0.39142E-09         0.00000E+00
    0.10400E-07        -0.39271E-09         0.00000E+00
    0.10391E-07        -0.39269E-09         0.00000E+00
    0.10381E-07        -0.39137E-09         0.00000E+00
    0.10372E-07        -0.38875E-09         0.00000E+00
    0.10363E-07        -0.38484E-09         0.00000E+00
    0.10353E-07        -0.37966E-09         0.00000E+00
    0.10344E-07        -0.37320E-09         0.00000E+00
    0.10336E-07        -0.36549E-09         0.00000E+00
    0.10327E-07        -0.35654E-09         0.00000E+00
    0.10319E-07        -0.34635E-09         0.00000E+00
    0.10311E-07        -0.33493E-09         0.00000E+00
    0.10303E-07        -0.32232E-09         0.00000E+00
    0.10295E-07        -0.30850E-09         0.00000E+00
    0.10288E-07        -0.29352E-09         0.00000E+00
    0.10282E-07        -0.27737E-09         0.00000E+00
    0.10275E-07        -0.26007E-09         0.00000E+00
    0.10270E-07        -0.24165E-09         0.00000E+00
    0.10264E-07        -0.22213E-09         0.00000E+00
    0.10259E-07        -0.20151E-09         0.00000E+00
    0.10255E-07        -0.17982E-09         0.00000E+00
    0.10251E-07        -0.15709E-09         0.00000E+00
    0.10248E-07        -0.13333E-09         0.00000E+00
    0.10245E-07        -0.10856E-09         0.00000E+00
    0.10243E-07        -0.82815E-10         0.00000E+00
    0.10241E-07        -0.56110E-10         0.00000E+00
    0.10240E-07        -0.28472E-10         0.00000E+00
    0.10240E-07        -0.14423E-10         0.00000E+00
    0.10184E-07        -0.13615E-10         0.00000E+00
    0.10184E-07        -0.26896E-10         0.00000E+00
    0.10183E-07        -0.52952E-10         0.00000E+00
    0.10181E-07        -0.77985E-10         0.00000E+00
    0.10178E-07        -0.10198E-09         0.00000E+00
    0.10175E-07        -0.12491E-09         0.00000E+00
    0.10171E-07        -0.14677E-09         0.00000E+00
    0.10167E-07        -0.16754E-09         0.00000E+00
    0.10162E-07        -0.18722E-09         0.00000E+00
    0.10157E-07        -0.20578E-09         0.00000E+00
    0.10151E-07        -0.22322E-09         0.00000E+00
    0.10145E-07        -0.23953E-09         0.00000E+00
    0.10138E-07        -0.25470E-09         0.00000E+00
    0.10131E-07        -0.26872E-09         0.00000E+00
    0.10124E-07        -0.28159E-09         0.00000E+00
    0.10116E-07        -0.29331E-09         0.00000E+00
    0.10108E-07        -0.30386E-09         0.00000E+00
    0.10100E-07        -0.31325E-09         0.00000E+00
    0.10091E-07        -0.32147E-09         0.00000E+00
    0.10083E-07        -0.32852E-09         0.00000E+00
    0.10074E-07        -0.33441E-09         0.00000E+00
    0.10065E-07        -0.33912E-09         0.00000E+00
    0.10056E-07        -0.34268E-09         0.00000E+00
    0.10047E-07        -0.34507E-09         0.00000E+00
    0.10038E-07        -0.34630E-09         0.00000E+00
    0.10029E-07        -0.34637E-09         0.00000E+00
    0.10020E-07        -0.34529E-09         0.00000E+00
    0.10011E-07        -0.34307E-09         0.00000E+00
    0.10002E-07        -0.33971E-09         0.00000E+00
    0.99928E-08        -0.33522E-09         0.00000E+00
    0.99842E-08        -0.32960E-09         0.00000E+00
    0.99757E-08        -0.32287E-09         0.00000E+00
    0.99674E-08        -0.31503E-09         0.00000E+00
    0.99594E-08        -0.30610E-09         0.00000E+00
    0.99516E-08        -0.29608E-09         0.00000E+00
    0.99441E-08        -0.28499E-09         0.00000E+00
    0.99369E-08        -0.27284E-09         0.00000E+00
    0.99301E-08        -0.25964E-09         0.00000E+00
    0.99236E-08        -0.24541E-09         0.00000E+00
    0.99175E-08        -0.23016E-09         0.00000E+00
    0.99118E-08        -0.21390E-09         0.00000E+00
    0.99065E-08        -0.19666E-09         0.00000E+00
    0.99017E-08        -0.17844E-09         0.00000E+00
    0.98974E-08        -0.15927E-09         0.00000E+00
    0.98936E-08        -0.13916E-09         0.00000E+00
    0.98904E-08        -0.11814E-09         0.00000E+00
    0.98876E-08        -0.96212E-10         0.00000E+00
    0.98855E-08        -0.73408E-10         0.00000E+00
    0.98839E-08        -0.49745E-10         0.00000E+00
    0.98830E-08        -0.25247E-10         0.00000E+00
    0.98826E-08        -0.12791E-10         0.00000E+00
    0.98599E-08        -0.11783E-10         0.00000E+00
    0.98596E-08        -0.23283E-10         0.00000E+00
    0.98585E-08        -0.45851E-10         0.00000E+00
    0.98568E-08        -0.67548E-10         0.00000E+00
    0.98545E-08        -0.88357E-10         0.00000E+00
    0.98515E-08        -0.10826E-09         0.00000E+00
    0.98480E-08        -0.12725E-09         0.00000E+00
    0.98439E-08        -0.14531E-09         0.00000E+00
    0.98393E-08        -0.16242E-09         0.00000E+00
    0.98342E-08        -0.17858E-09         0.00000E+00
    0.98287E-08        -0.19377E-09         0.00000E+00
    0.98227E-08        -0.20799E-09         0.00000E+00
    0.98163E-08        -0.22122E-09         0.00000E+00
    0.98096E-08        -0.23347E-09         0.00000E+00
    0.98026E-08        -0.24472E-09         0.00000E+00
    0.97952E-08        -0.25497E-09         0.00000E+00
    0.97876E-08        -0.26421E-09         0.00000E+00
    0.97797E-08        -0.27245E-09         0.00000E+00
    0.97716E-08        -0.27967E-09         0.00000E+00
    0.97633E-08        -0.28588E-09         0.00000E+00
    0.97549E-08        -0.29107E-09         0.00000E+00
    0.97463E-08        -0.29525E-09         0.00000E+00
    0.97377E-08        -0.29842E-09         0.00000E+00
    0.97290E-08        -0.30057E-09         0.00000E+00
    0.97203E-08        -0.30171E-09         0.00000E+00
    0.97115E-08        -0.30185E-09         0.00000E+00
    0.97028E-08        -0.30098E-09         0.00000E+00
    0.96941E-08        -0.29910E-09         0.00000E+00
    0.96855E-08        -0.29624E-09         0.00000E+00
    0.96770E-08        -0.29238E-09         0.00000E+00
    0.96687E-08        -0.28754E-09         0.00000E+00
    0.96605E-08        -0.28173E-09         0.00000E+00
    0.96525E-08        -0.27495E-09         0.00000E+00
    0.96447E-08        -0.26720E-09         0.00000E+00
    0.96372E-08        -0.25851E-09         0.00000E+00
    0.96299E-08        -0.24887E-09         0.00000E+00
    0.96230E-08        -0.23831E-09         0.00000E+00
    0.96163E-08        -0.22682E-09         0.00000E+00
    0.96100E-08        -0.21443E-09         0.00000E+00
    0.96041E-08        -0.20114E-09         0.00000E+00
    0.95986E-08        -0.18696E-09         0.00000E+00
    0.95935E-08        -0.17192E-09         0.00000E+00
    0.95889E-08        -0.15602E-09         0.00000E+00
    0.95847E-08        -0.13928E-09         0.00000E+00
    0.95810E-08        -0.12172E-09         0.00000E+00
    0.95778E-08        -0.10334E-09         0.00000E+00
    0.95751E-08        -0.84177E-10         0.00000E+00
    0.95730E-08        -0.64235E-10         0.00000E+00
    0.95715E-08        -0.43536E-10         0.00000E+00
    0.95706E-08        -0.22098E-10         0.00000E+00
    0.95703E-08        -0.11197E-10         0.00000E+00
    0.95790E-08        -0.10051E-10         0.00000E+00
    0.95786E-08        -0.19864E-10         0.00000E+00
    0.95776E-08        -0.39128E-10         0.00000E+00
    0.95760E-08        -0.57661E-10         0.00000E+00
    0.95738E-08        -0.75445E-10         0.00000E+00
    0.95710E-08        -0.92468E-10         0.00000E+00
    0.95676E-08        -0.10871E-09         0.00000E+00
    0.95637E-08        -0.12417E-09         0.00000E+00
    0.95593E-08        -0.13884E-09         0.00000E+00
    0.95545E-08        -0.15269E-09         0.00000E+00
    0.95492E-08        -0.16572E-09         0.00000E+00
    0.95435E-08        -0.17792E-09         0.00000E+00
    0.95375E-08        -0.18929E-09         0.00000E+00
    0.95310E-08        -0.19982E-09         0.00000E+00
    0.95243E-08        -0.20950E-09         0.00000E+00
    0.95173E-08        -0.21832E-09         0.00000E+00
    0.95099E-08        -0.22629E-09         0.00000E+00
    0.95024E-08        -0.23340E-09         0.00000E+00
    0.94946E-08        -0.23963E-09         0.00000E+00
    0.94867E-08        -0.24501E-09         0.00000E+00
    0.94786E-08        -0.24951E-09         0.00000E+00
    0.94704E-08        -0.25315E-09         0.00000E+00
    0.94621E-08        -0.25591E-09         0.00000E+00
    0.94537E-08        -0.25781E-09         0.00000E+00
    0.94453E-08        -0.25883E-09         0.00000E+00
    0.94369E-08        -0.25900E-09         0.00000E+00
    0.94284E-08        -0.25830E-09         0.00000E+00
    0.94201E-08        -0.25674E-09         0.00000E+00
    0.94118E-08        -0.25432E-09         0.00000E+00
    0.94036E-08        -0.25105E-09         0.00000E+00
    0.93955E-08        -0.24694E-09         0.00000E+00
    0.93876E-08        -0.24198E-09         0.00000E+00
    0.93799E-08        -0.23620E-09         0.00000E+00
    0.93724E-08        -0.22958E-09         0.00000E+00
    0.93651E-08        -0.22214E-09         0.00000E+00
    0.93580E-08        -0.21389E-09         0.00000E+00
    0.93513E-08        -0.20484E-09         0.00000E+00
    0.93449E-08        -0.19500E-09         0.00000E+00
    0.93387E-08        -0.18437E-09         0.00000E+00
    0.93330E-08        -0.17296E-09         0.00000E+00
    0.93276E-08        -0.16080E-09         0.00000E+00
    0.93227E-08        -0.14788E-09         0.00000E+00
    0.93181E-08        -0.13422E-09         0.00000E+00
    0.93141E-08        -0.11983E-09         0.00000E+00
    0.93105E-08        -0.10473E-09         0.00000E+00
    0.93074E-08        -0.88932E-10         0.00000E+00
    0.93048E-08        -0.72446E-10         0.00000E+00
    0.93027E-08        -0.55289E-10         0.00000E+00
    0.93012E-08        -0.37476E-10         0.00000E+00
    0.93003E-08        -0.19024E-10         0.00000E+00
    0.93000E-08        -0.96406E-11         0.00000E+00
    0.93393E-08        -0.84068E-11         0.00000E+00
    0.93389E-08        -0.16618E-10         0.00000E+00
    0.93380E-08        -0.32741E-10         0.00000E+00
    0.93364E-08        -0.48260E-10         0.00000E+00
    0.93343E-08        -0.63160E-10         0.00000E+00
    0.93316E-08        -0.77429E-10         0.00000E+00
    0.93284E-08        -0.91055E-10         0.00000E+00
    0.93247E-08        -0.10403E-09         0.00000E+00
    0.93205E-08        -0.11634E-09         0.00000E+00
    0.93159E-08        -0.12797E-09         0.00000E+00
    0.93109E-08        -0.13892E-09         0.00000E+00
    0.93054E-08        -0.14918E-09         0.00000E+00
    0.92996E-08        -0.15875E-09         0.00000E+00
    0.92934E-08        -0.16761E-09         0.00000E+00
    0.92870E-08        -0.17576E-09         0.00000E+00
    0.92802E-08        -0.18320E-09         0.00000E+00
    0.92732E-08        -0.18992E-09         0.00000E+00
    0.92659E-08        -0.19591E-09         0.00000E+00
    0.92585E-08        -0.20119E-09         0.00000E+00
    0.92508E-08        -0.20573E-09         0.00000E+00
    0.92430E-08        -0.20954E-09         0.00000E+00
    0.92351E-08        -0.21263E-09         0.00000E+00
    0.92271E-08        -0.21498E-09         0.00000E+00
    0.92190E-08        -0.21661E-09         0.00000E+00
    0.92109E-08        -0.21750E-09         0.00000E+00
    0.92028E-08        -0.21767E-09         0.00000E+00
    0.91946E-08        -0.21711E-09         0.00000E+00
    0.91866E-08        -0.21582E-09         0.00000E+00
    0.91785E-08        -0.21382E-09         0.00000E+00
    0.91706E-08        -0.21109E-09         0.00000E+00
    0.91628E-08        -0.20766E-09         0.00000E+00
    0.91551E-08        -0.20351E-09         0.00000E+00
    0.91476E-08        -0.19866E-09         0.00000E+00
    0.91403E-08        -0.19312E-09         0.00000E+00
    0.91333E-08        -0.18688E-09         0.00000E+00
    0.91264E-08        -0.17996E-09         0.00000E+00
    0.91199E-08        -0.17236E-09         0.00000E+00
    0.91136E-08        -0.16409E-09         0.00000E+00
    0.91077E-08        -0.15515E-09         0.00000E+00
    0.91021E-08        -0.14557E-09         0.00000E+00
    0.90968E-08        -0.13534E-09         0.00000E+00
    0.90920E-08        -0.12447E-09         0.00000E+00
    0.90876E-08        -0.11298E-09         0.00000E+00
    0.90836E-08        -0.10088E-09         0.00000E+00
    0.90801E-08        -0.88170E-10         0.00000E+00
    0.90771E-08        -0.74872E-10         0.00000E+00
    0.90745E-08        -0.60995E-10         0.00000E+00
    0.90725E-08        -0.46552E-10         0.00000E+00
    0.90711E-08        -0.31556E-10         0.00000E+00
    0.90702E-08        -0.16019E-10         0.00000E+00
    0.90699E-08        -0.81179E-11         0.00000E+00
    0.91393E-08        -0.68392E-11         0.00000E+00
    0.91390E-08        -0.13521E-10         0.00000E+00
    0.91381E-08        -0.26645E-10         0.00000E+00
    0.91366E-08        -0.39281E-10         0.00000E+00
    0.91346E-08        -0.51420E-10         0.00000E+00
    0.91320E-08        -0.63049E-10         0.00000E+00
    0.91289E-08        -0.74158E-10         0.00000E+00
    0.91254E-08        -0.84738E-10         0.00000E+00
    0.91213E-08        -0.94780E-10         0.00000E+00
    0.91169E-08        -0.10428E-09         0.00000E+00
    0.91120E-08        -0.11322E-09         0.00000E+00
    0.91068E-08        -0.12160E-09         0.00000E+00
    0.91012E-08        -0.12942E-09         0.00000E+00
    0.90953E-08        -0.13666E-09         0.00000E+00
    0.90890E-08        -0.14332E-09         0.00000E+00
    0.90825E-08        -0.14941E-09         0.00000E+00
    0.90757E-08        -0.15491E-09         0.00000E+00
    0.90687E-08        -0.15981E-09         0.00000E+00
    0.90615E-08        -0.16413E-09         0.00000E+00
    0.90542E-08        -0.16786E-09         0.00000E+00
    0.90466E-08        -0.17099E-09         0.00000E+00
    0.90390E-08        -0.17352E-09         0.00000E+00
    0.90312E-08        -0.17545E-09         0.00000E+00
    0.90234E-08        -0.17679E-09         0.00000E+00
    0.90155E-08        -0.17753E-09         0.00000E+00
    0.90077E-08        -0.17768E-09         0.00000E+00
    0.89998E-08        -0.17723E-09         0.00000E+00
    0.89919E-08        -0.17620E-09         0.00000E+00
    0.89842E-08        -0.17457E-09         0.00000E+00
    0.89765E-08        -0.17235E-09         0.00000E+00
    0.89689E-08        -0.16955E-09         0.00000E+00
    0.89614E-08        -0.16617E-09         0.00000E+00
    0.89541E-08        -0.16222E-09         0.00000E+00
    0.89470E-08        -0.15769E-09         0.00000E+00
    0.89401E-08        -0.15260E-09         0.00000E+00
    0.89335E-08        -0.14695E-09         0.00000E+00
    0.89271E-08        -0.14074E-09         0.00000E+00
    0.89210E-08        -0.13399E-09         0.00000E+00
    0.89152E-08        -0.12669E-09         0.00000E+00
    0.89097E-08        -0.11886E-09         0.00000E+00
    0.89046E-08        -0.11051E-09         0.00000E+00
    0.88999E-08        -0.10163E-09         0.00000E+00
    0.88956E-08        -0.92250E-10         0.00000E+00
    0.88917E-08        -0.82365E-10         0.00000E+00
    0.88883E-08        -0.71987E-10         0.00000E+00
    0.88853E-08        -0.61128E-10         0.00000E+00
    0.88828E-08        -0.49796E-10         0.00000E+00
    0.88809E-08        -0.38003E-10         0.00000E+00
    0.88794E-08        -0.25759E-10         0.00000E+00
    0.88786E-08        -0.13076E-10         0.00000E+00
    0.88783E-08        -0.66259E-11         0.00000E+00
    0.89778E-08        -0.53361E-11         0.00000E+00
    0.89775E-08        -0.10551E-10         0.00000E+00
    0.89766E-08        -0.20794E-10         0.00000E+00
    0.89752E-08        -0.30661E-10         0.00000E+00
    0.89733E-08        -0.40142E-10         0.00000E+00
    0.89708E-08        -0.49227E-10         0.00000E+00
    0.89678E-08        -0.57908E-10         0.00000E+00
    0.89644E-08        -0.66178E-10         0.00000E+00
    0.89605E-08        -0.74028E-10         0.00000E+00
    0.89562E-08        -0.81454E-10         0.00000E+00
    0.89515E-08        -0.88447E-10         0.00000E+00
    0.89465E-08        -0.95003E-10         0.00000E+00
    0.89411E-08        -0.10112E-09         0.00000E+00
    0.89353E-08        -0.10678E-09         0.00000E+00
    0.89293E-08        -0.11200E-09         0.00000E+00
    0.89230E-08        -0.11676E-09         0.00000E+00
    0.89164E-08        -0.12106E-09         0.00000E+00
    0.89096E-08        -0.12490E-09         0.00000E+00
    0.89026E-08        -0.12827E-09         0.00000E+00
    0.88955E-08        -0.13118E-09         0.00000E+00
    0.88882E-08        -0.13363E-09         0.00000E+00
    0.88807E-08        -0.13561E-09         0.00000E+00
    0.88732E-08        -0.13712E-09         0.00000E+00
    0.88656E-08        -0.13816E-09         0.00000E+00
    0.88579E-08        -0.13874E-09         0.00000E+00
    0.88503E-08        -0.13885E-09         0.00000E+00
    0.88426E-08        -0.13849E-09         0.00000E+00
    0.88350E-08        -0.13767E-09         0.00000E+00
    0.88274E-08        -0.13639E-09         0.00000E+00
    0.88199E-08        -0.13465E-09         0.00000E+00
    0.88125E-08        -0.13246E-09         0.00000E+00
    0.88052E-08        -0.12980E-09         0.00000E+00
    0.87981E-08        -0.12670E-09         0.00000E+00
    0.87911E-08        -0.12316E-09         0.00000E+00
    0.87844E-08        -0.11917E-09         0.00000E+00
    0.87779E-08        -0.11474E-09         0.00000E+00
    0.87717E-08        -0.10988E-09         0.00000E+00
    0.87657E-08        -0.10460E-09         0.00000E+00
    0.87600E-08        -0.98886E-10         0.00000E+00
    0.87547E-08        -0.92762E-10         0.00000E+00
    0.87497E-08        -0.86228E-10         0.00000E+00
    0.87451E-08        -0.79291E-10         0.00000E+00
    0.87408E-08        -0.71957E-10         0.00000E+00
    0.87370E-08        -0.64235E-10         0.00000E+00
    0.87336E-08        -0.56132E-10         0.00000E+00
    0.87307E-08        -0.47655E-10         0.00000E+00
    0.87283E-08        -0.38813E-10         0.00000E+00
    0.87264E-08        -0.29615E-10         0.00000E+00
    0.87250E-08        -0.20069E-10         0.00000E+00
    0.87241E-08        -0.10186E-10         0.00000E+00
    0.87238E-08        -0.51604E-11         0.00000E+00
    0.88538E-08        -0.38861E-11         0.00000E+00
    0.88536E-08        -0.76844E-11         0.00000E+00
    0.88527E-08        -0.15146E-10         0.00000E+00
    0.88513E-08        -0.22335E-10         0.00000E+00
    0.88494E-08        -0.29243E-10         0.00000E+00
    0.88470E-08        -0.35864E-10         0.00000E+00
    0.88442E-08        -0.42191E-10         0.00000E+00
    0.88408E-08        -0.48218E-10         0.00000E+00
    0.88371E-08        -0.53939E-10         0.00000E+00
    0.88329E-08        -0.59349E-10         0.00000E+00
    0.88283E-08        -0.64443E-10         0.00000E+00
    0.88234E-08        -0.69218E-10         0.00000E+00
    0.88182E-08        -0.73668E-10         0.00000E+00
    0.88126E-08        -0.77791E-10         0.00000E+00
    0.88067E-08        -0.81584E-10         0.00000E+00
    0.88006E-08        -0.85043E-10         0.00000E+00
    0.87942E-08        -0.88167E-10         0.00000E+00
    0.87876E-08        -0.90953E-10         0.00000E+00
    0.87807E-08        -0.93400E-10         0.00000E+00
    0.87738E-08        -0.95506E-10         0.00000E+00
    0.87666E-08        -0.97271E-10         0.00000E+00
    0.87594E-08        -0.98694E-10         0.00000E+00
    0.87520E-08        -0.99776E-10         0.00000E+00
    0.87446E-08        -0.10051E-09         0.00000E+00
    0.87371E-08        -0.10091E-09         0.00000E+00
    0.87296E-08        -0.10097E-09         0.00000E+00
    0.87221E-08        -0.10069E-09         0.00000E+00
    0.87146E-08        -0.10007E-09         0.00000E+00
    0.87072E-08        -0.99109E-10         0.00000E+00
    0.86999E-08        -0.97817E-10         0.00000E+00
    0.86926E-08        -0.96193E-10         0.00000E+00
    0.86855E-08        -0.94240E-10         0.00000E+00
    0.86785E-08        -0.91959E-10         0.00000E+00
    0.86717E-08        -0.89356E-10         0.00000E+00
    0.86651E-08        -0.86432E-10         0.00000E+00
    0.86587E-08        -0.83192E-10         0.00000E+00
    0.86526E-08        -0.79640E-10         0.00000E+00
    0.86467E-08        -0.75779E-10         0.00000E+00
    0.86411E-08        -0.71615E-10         0.00000E+00
    0.86359E-08        -0.67153E-10         0.00000E+00
    0.86310E-08        -0.62396E-10         0.00000E+00
    0.86264E-08        -0.57352E-10         0.00000E+00
    0.86223E-08        -0.52024E-10         0.00000E+00
    0.86185E-08        -0.46420E-10         0.00000E+00
    0.86152E-08        -0.40545E-10         0.00000E+00
    0.86123E-08        -0.34405E-10         0.00000E+00
    0.86099E-08        -0.28008E-10         0.00000E+00
    0.86080E-08        -0.21360E-10         0.00000E+00
    0.86066E-08        -0.14467E-10         0.00000E+00
    0.86058E-08        -0.73388E-11         0.00000E+00
    0.86055E-08        -0.37164E-11         0.00000E+00
    0.87667E-08        -0.24778E-11         0.00000E+00
    0.87664E-08        -0.48997E-11         0.00000E+00
    0.87656E-08        -0.96576E-11         0.00000E+00
    0.87642E-08        -0.14241E-10         0.00000E+00
    0.87623E-08        -0.18645E-10         0.00000E+00
    0.87600E-08        -0.22864E-10         0.00000E+00
    0.87572E-08        -0.26894E-10         0.00000E+00
    0.87540E-08        -0.30731E-10         0.00000E+00
    0.87503E-08        -0.34371E-10         0.00000E+00
    0.87462E-08        -0.37810E-10         0.00000E+00
    0.87417E-08        -0.41045E-10         0.00000E+00
    0.87369E-08        -0.44073E-10         0.00000E+00
    0.87318E-08        -0.46892E-10         0.00000E+00
    0.87263E-08        -0.49499E-10         0.00000E+00
    0.87206E-08        -0.51893E-10         0.00000E+00
    0.87145E-08        -0.54072E-10         0.00000E+00
    0.87083E-08        -0.56033E-10         0.00000E+00
    0.87018E-08        -0.57777E-10         0.00000E+00
    0.86951E-08        -0.59302E-10         0.00000E+00
    0.86883E-08        -0.60608E-10         0.00000E+00
    0.86813E-08        -0.61694E-10         0.00000E+00
    0.86742E-08        -0.62561E-10         0.00000E+00
    0.86669E-08        -0.63208E-10         0.00000E+00
    0.86596E-08        -0.63636E-10         0.00000E+00
    0.86523E-08        -0.63846E-10         0.00000E+00
    0.86449E-08        -0.63838E-10         0.00000E+00
    0.86376E-08        -0.63613E-10         0.00000E+00
    0.86302E-08        -0.63174E-10         0.00000E+00
    0.86229E-08        -0.62522E-10         0.00000E+00
    0.86157E-08        -0.61657E-10         0.00000E+00
    0.86085E-08        -0.60584E-10         0.00000E+00
    0.86015E-08        -0.59303E-10         0.00000E+00
    0.85947E-08        -0.57817E-10         0.00000E+00
    0.85880E-08        -0.56128E-10         0.00000E+00
    0.85814E-08        -0.54241E-10         0.00000E+00
    0.85752E-08        -0.52157E-10         0.00000E+00
    0.85691E-08        -0.49880E-10         0.00000E+00
    0.85633E-08        -0.47414E-10         0.00000E+00
    0.85578E-08        -0.44761E-10         0.00000E+00
    0.85526E-08        -0.41926E-10         0.00000E+00
    0.85478E-08        -0.38913E-10         0.00000E+00
    0.85433E-08        -0.35726E-10         0.00000E+00
    0.85392E-08        -0.32369E-10         0.00000E+00
    0.85355E-08        -0.28848E-10         0.00000E+00
    0.85322E-08        -0.25165E-10         0.00000E+00
    0.85293E-08        -0.21327E-10         0.00000E+00
    0.85270E-08        -0.17339E-10         0.00000E+00
    0.85251E-08        -0.13206E-10         0.00000E+00
    0.85237E-08        -0.89327E-11         0.00000E+00
    0.85229E-08        -0.45254E-11         0.00000E+00
    0.85226E-08        -0.22889E-11         0.00000E+00
    0.87157E-08        -0.11003E-11         0.00000E+00
    0.87154E-08        -0.21754E-11         0.00000E+00
    0.87146E-08        -0.42865E-11         0.00000E+00
    0.87133E-08        -0.63180E-11         0.00000E+00
    0.87115E-08        -0.82668E-11         0.00000E+00
    0.87092E-08        -0.10130E-10         0.00000E+00
    0.87064E-08        -0.11906E-10         0.00000E+00
    0.87032E-08        -0.13592E-10         0.00000E+00
    0.86996E-08        -0.15186E-10         0.00000E+00
    0.86956E-08        -0.16686E-10         0.00000E+00
    0.86912E-08        -0.18090E-10         0.00000E+00
    0.86865E-08        -0.19398E-10         0.00000E+00
    0.86814E-08        -0.20608E-10         0.00000E+00
    0.86760E-08        -0.21719E-10         0.00000E+00
    0.86703E-08        -0.22730E-10         0.00000E+00
    0.86644E-08        -0.23641E-10         0.00000E+00
    0.86582E-08        -0.24451E-10         0.00000E+00
    0.86518E-08        -0.25161E-10         0.00000E+00
    0.86453E-08        -0.25770E-10         0.00000E+00
    0.86385E-08        -0.26278E-10         0.00000E+00
    0.86316E-08        -0.26686E-10         0.00000E+00
    0.86246E-08        -0.26994E-10         0.00000E+00
    0.86174E-08        -0.27204E-10         0.00000E+00
    0.86102E-08        -0.27314E-10         0.00000E+00
    0.86030E-08        -0.27328E-10         0.00000E+00
    0.85957E-08        -0.27245E-10         0.00000E+00
    0.85884E-08        -0.27068E-10         0.00000E+00
    0.85811E-08        -0.26797E-10         0.00000E+00
    0.85739E-08        -0.26435E-10         0.00000E+00
    0.85668E-08        -0.25982E-10         0.00000E+00
    0.85597E-08        -0.25441E-10         0.00000E+00
    0.85528E-08        -0.24814E-10         0.00000E+00
    0.85460E-08        -0.24102E-10         0.00000E+00
    0.85393E-08        -0.23309E-10         0.00000E+00
    0.85329E-08        -0.22436E-10         0.00000E+00
    0.85267E-08        -0.21486E-10         0.00000E+00
    0.85207E-08        -0.20461E-10         0.00000E+00
    0.85149E-08        -0.19365E-10         0.00000E+00
    0.85095E-08        -0.18199E-10         0.00000E+00
    0.85043E-08        -0.16968E-10         0.00000E+00
    0.84995E-08        -0.15673E-10         0.00000E+00
    0.84951E-08        -0.14319E-10         0.00000E+00
    0.84910E-08        -0.12907E-10         0.00000E+00
    0.84873E-08        -0.11443E-10         0.00000E+00
    0.84840E-08        -0.99282E-11         0.00000E+00
    0.84812E-08        -0.83674E-11         0.00000E+00
    0.84789E-08        -0.67638E-11         0.00000E+00
    0.84770E-08        -0.51212E-11         0.00000E+00
    0.84756E-08        -0.34434E-11         0.00000E+00
    0.84748E-08        -0.17343E-11         0.00000E+00
    0.84745E-08        -0.87251E-12         0.00000E+00
    0.87006E-08         0.25698E-12         0.00000E+00
    0.87004E-08         0.50946E-12         0.00000E+00
    0.86996E-08         0.10080E-11         0.00000E+00
    0.86983E-08         0.14939E-11         0.00000E+00
    0.86965E-08         0.19678E-11         0.00000E+00
    0.86942E-08         0.24303E-11         0.00000E+00
    0.86914E-08         0.28817E-11         0.00000E+00
    0.86883E-08         0.33223E-11         0.00000E+00
    0.86847E-08         0.37522E-11         0.00000E+00
    0.86807E-08         0.41714E-11         0.00000E+00
    0.86764E-08         0.45797E-11         0.00000E+00
    0.86717E-08         0.49770E-11         0.00000E+00
    0.86667E-08         0.53629E-11         0.00000E+00
    0.86613E-08         0.57371E-11         0.00000E+00
    0.86557E-08         0.60989E-11         0.00000E+00
    0.86498E-08         0.64477E-11         0.00000E+00
    0.86437E-08         0.67828E-11         0.00000E+00
    0.86374E-08         0.71034E-11         0.00000E+00
    0.86308E-08         0.74086E-11         0.00000E+00
    0.86241E-08         0.76972E-11         0.00000E+00
    0.86173E-08         0.79684E-11         0.00000E+00
    0.86103E-08         0.82208E-11         0.00000E+00
    0.86032E-08         0.84534E-11         0.00000E+00
    0.85960E-08         0.86646E-11         0.00000E+00
    0.85888E-08         0.88532E-11         0.00000E+00
    0.85816E-08         0.90178E-11         0.00000E+00
    0.85743E-08         0.91567E-11         0.00000E+00
    0.85671E-08         0.92684E-11         0.00000E+00
    0.85599E-08         0.93513E-11         0.00000E+00
    0.85528E-08         0.94036E-11         0.00000E+00
    0.85458E-08         0.94237E-11         0.00000E+00
    0.85389E-08         0.94097E-11         0.00000E+00
    0.85321E-08         0.93598E-11         0.00000E+00
    0.85255E-08         0.92720E-11         0.00000E+00
    0.85191E-08         0.91445E-11         0.00000E+00
    0.85129E-08         0.89753E-11         0.00000E+00
    0.85069E-08         0.87624E-11         0.00000E+00
    0.85012E-08         0.85037E-11         0.00000E+00
    0.84958E-08         0.81971E-11         0.00000E+00
    0.84907E-08         0.78405E-11         0.00000E+00
    0.84859E-08         0.74319E-11         0.00000E+00
    0.84814E-08         0.69690E-11         0.00000E+00
    0.84774E-08         0.64496E-11         0.00000E+00
    0.84737E-08         0.58716E-11         0.00000E+00
    0.84705E-08         0.52326E-11         0.00000E+00
    0.84676E-08         0.45306E-11         0.00000E+00
    0.84653E-08         0.37631E-11         0.00000E+00
    0.84634E-08         0.29280E-11         0.00000E+00
    0.84621E-08         0.20229E-11         0.00000E+00
    0.84612E-08         0.10455E-11         0.00000E+00
    0.84610E-08         0.53848E-12         0.00000E+00
    0.87213E-08         0.16046E-11         0.00000E+00
    0.87211E-08         0.31754E-11         0.00000E+00
    0.87203E-08         0.62659E-11         0.00000E+00
    0.87189E-08         0.92531E-11         0.00000E+00
    0.87172E-08         0.12135E-10         0.00000E+00
    0.87149E-08         0.14911E-10         0.00000E+00
    0.87122E-08         0.17577E-10         0.00000E+00
    0.87090E-08         0.20134E-10         0.00000E+00
    0.87054E-08         0.22578E-10         0.00000E+00
    0.87015E-08         0.24909E-10         0.00000E+00
    0.86971E-08         0.27123E-10         0.00000E+00
    0.86924E-08         0.29220E-10         0.00000E+00
    0.86874E-08         0.31197E-10         0.00000E+00
    0.86821E-08         0.33053E-10         0.00000E+00
    0.86765E-08         0.34786E-10         0.00000E+00
    0.86706E-08         0.36393E-10         0.00000E+00
    0.86645E-08         0.37873E-10         0.00000E+00
    0.86582E-08         0.39224E-10         0.00000E+00
    0.86516E-08         0.40445E-10         0.00000E+00
    0.86449E-08         0.41532E-10         0.00000E+00
    0.86381E-08         0.42485E-10         0.00000E+00
    0.86311E-08         0.43301E-10         0.00000E+00
    0.86240E-08         0.43979E-10         0.00000E+00
    0.86169E-08         0.44517E-10         0.00000E+00
    0.86097E-08         0.44912E-10         0.00000E+00
    0.86024E-08         0.45164E-10         0.00000E+00
    0.85952E-08         0.45270E-10         0.00000E+00
    0.85880E-08         0.45228E-10         0.00000E+00
    0.85808E-08         0.45038E-10         0.00000E+00
    0.85737E-08         0.44696E-10         0.00000E+00
    0.85667E-08         0.44201E-10         0.00000E+00
    0.85598E-08         0.43553E-10         0.00000E+00
    0.85530E-08         0.42748E-10         0.00000E+00
    0.85464E-08         0.41786E-10         0.00000E+00
    0.85400E-08         0.40664E-10         0.00000E+00
    0.85337E-08         0.39382E-10         0.00000E+00
    0.85278E-08         0.37938E-10         0.00000E+00
    0.85221E-08         0.36330E-10         0.00000E+00
    0.85166E-08         0.34558E-10         0.00000E+00
    0.85115E-08         0.32618E-10         0.00000E+00
    0.85067E-08         0.30512E-10         0.00000E+00
    0.85022E-08         0.28236E-10         0.00000E+00
    0.84982E-08         0.25791E-10         0.00000E+00
    0.84945E-08         0.23174E-10         0.00000E+00
    0.84912E-08         0.20385E-10         0.00000E+00
    0.84884E-08         0.17423E-10         0.00000E+00
    0.84861E-08         0.14287E-10         0.00000E+00
    0.84842E-08         0.10976E-10         0.00000E+00
    0.84828E-08         0.74891E-11         0.00000E+00
    0.84820E-08         0.38257E-11         0.00000E+00
    0.84817E-08         0.19498E-11         0.00000E+00
    0.87778E-08         0.29528E-11         0.00000E+00
    0.87775E-08         0.58429E-11         0.00000E+00
    0.87767E-08         0.11527E-10         0.00000E+00
    0.87754E-08         0.17018E-10         0.00000E+00
    0.87736E-08         0.22311E-10         0.00000E+00
    0.87713E-08         0.27403E-10         0.00000E+00
    0.87686E-08         0.32288E-10         0.00000E+00
    0.87654E-08         0.36965E-10         0.00000E+00
    0.87618E-08         0.41428E-10         0.00000E+00
    0.87578E-08         0.45673E-10         0.00000E+00
    0.87535E-08         0.49699E-10         0.00000E+00
    0.87488E-08         0.53500E-10         0.00000E+00
    0.87437E-08         0.57073E-10         0.00000E+00
    0.87384E-08         0.60415E-10         0.00000E+00
    0.87327E-08         0.63523E-10         0.00000E+00
    0.87268E-08         0.66394E-10         0.00000E+00
    0.87207E-08         0.69024E-10         0.00000E+00
    0.87143E-08         0.71411E-10         0.00000E+00
    0.87078E-08         0.73551E-10         0.00000E+00
    0.87010E-08         0.75442E-10         0.00000E+00
    0.86941E-08         0.77080E-10         0.00000E+00
    0.86871E-08         0.78465E-10         0.00000E+00
    0.86800E-08         0.79592E-10         0.00000E+00
    0.86728E-08         0.80460E-10         0.00000E+00
    0.86656E-08         0.81065E-10         0.00000E+00
    0.86583E-08         0.81407E-10         0.00000E+00
    0.86510E-08         0.81483E-10         0.00000E+00
    0.86437E-08         0.81291E-10         0.00000E+00
    0.86365E-08         0.80828E-10         0.00000E+00
    0.86294E-08         0.80094E-10         0.00000E+00
    0.86223E-08         0.79086E-10         0.00000E+00
    0.86153E-08         0.77803E-10         0.00000E+00
    0.86085E-08         0.76243E-10         0.00000E+00
    0.86019E-08         0.74406E-10         0.00000E+00
    0.85954E-08         0.72290E-10         0.00000E+00
    0.85892E-08         0.69893E-10         0.00000E+00
    0.85832E-08         0.67216E-10         0.00000E+00
    0.85774E-08         0.64256E-10         0.00000E+00
    0.85720E-08         0.61014E-10         0.00000E+00
    0.85668E-08         0.57488E-10         0.00000E+00
    0.85620E-08         0.53679E-10         0.00000E+00
    0.85575E-08         0.49585E-10         0.00000E+00
    0.85534E-08         0.45207E-10         0.00000E+00
    0.85497E-08         0.40545E-10         0.00000E+00
    0.85464E-08         0.35599E-10         0.00000E+00
    0.85436E-08         0.30369E-10         0.00000E+00
    0.85412E-08         0.24855E-10         0.00000E+00
    0.85393E-08         0.19058E-10         0.00000E+00
    0.85380E-08         0.12979E-10         0.00000E+00
    0.85371E-08         0.66180E-11         0.00000E+00
    0.85368E-08         0.33673E-11         0.00000E+00
    0.88702E-08         0.43122E-11         0.00000E+00
    0.88700E-08         0.85324E-11         0.00000E+00
    0.88692E-08         0.16832E-10         0.00000E+00
    0.88678E-08         0.24848E-10         0.00000E+00
    0.88660E-08         0.32572E-10         0.00000E+00
    0.88637E-08         0.39999E-10         0.00000E+00
    0.88609E-08         0.47123E-10         0.00000E+00
    0.88577E-08         0.53937E-10         0.00000E+00
    0.88541E-08         0.60436E-10         0.00000E+00
    0.88500E-08         0.66614E-10         0.00000E+00
    0.88456E-08         0.72466E-10         0.00000E+00
    0.88409E-08         0.77986E-10         0.00000E+00
    0.88358E-08         0.83169E-10         0.00000E+00
    0.88303E-08         0.88011E-10         0.00000E+00
    0.88246E-08         0.92507E-10         0.00000E+00
    0.88187E-08         0.96652E-10         0.00000E+00
    0.88124E-08         0.10044E-09         0.00000E+00
    0.88060E-08         0.10387E-09         0.00000E+00
    0.87994E-08         0.10694E-09         0.00000E+00
    0.87925E-08         0.10964E-09         0.00000E+00
    0.87856E-08         0.11197E-09         0.00000E+00
    0.87785E-08         0.11393E-09         0.00000E+00
    0.87713E-08         0.11551E-09         0.00000E+00
    0.87640E-08         0.11671E-09         0.00000E+00
    0.87567E-08         0.11753E-09         0.00000E+00
    0.87493E-08         0.11796E-09         0.00000E+00
    0.87419E-08         0.11801E-09         0.00000E+00
    0.87346E-08         0.11767E-09         0.00000E+00
    0.87273E-08         0.11693E-09         0.00000E+00
    0.87201E-08         0.11580E-09         0.00000E+00
    0.87129E-08         0.11427E-09         0.00000E+00
    0.87059E-08         0.11235E-09         0.00000E+00
    0.86990E-08         0.11003E-09         0.00000E+00
    0.86923E-08         0.10731E-09         0.00000E+00
    0.86857E-08         0.10419E-09         0.00000E+00
    0.86794E-08         0.10067E-09         0.00000E+00
    0.86733E-08         0.96748E-10         0.00000E+00
    0.86675E-08         0.92424E-10         0.00000E+00
    0.86620E-08         0.87700E-10         0.00000E+00
    0.86568E-08         0.82573E-10         0.00000E+00
    0.86519E-08         0.77047E-10         0.00000E+00
    0.86474E-08         0.71119E-10         0.00000E+00
    0.86432E-08         0.64792E-10         0.00000E+00
    0.86395E-08         0.58067E-10         0.00000E+00
    0.86362E-08         0.50945E-10         0.00000E+00
    0.86333E-08         0.43426E-10         0.00000E+00
    0.86309E-08         0.35514E-10         0.00000E+00
    0.86290E-08         0.27210E-10         0.00000E+00
    0.86276E-08         0.18516E-10         0.00000E+00
    0.86268E-08         0.94343E-11         0.00000E+00
    0.86265E-08         0.47971E-11         0.00000E+00
    0.89991E-08         0.56934E-11         0.00000E+00
    0.89988E-08         0.11265E-10         0.00000E+00
    0.89979E-08         0.22222E-10         0.00000E+00
    0.89966E-08         0.32802E-10         0.00000E+00
    0.89947E-08         0.42996E-10         0.00000E+00
    0.89924E-08         0.52795E-10         0.00000E+00
    0.89895E-08         0.62192E-10         0.00000E+00
    0.89863E-08         0.71177E-10         0.00000E+00
    0.89826E-08         0.79742E-10         0.00000E+00
    0.89785E-08         0.87882E-10         0.00000E+00
    0.89740E-08         0.95587E-10         0.00000E+00
    0.89691E-08         0.10285E-09         0.00000E+00
    0.89639E-08         0.10967E-09         0.00000E+00
    0.89584E-08         0.11603E-09         0.00000E+00
    0.89526E-08         0.12194E-09         0.00000E+00
    0.89465E-08         0.12737E-09         0.00000E+00
    0.89402E-08         0.13234E-09         0.00000E+00
    0.89336E-08         0.13683E-09         0.00000E+00
    0.89268E-08         0.14084E-09         0.00000E+00
    0.89199E-08         0.14436E-09         0.00000E+00
    0.89128E-08         0.14739E-09         0.00000E+00
    0.89056E-08         0.14993E-09         0.00000E+00
    0.88982E-08         0.15197E-09         0.00000E+00
    0.88908E-08         0.15350E-09         0.00000E+00
    0.88834E-08         0.15454E-09         0.00000E+00
    0.88759E-08         0.15506E-09         0.00000E+00
    0.88684E-08         0.15507E-09         0.00000E+00
    0.88609E-08         0.15457E-09         0.00000E+00
    0.88535E-08         0.15355E-09         0.00000E+00
    0.88461E-08         0.15202E-09         0.00000E+00
    0.88388E-08         0.14996E-09         0.00000E+00
    0.88317E-08         0.14739E-09         0.00000E+00
    0.88247E-08         0.14430E-09         0.00000E+00
    0.88179E-08         0.14068E-09         0.00000E+00
    0.88112E-08         0.13654E-09         0.00000E+00
    0.88048E-08         0.13187E-09         0.00000E+00
    0.87986E-08         0.12669E-09         0.00000E+00
    0.87927E-08         0.12098E-09         0.00000E+00
    0.87871E-08         0.11475E-09         0.00000E+00
    0.87818E-08         0.10800E-09         0.00000E+00
    0.87768E-08         0.10073E-09         0.00000E+00
    0.87722E-08         0.92944E-10         0.00000E+00
    0.87680E-08         0.84640E-10         0.00000E+00
    0.87642E-08         0.75822E-10         0.00000E+00
    0.87608E-08         0.66494E-10         0.00000E+00
    0.87579E-08         0.56656E-10         0.00000E+00
    0.87555E-08         0.46313E-10         0.00000E+00
    0.87536E-08         0.35468E-10         0.00000E+00
    0.87522E-08         0.24125E-10         0.00000E+00
    0.87513E-08         0.12287E-10         0.00000E+00
    0.87510E-08         0.62451E-11         0.00000E+00
    0.91648E-08         0.71072E-11         0.00000E+00
    0.91645E-08         0.14062E-10         0.00000E+00
    0.91636E-08         0.27738E-10         0.00000E+00
    0.91623E-08         0.40942E-10         0.00000E+00
    0.91603E-08         0.53663E-10         0.00000E+00
    0.91579E-08         0.65888E-10         0.00000E+00
    0.91550E-08         0.77608E-10         0.00000E+00
    0.91517E-08         0.88812E-10         0.00000E+00
    0.91479E-08         0.99490E-10         0.00000E+00
    0.91436E-08         0.10963E-09         0.00000E+00
    0.91390E-08         0.11923E-09         0.00000E+00
    0.91341E-08         0.12828E-09         0.00000E+00
    0.91287E-08         0.13676E-09         0.00000E+00
    0.91231E-08         0.14468E-09         0.00000E+00
    0.91171E-08         0.15201E-09         0.00000E+00
    0.91109E-08         0.15877E-09         0.00000E+00
    0.91044E-08         0.16493E-09         0.00000E+00
    0.90976E-08         0.17050E-09         0.00000E+00
    0.90907E-08         0.17546E-09         0.00000E+00
    0.90836E-08         0.17982E-09         0.00000E+00
    0.90763E-08         0.18356E-09         0.00000E+00
    0.90689E-08         0.18669E-09         0.00000E+00
    0.90614E-08         0.18919E-09         0.00000E+00
    0.90538E-08         0.19106E-09         0.00000E+00
    0.90462E-08         0.19231E-09         0.00000E+00
    0.90385E-08         0.19291E-09         0.00000E+00
    0.90309E-08         0.19289E-09         0.00000E+00
    0.90232E-08         0.19222E-09         0.00000E+00
    0.90156E-08         0.19091E-09         0.00000E+00
    0.90081E-08         0.18896E-09         0.00000E+00
    0.90006E-08         0.18636E-09         0.00000E+00
    0.89933E-08         0.18312E-09         0.00000E+00
    0.89862E-08         0.17923E-09         0.00000E+00
    0.89792E-08         0.17469E-09         0.00000E+00
    0.89724E-08         0.16951E-09         0.00000E+00
    0.89658E-08         0.16368E-09         0.00000E+00
    0.89595E-08         0.15720E-09         0.00000E+00
    0.89535E-08         0.15008E-09         0.00000E+00
    0.89477E-08         0.14231E-09         0.00000E+00
    0.89423E-08         0.13390E-09         0.00000E+00
    0.89373E-08         0.12485E-09         0.00000E+00
    0.89326E-08         0.11517E-09         0.00000E+00
    0.89283E-08         0.10485E-09         0.00000E+00
    0.89244E-08         0.93896E-10         0.00000E+00
    0.89210E-08         0.82319E-10         0.00000E+00
    0.89180E-08         0.70119E-10         0.00000E+00
    0.89155E-08         0.57301E-10         0.00000E+00
    0.89135E-08         0.43869E-10         0.00000E+00
    0.89121E-08         0.29830E-10         0.00000E+00
    0.89112E-08         0.15188E-10         0.00000E+00
    0.89109E-08         0.77177E-11         0.00000E+00
    0.93682E-08         0.85654E-11         0.00000E+00
    0.93679E-08         0.16946E-10         0.00000E+00
    0.93670E-08         0.33426E-10         0.00000E+00
    0.93656E-08         0.49334E-10         0.00000E+00
    0.93636E-08         0.64657E-10         0.00000E+00
    0.93611E-08         0.79380E-10         0.00000E+00
    0.93581E-08         0.93491E-10         0.00000E+00
    0.93546E-08         0.10698E-09         0.00000E+00
    0.93507E-08         0.11983E-09         0.00000E+00
    0.93463E-08         0.13203E-09         0.00000E+00
    0.93416E-08         0.14357E-09         0.00000E+00
    0.93364E-08         0.15445E-09         0.00000E+00
    0.93309E-08         0.16464E-09         0.00000E+00
    0.93251E-08         0.17415E-09         0.00000E+00
    0.93189E-08         0.18295E-09         0.00000E+00
    0.93125E-08         0.19106E-09         0.00000E+00
    0.93058E-08         0.19845E-09         0.00000E+00
    0.92988E-08         0.20511E-09         0.00000E+00
    0.92917E-08         0.21105E-09         0.00000E+00
    0.92844E-08         0.21626E-09         0.00000E+00
    0.92769E-08         0.22072E-09         0.00000E+00
    0.92692E-08         0.22444E-09         0.00000E+00
    0.92615E-08         0.22741E-09         0.00000E+00
    0.92537E-08         0.22962E-09         0.00000E+00
    0.92458E-08         0.23108E-09         0.00000E+00
    0.92380E-08         0.23177E-09         0.00000E+00
    0.92301E-08         0.23169E-09         0.00000E+00
    0.92222E-08         0.23085E-09         0.00000E+00
    0.92144E-08         0.22923E-09         0.00000E+00
    0.92066E-08         0.22684E-09         0.00000E+00
    0.91990E-08         0.22368E-09         0.00000E+00
    0.91915E-08         0.21974E-09         0.00000E+00
    0.91841E-08         0.21503E-09         0.00000E+00
    0.91769E-08         0.20954E-09         0.00000E+00
    0.91700E-08         0.20328E-09         0.00000E+00
    0.91632E-08         0.19625E-09         0.00000E+00
    0.91567E-08         0.18844E-09         0.00000E+00
    0.91505E-08         0.17986E-09         0.00000E+00
    0.91447E-08         0.17051E-09         0.00000E+00
    0.91391E-08         0.16040E-09         0.00000E+00
    0.91339E-08         0.14953E-09         0.00000E+00
    0.91291E-08         0.13790E-09         0.00000E+00
    0.91247E-08         0.12551E-09         0.00000E+00
    0.91207E-08         0.11237E-09         0.00000E+00
    0.91172E-08         0.98496E-10         0.00000E+00
    0.91142E-08         0.83878E-10         0.00000E+00
    0.91116E-08         0.68527E-10         0.00000E+00
    0.91096E-08         0.52451E-10         0.00000E+00
    0.91082E-08         0.35656E-10         0.00000E+00
    0.91073E-08         0.18151E-10         0.00000E+00
    0.91070E-08         0.92211E-11         0.00000E+00
    0.96102E-08         0.10080E-10         0.00000E+00
    0.96099E-08         0.19942E-10         0.00000E+00
    0.96089E-08         0.39331E-10         0.00000E+00
    0.96074E-08         0.58045E-10         0.00000E+00
    0.96054E-08         0.76066E-10         0.00000E+00
    0.96028E-08         0.93378E-10         0.00000E+00
    0.95997E-08         0.10997E-09         0.00000E+00
    0.95960E-08         0.12582E-09         0.00000E+00
    0.95920E-08         0.14091E-09         0.00000E+00
    0.95874E-08         0.15524E-09         0.00000E+00
    0.95825E-08         0.16879E-09         0.00000E+00
    0.95771E-08         0.18155E-09         0.00000E+00
    0.95714E-08         0.19351E-09         0.00000E+00
    0.95653E-08         0.20466E-09         0.00000E+00
    0.95590E-08         0.21498E-09         0.00000E+00
    0.95523E-08         0.22447E-09         0.00000E+00
    0.95453E-08         0.23311E-09         0.00000E+00
    0.95381E-08         0.24091E-09         0.00000E+00
    0.95307E-08         0.24785E-09         0.00000E+00
    0.95231E-08         0.25392E-09         0.00000E+00
    0.95153E-08         0.25912E-09         0.00000E+00
    0.95075E-08         0.26345E-09         0.00000E+00
    0.94994E-08         0.26689E-09         0.00000E+00
    0.94914E-08         0.26944E-09         0.00000E+00
    0.94832E-08         0.27110E-09         0.00000E+00
    0.94751E-08         0.27186E-09         0.00000E+00
    0.94669E-08         0.27172E-09         0.00000E+00
    0.94587E-08         0.27068E-09         0.00000E+00
    0.94507E-08         0.26874E-09         0.00000E+00
    0.94427E-08         0.26589E-09         0.00000E+00
    0.94348E-08         0.26214E-09         0.00000E+00
    0.94270E-08         0.25747E-09         0.00000E+00
    0.94194E-08         0.25190E-09         0.00000E+00
    0.94120E-08         0.24543E-09         0.00000E+00
    0.94048E-08         0.23805E-09         0.00000E+00
    0.93979E-08         0.22976E-09         0.00000E+00
    0.93912E-08         0.22057E-09         0.00000E+00
    0.93848E-08         0.21049E-09         0.00000E+00
    0.93787E-08         0.19951E-09         0.00000E+00
    0.93730E-08         0.18764E-09         0.00000E+00
    0.93677E-08         0.17488E-09         0.00000E+00
    0.93627E-08         0.16125E-09         0.00000E+00
    0.93582E-08         0.14673E-09         0.00000E+00
    0.93541E-08         0.13135E-09         0.00000E+00
    0.93505E-08         0.11510E-09         0.00000E+00
    0.93473E-08         0.97995E-10         0.00000E+00
    0.93447E-08         0.80044E-10         0.00000E+00
    0.93427E-08         0.61252E-10         0.00000E+00
    0.93412E-08         0.41630E-10         0.00000E+00
    0.93402E-08         0.21187E-10         0.00000E+00
    0.93399E-08         0.10762E-10         0.00000E+00
    0.98919E-08         0.11664E-10         0.00000E+00
    0.98916E-08         0.23074E-10         0.00000E+00
    0.98906E-08         0.45504E-10         0.00000E+00
    0.98890E-08         0.67148E-10         0.00000E+00
    0.98869E-08         0.87984E-10         0.00000E+00
    0.98841E-08         0.10800E-09         0.00000E+00
    0.98809E-08         0.12716E-09         0.00000E+00
    0.98771E-08         0.14547E-09         0.00000E+00
    0.98728E-08         0.16291E-09         0.00000E+00
    0.98681E-08         0.17945E-09         0.00000E+00
    0.98629E-08         0.19509E-09         0.00000E+00
    0.98573E-08         0.20980E-09         0.00000E+00
    0.98513E-08         0.22359E-09         0.00000E+00
    0.98450E-08         0.23643E-09         0.00000E+00
    0.98383E-08         0.24832E-09         0.00000E+00
    0.98313E-08         0.25924E-09         0.00000E+00
    0.98241E-08         0.26918E-09         0.00000E+00
    0.98166E-08         0.27814E-09         0.00000E+00
    0.98089E-08         0.28610E-09         0.00000E+00
    0.98009E-08         0.29306E-09         0.00000E+00
    0.97929E-08         0.29901E-09         0.00000E+00
    0.97846E-08         0.30395E-09         0.00000E+00
    0.97763E-08         0.30787E-09         0.00000E+00
    0.97679E-08         0.31075E-09         0.00000E+00
    0.97594E-08         0.31261E-09         0.00000E+00
    0.97509E-08         0.31344E-09         0.00000E+00
    0.97424E-08         0.31322E-09         0.00000E+00
    0.97340E-08         0.31197E-09         0.00000E+00
    0.97256E-08         0.30967E-09         0.00000E+00
    0.97173E-08         0.30633E-09         0.00000E+00
    0.97091E-08         0.30195E-09         0.00000E+00
    0.97010E-08         0.29652E-09         0.00000E+00
    0.96932E-08         0.29005E-09         0.00000E+00
    0.96855E-08         0.28254E-09         0.00000E+00
    0.96780E-08         0.27398E-09         0.00000E+00
    0.96708E-08         0.26440E-09         0.00000E+00
    0.96639E-08         0.25378E-09         0.00000E+00
    0.96573E-08         0.24212E-09         0.00000E+00
    0.96510E-08         0.22945E-09         0.00000E+00
    0.96451E-08         0.21575E-09         0.00000E+00
    0.96396E-08         0.20104E-09         0.00000E+00
    0.96345E-08         0.18533E-09         0.00000E+00
    0.96298E-08         0.16861E-09         0.00000E+00
    0.96256E-08         0.15090E-09         0.00000E+00
    0.96218E-08         0.13220E-09         0.00000E+00
    0.96186E-08         0.11254E-09         0.00000E+00
    0.96159E-08         0.91901E-10         0.00000E+00
    0.96138E-08         0.70311E-10         0.00000E+00
    0.96122E-08         0.47777E-10         0.00000E+00
    0.96113E-08         0.24310E-10         0.00000E+00
    0.96110E-08         0.12346E-10         0.00000E+00
    0.10215E-07         0.13331E-10         0.00000E+00
    0.10214E-07         0.26369E-10         0.00000E+00
    0.10213E-07         0.51998E-10         0.00000E+00
    0.10212E-07         0.76719E-10         0.00000E+00
    0.10209E-07         0.10051E-09         0.00000E+00
    0.10207E-07         0.12335E-09         0.00000E+00
    0.10203E-07         0.14523E-09         0.00000E+00
    0.10199E-07         0.16611E-09         0.00000E+00
    0.10195E-07         0.18599E-09         0.00000E+00
    0.10190E-07         0.20484E-09         0.00000E+00
    0.10184E-07         0.22265E-09         0.00000E+00
    0.10178E-07         0.23941E-09         0.00000E+00
    0.10172E-07         0.25510E-09         0.00000E+00
    0.10165E-07         0.26970E-09         0.00000E+00
    0.10158E-07         0.28321E-09         0.00000E+00
    0.10151E-07         0.29561E-09         0.00000E+00
    0.10143E-07         0.30690E-09         0.00000E+00
    0.10136E-07         0.31705E-09         0.00000E+00
    0.10127E-07         0.32607E-09         0.00000E+00
    0.10119E-07         0.33394E-09         0.00000E+00
    0.10111E-07         0.34066E-09         0.00000E+00
    0.10102E-07         0.34622E-09         0.00000E+00
    0.10093E-07         0.35062E-09         0.00000E+00
    0.10085E-07         0.35384E-09         0.00000E+00
    0.10076E-07         0.35589E-09         0.00000E+00
    0.10067E-07         0.35676E-09         0.00000E+00
    0.10058E-07         0.35644E-09         0.00000E+00
    0.10049E-07         0.35494E-09         0.00000E+00
    0.10040E-07         0.35226E-09         0.00000E+00
    0.10032E-07         0.34839E-09         0.00000E+00
    0.10023E-07         0.34334E-09         0.00000E+00
    0.10015E-07         0.33710E-09         0.00000E+00
    0.10007E-07         0.32968E-09         0.00000E+00
    0.99987E-08         0.32107E-09         0.00000E+00
    0.99909E-08         0.31129E-09         0.00000E+00
    0.99835E-08         0.30034E-09         0.00000E+00
    0.99763E-08         0.28821E-09         0.00000E+00
    0.99694E-08         0.27492E-09         0.00000E+00
    0.99629E-08         0.26048E-09         0.00000E+00
    0.99567E-08         0.24488E-09         0.00000E+00
    0.99510E-08         0.22813E-09         0.00000E+00
    0.99457E-08         0.21025E-09         0.00000E+00
    0.99408E-08         0.19125E-09         0.00000E+00
    0.99365E-08         0.17112E-09         0.00000E+00
    0.99326E-08         0.14989E-09         0.00000E+00
    0.99293E-08         0.12756E-09         0.00000E+00
    0.99265E-08         0.10415E-09         0.00000E+00
    0.99243E-08         0.79664E-10         0.00000E+00
    0.99227E-08         0.54121E-10         0.00000E+00
    0.99217E-08         0.27533E-10         0.00000E+00
    0.99214E-08         0.13980E-10         0.00000E+00
    0.10580E-07         0.15097E-10         0.00000E+00
    0.10580E-07         0.29858E-10         0.00000E+00
    0.10579E-07         0.58868E-10         0.00000E+00
    0.10577E-07         0.86841E-10         0.00000E+00
    0.10575E-07         0.11375E-09         0.00000E+00
    0.10572E-07         0.13958E-09         0.00000E+00
    0.10568E-07         0.16430E-09         0.00000E+00
    0.10564E-07         0.18789E-09         0.00000E+00
    0.10559E-07         0.21033E-09         0.00000E+00
    0.10554E-07         0.23161E-09         0.00000E+00
    0.10548E-07         0.25170E-09         0.00000E+00
    0.10542E-07         0.27060E-09         0.00000E+00
    0.10535E-07         0.28827E-09         0.00000E+00
    0.10528E-07         0.30472E-09         0.00000E+00
    0.10521E-07         0.31991E-09         0.00000E+00
    0.10513E-07         0.33386E-09         0.00000E+00
    0.10505E-07         0.34653E-09         0.00000E+00
    0.10497E-07         0.35793E-09         0.00000E+00
    0.10488E-07         0.36803E-09         0.00000E+00
    0.10479E-07         0.37684E-09         0.00000E+00
    0.10471E-07         0.38434E-09         0.00000E+00
    0.10462E-07         0.39054E-09         0.00000E+00
    0.10452E-07         0.39541E-09         0.00000E+00
    0.10443E-07         0.39896E-09         0.00000E+00
    0.10434E-07         0.40118E-09         0.00000E+00
    0.10425E-07         0.40208E-09         0.00000E+00
    0.10415E-07         0.40164E-09         0.00000E+00
    0.10406E-07         0.39987E-09         0.00000E+00
    0.10397E-07         0.39676E-09         0.00000E+00
    0.10388E-07         0.39232E-09         0.00000E+00
    0.10379E-07         0.38654E-09         0.00000E+00
    0.10370E-07         0.37944E-09         0.00000E+00
    0.10362E-07         0.37100E-09         0.00000E+00
    0.10353E-07         0.36124E-09         0.00000E+00
    0.10345E-07         0.35016E-09         0.00000E+00
    0.10337E-07         0.33776E-09         0.00000E+00
    0.10330E-07         0.32406E-09         0.00000E+00
    0.10323E-07         0.30905E-09         0.00000E+00
    0.10316E-07         0.29274E-09         0.00000E+00
    0.10309E-07         0.27515E-09         0.00000E+00
    0.10303E-07         0.25628E-09         0.00000E+00
    0.10298E-07         0.23614E-09         0.00000E+00
    0.10293E-07         0.21475E-09         0.00000E+00
    0.10288E-07         0.19211E-09         0.00000E+00
    0.10284E-07         0.16823E-09         0.00000E+00
    0.10281E-07         0.14314E-09         0.00000E+00
    0.10278E-07         0.11684E-09         0.00000E+00
    0.10276E-07         0.89352E-10         0.00000E+00
    0.10274E-07         0.60688E-10         0.00000E+00
    0.10273E-07         0.30867E-10         0.00000E+00
    0.10273E-07         0.15670E-10         0.00000E+00
    0.10990E-07         0.16976E-10         0.00000E+00
    0.10990E-07         0.33570E-10         0.00000E+00
    0.10989E-07         0.66175E-10         0.00000E+00
    0.10987E-07         0.97600E-10         0.00000E+00
    0.10984E-07         0.12782E-09         0.00000E+00
    0.10981E-07         0.15681E-09         0.00000E+00
    0.10977E-07         0.18454E-09         0.00000E+00
    0.10973E-07         0.21099E-09         0.00000E+00
    0.10968E-07         0.23614E-09         0.00000E+00
    0.10962E-07         0.25997E-09         0.00000E+00
    0.10956E-07         0.28246E-09         0.00000E+00
    0.10949E-07         0.30359E-09         0.00000E+00
    0.10942E-07         0.32335E-09         0.00000E+00
    0.10935E-07         0.34172E-09         0.00000E+00
    0.10927E-07         0.35868E-09         0.00000E+00
    0.10919E-07         0.37423E-09         0.00000E+00
    0.10910E-07         0.38835E-09         0.00000E+00
    0.10902E-07         0.40103E-09         0.00000E+00
    0.10893E-07         0.41226E-09         0.00000E+00
    0.10884E-07         0.42203E-09         0.00000E+00
    0.10874E-07         0.43033E-09         0.00000E+00
    0.10865E-07         0.43716E-09         0.00000E+00
    0.10855E-07         0.44251E-09         0.00000E+00
    0.10845E-07         0.44638E-09         0.00000E+00
    0.10836E-07         0.44877E-09         0.00000E+00
    0.10826E-07         0.44966E-09         0.00000E+00
    0.10816E-07         0.44907E-09         0.00000E+00
    0.10806E-07         0.44698E-09         0.00000E+00
    0.10797E-07         0.44341E-09         0.00000E+00
    0.10787E-07         0.43834E-09         0.00000E+00
    0.10778E-07         0.43179E-09         0.00000E+00
    0.10769E-07         0.42375E-09         0.00000E+00
    0.10760E-07         0.41423E-09         0.00000E+00
    0.10751E-07         0.40324E-09         0.00000E+00
    0.10742E-07         0.39078E-09         0.00000E+00
    0.10734E-07         0.37685E-09         0.00000E+00
    0.10726E-07         0.36148E-09         0.00000E+00
    0.10719E-07         0.34465E-09         0.00000E+00
    0.10712E-07         0.32639E-09         0.00000E+00
    0.10705E-07         0.30670E-09         0.00000E+00
    0.10699E-07         0.28560E-09         0.00000E+00
    0.10693E-07         0.26310E-09         0.00000E+00
    0.10688E-07         0.23920E-09         0.00000E+00
    0.10683E-07         0.21393E-09         0.00000E+00
    0.10679E-07         0.18730E-09         0.00000E+00
    0.10675E-07         0.15933E-09         0.00000E+00
    0.10672E-07         0.13002E-09         0.00000E+00
    0.10670E-07         0.99408E-10         0.00000E+00
    0.10668E-07         0.67503E-10         0.00000E+00
    0.10667E-07         0.34326E-10         0.00000E+00
    0.10667E-07         0.17422E-10         0.00000E+00
    0.11447E-07         0.18985E-10         0.00000E+00
    0.11447E-07         0.37537E-10         0.00000E+00
    0.11446E-07         0.73980E-10         0.00000E+00
    0.11444E-07         0.10909E-09         0.00000E+00
    0.11441E-07         0.14283E-09         0.00000E+00
    0.11437E-07         0.17517E-09         0.00000E+00
    0.11433E-07         0.20610E-09         0.00000E+00
    0.11428E-07         0.23558E-09         0.00000E+00
    0.11423E-07         0.26360E-09         0.00000E+00
    0.11417E-07         0.29013E-09         0.00000E+00
    0.11411E-07         0.31514E-09         0.00000E+00
    0.11404E-07         0.33864E-09         0.00000E+00
    0.11396E-07         0.36058E-09         0.00000E+00
    0.11388E-07         0.38097E-09         0.00000E+00
    0.11380E-07         0.39978E-09         0.00000E+00
    0.11371E-07         0.41700E-09         0.00000E+00
    0.11362E-07         0.43262E-09         0.00000E+00
    0.11353E-07         0.44663E-09         0.00000E+00
    0.11343E-07         0.45902E-09         0.00000E+00
    0.11334E-07         0.46978E-09         0.00000E+00
    0.11324E-07         0.47890E-09         0.00000E+00
    0.11314E-07         0.48637E-09         0.00000E+00
    0.11304E-07         0.49220E-09         0.00000E+00
    0.11293E-07         0.49638E-09         0.00000E+00
    0.11283E-07         0.49890E-09         0.00000E+00
    0.11273E-07         0.49977E-09         0.00000E+00
    0.11262E-07         0.49898E-09         0.00000E+00
    0.11252E-07         0.49654E-09         0.00000E+00
    0.11242E-07         0.49244E-09         0.00000E+00
    0.11232E-07         0.48669E-09         0.00000E+00
    0.11222E-07         0.47929E-09         0.00000E+00
    0.11212E-07         0.47025E-09         0.00000E+00
    0.11203E-07         0.45957E-09         0.00000E+00
    0.11194E-07         0.44726E-09         0.00000E+00
    0.11185E-07         0.43333E-09         0.00000E+00
    0.11176E-07         0.41778E-09         0.00000E+00
    0.11168E-07         0.40063E-09         0.00000E+00
    0.11160E-07         0.38189E-09         0.00000E+00
    0.11153E-07         0.36156E-09         0.00000E+00
    0.11146E-07         0.33966E-09         0.00000E+00
    0.11140E-07         0.31621E-09         0.00000E+00
    0.11134E-07         0.29122E-09         0.00000E+00
    0.11128E-07         0.26471E-09         0.00000E+00
    0.11123E-07         0.23668E-09         0.00000E+00
    0.11119E-07         0.20717E-09         0.00000E+00
    0.11115E-07         0.17618E-09         0.00000E+00
    0.11112E-07         0.14374E-09         0.00000E+00
    0.11109E-07         0.10987E-09         0.00000E+00
    0.11108E-07         0.74586E-10         0.00000E+00
    0.11106E-07         0.37919E-10         0.00000E+00
    0.11106E-07         0.19241E-10         0.00000E+00
    0.11953E-07         0.21141E-10         0.00000E+00
    0.11953E-07         0.41793E-10         0.00000E+00
    0.11952E-07         0.82347E-10         0.00000E+00
    0.11949E-07         0.12139E-09         0.00000E+00
    0.11946E-07         0.15889E-09         0.00000E+00
    0.11943E-07         0.19482E-09         0.00000E+00
    0.11938E-07         0.22915E-09         0.00000E+00
    0.11933E-07         0.26185E-09         0.00000E+00
    0.11927E-07         0.29291E-09         0.00000E+00
    0.11921E-07         0.32229E-09         0.00000E+00
    0.11914E-07         0.34998E-09         0.00000E+00
    0.11907E-07         0.37596E-09         0.00000E+00
    0.11899E-07         0.40021E-09         0.00000E+00
    0.11890E-07         0.42272E-09         0.00000E+00
    0.11881E-07         0.44346E-09         0.00000E+00
    0.11872E-07         0.46243E-09         0.00000E+00
    0.11863E-07         0.47962E-09         0.00000E+00
    0.11853E-07         0.49500E-09         0.00000E+00
    0.11843E-07         0.50859E-09         0.00000E+00
    0.11832E-07         0.52036E-09         0.00000E+00
    0.11822E-07         0.53031E-09         0.00000E+00
    0.11811E-07         0.53844E-09         0.00000E+00
    0.11800E-07         0.54474E-09         0.00000E+00
    0.11790E-07         0.54921E-09         0.00000E+00
    0.11779E-07         0.55184E-09         0.00000E+00
    0.11768E-07         0.55265E-09         0.00000E+00
    0.11757E-07         0.55162E-09         0.00000E+00
    0.11746E-07         0.54876E-09         0.00000E+00
    0.11736E-07         0.54408E-09         0.00000E+00
    0.11725E-07         0.53758E-09         0.00000E+00
    0.11715E-07         0.52926E-09         0.00000E+00
    0.11704E-07         0.51913E-09         0.00000E+00
    0.11695E-07         0.50720E-09         0.00000E+00
    0.11685E-07         0.49348E-09         0.00000E+00
    0.11676E-07         0.47797E-09         0.00000E+00
    0.11667E-07         0.46070E-09         0.00000E+00
    0.11658E-07         0.44166E-09         0.00000E+00
    0.11650E-07         0.42088E-09         0.00000E+00
    0.11642E-07         0.39837E-09         0.00000E+00
    0.11635E-07         0.37415E-09         0.00000E+00
    0.11628E-07         0.34822E-09         0.00000E+00
    0.11622E-07         0.32061E-09         0.00000E+00
    0.11616E-07         0.29134E-09         0.00000E+00
    0.11611E-07         0.26042E-09         0.00000E+00
    0.11606E-07         0.22789E-09         0.00000E+00
    0.11602E-07         0.19375E-09         0.00000E+00
    0.11599E-07         0.15803E-09         0.00000E+00
    0.11596E-07         0.12076E-09         0.00000E+00
    0.11595E-07         0.81957E-10         0.00000E+00
    0.11593E-07         0.41656E-10         0.00000E+00
    0.11593E-07         0.21133E-10         0.00000E+00
    0.12512E-07         0.23462E-10         0.00000E+00
    0.12511E-07         0.46370E-10         0.00000E+00
    0.12510E-07         0.91341E-10         0.00000E+00
    0.12508E-07         0.13461E-09         0.00000E+00
    0.12504E-07         0.17613E-09         0.00000E+00
    0.12500E-07         0.21589E-09         0.00000E+00
    0.12496E-07         0.25385E-09         0.00000E+00
    0.12490E-07         0.28998E-09         0.00000E+00
    0.12484E-07         0.32427E-09         0.00000E+00
    0.12477E-07         0.35668E-09         0.00000E+00
    0.12470E-07         0.38720E-09         0.00000E+00
    0.12462E-07         0.41580E-09         0.00000E+00
    0.12453E-07         0.44248E-09         0.00000E+00
    0.12444E-07         0.46721E-09         0.00000E+00
    0.12435E-07         0.48998E-09         0.00000E+00
    0.12425E-07         0.51077E-09         0.00000E+00
    0.12415E-07         0.52958E-09         0.00000E+00
    0.12404E-07         0.54640E-09         0.00000E+00
    0.12394E-07         0.56122E-09         0.00000E+00
    0.12383E-07         0.57402E-09         0.00000E+00
    0.12372E-07         0.58482E-09         0.00000E+00
    0.12360E-07         0.59360E-09         0.00000E+00
    0.12349E-07         0.60035E-09         0.00000E+00
    0.12337E-07         0.60509E-09         0.00000E+00
    0.12326E-07         0.60781E-09         0.00000E+00
    0.12314E-07         0.60850E-09         0.00000E+00
    0.12303E-07         0.60719E-09         0.00000E+00
    0.12292E-07         0.60386E-09         0.00000E+00
    0.12280E-07         0.59852E-09         0.00000E+00
    0.12269E-07         0.59119E-09         0.00000E+00
    0.12258E-07         0.58187E-09         0.00000E+00
    0.12248E-07         0.57056E-09         0.00000E+00
    0.12237E-07         0.55728E-09         0.00000E+00
    0.12227E-07         0.54204E-09         0.00000E+00
    0.12217E-07         0.52486E-09         0.00000E+00
    0.12208E-07         0.50574E-09         0.00000E+00
    0.12199E-07         0.48470E-09         0.00000E+00
    0.12190E-07         0.46176E-09         0.00000E+00
    0.12182E-07         0.43694E-09         0.00000E+00
    0.12174E-07         0.41024E-09         0.00000E+00
    0.12167E-07         0.38170E-09         0.00000E+00
    0.12161E-07         0.35134E-09         0.00000E+00
    0.12155E-07         0.31917E-09         0.00000E+00
    0.12149E-07         0.28522E-09         0.00000E+00
    0.12145E-07         0.24951E-09         0.00000E+00
    0.12140E-07         0.21207E-09         0.00000E+00
    0.12137E-07         0.17292E-09         0.00000E+00
    0.12134E-07         0.13210E-09         0.00000E+00
    0.12132E-07         0.89631E-10         0.00000E+00
    0.12131E-07         0.45544E-10         0.00000E+00
    0.12131E-07         0.23099E-10         0.00000E+00
    0.13126E-07         0.25965E-10         0.00000E+00
    0.13125E-07         0.51302E-10         0.00000E+00
    0.13124E-07         0.10102E-09         0.00000E+00
    0.13121E-07         0.14882E-09         0.00000E+00
    0.13118E-07         0.19466E-09         0.00000E+00
    0.13114E-07         0.23851E-09         0.00000E+00
    0.13109E-07         0.28034E-09         0.00000E+00
    0.13103E-07         0.32013E-09         0.00000E+00
    0.13096E-07         0.35785E-09         0.00000E+00
    0.13089E-07         0.39347E-09         0.00000E+00
    0.13081E-07         0.42698E-09         0.00000E+00
    0.13072E-07         0.45836E-09         0.00000E+00
    0.13063E-07         0.48759E-09         0.00000E+00
    0.13054E-07         0.51466E-09         0.00000E+00
    0.13044E-07         0.53955E-09         0.00000E+00
    0.13033E-07         0.56225E-09         0.00000E+00
    0.13022E-07         0.58275E-09         0.00000E+00
    0.13011E-07         0.60104E-09         0.00000E+00
    0.13000E-07         0.61712E-09         0.00000E+00
    0.12988E-07         0.63099E-09         0.00000E+00
    0.12976E-07         0.64263E-09         0.00000E+00
    0.12964E-07         0.65205E-09         0.00000E+00
    0.12952E-07         0.65925E-09         0.00000E+00
    0.12940E-07         0.66423E-09         0.00000E+00
    0.12928E-07         0.66699E-09         0.00000E+00
    0.12916E-07         0.66753E-09         0.00000E+00
    0.12904E-07         0.66586E-09         0.00000E+00
    0.12892E-07         0.66199E-09         0.00000E+00
    0.12880E-07         0.65593E-09         0.00000E+00
    0.12868E-07         0.64768E-09         0.00000E+00
    0.12857E-07         0.63726E-09         0.00000E+00
    0.12845E-07         0.62468E-09         0.00000E+00
    0.12834E-07         0.60994E-09         0.00000E+00
    0.12824E-07         0.59307E-09         0.00000E+00
    0.12813E-07         0.57409E-09         0.00000E+00
    0.12804E-07         0.55300E-09         0.00000E+00
    0.12794E-07         0.52983E-09         0.00000E+00
    0.12785E-07         0.50459E-09         0.00000E+00
    0.12777E-07         0.47732E-09         0.00000E+00
    0.12769E-07         0.44802E-09         0.00000E+00
    0.12761E-07         0.41672E-09         0.00000E+00
    0.12754E-07         0.38345E-09         0.00000E+00
    0.12748E-07         0.34823E-09         0.00000E+00
    0.12742E-07         0.31109E-09         0.00000E+00
    0.12737E-07         0.27206E-09         0.00000E+00
    0.12733E-07         0.23117E-09         0.00000E+00
    0.12730E-07         0.18844E-09         0.00000E+00
    0.12727E-07         0.14391E-09         0.00000E+00
    0.12725E-07         0.97615E-10         0.00000E+00
    0.12724E-07         0.49586E-10         0.00000E+00
    0.12723E-07         0.25144E-10         0.00000E+00
    0.13800E-07         0.28664E-10         0.00000E+00
    0.13799E-07         0.56619E-10         0.00000E+00
    0.13797E-07         0.11145E-09         0.00000E+00
    0.13795E-07         0.16412E-09         0.00000E+00
    0.13791E-07         0.21458E-09         0.00000E+00
    0.13786E-07         0.26281E-09         0.00000E+00
    0.13781E-07         0.30878E-09         0.00000E+00
    0.13775E-07         0.35245E-09         0.00000E+00
    0.13768E-07         0.39382E-09         0.00000E+00
    0.13760E-07         0.43285E-09         0.00000E+00
    0.13751E-07         0.46952E-09         0.00000E+00
    0.13742E-07         0.50382E-09         0.00000E+00
    0.13733E-07         0.53574E-09         0.00000E+00
    0.13722E-07         0.56525E-09         0.00000E+00
    0.13712E-07         0.59235E-09         0.00000E+00
    0.13701E-07         0.61703E-09         0.00000E+00
    0.13689E-07         0.63929E-09         0.00000E+00
    0.13677E-07         0.65910E-09         0.00000E+00
    0.13665E-07         0.67648E-09         0.00000E+00
    0.13653E-07         0.69142E-09         0.00000E+00
    0.13640E-07         0.70391E-09         0.00000E+00
    0.13628E-07         0.71396E-09         0.00000E+00
    0.13615E-07         0.72158E-09         0.00000E+00
    0.13602E-07         0.72676E-09         0.00000E+00
    0.13589E-07         0.72951E-09         0.00000E+00
    0.13576E-07         0.72984E-09         0.00000E+00
    0.13563E-07         0.72776E-09         0.00000E+00
    0.13551E-07         0.72328E-09         0.00000E+00
    0.13538E-07         0.71640E-09         0.00000E+00
    0.13526E-07         0.70714E-09         0.00000E+00
    0.13514E-07         0.69552E-09         0.00000E+00
    0.13502E-07         0.68155E-09         0.00000E+00
    0.13491E-07         0.66524E-09         0.00000E+00
    0.13480E-07         0.64663E-09         0.00000E+00
    0.13469E-07         0.62571E-09         0.00000E+00
    0.13458E-07         0.60253E-09         0.00000E+00
    0.13448E-07         0.57709E-09         0.00000E+00
    0.13439E-07         0.54942E-09         0.00000E+00
    0.13430E-07         0.51954E-09         0.00000E+00
    0.13422E-07         0.48749E-09         0.00000E+00
    0.13414E-07         0.45329E-09         0.00000E+00
    0.13407E-07         0.41696E-09         0.00000E+00
    0.13400E-07         0.37854E-09         0.00000E+00
    0.13395E-07         0.33806E-09         0.00000E+00
    0.13389E-07         0.29555E-09         0.00000E+00
    0.13385E-07         0.25105E-09         0.00000E+00
    0.13381E-07         0.20458E-09         0.00000E+00
    0.13378E-07         0.15619E-09         0.00000E+00
    0.13376E-07         0.10591E-09         0.00000E+00
    0.13375E-07         0.53784E-10         0.00000E+00
    0.13375E-07         0.27265E-10         0.00000E+00
    0.14538E-07         0.31573E-10         0.00000E+00
    0.14537E-07         0.62346E-10         0.00000E+00
    0.14535E-07         0.12268E-09         0.00000E+00
    0.14532E-07         0.18057E-09         0.00000E+00
    0.14528E-07         0.23598E-09         0.00000E+00
    0.14524E-07         0.28888E-09         0.00000E+00
    0.14518E-07         0.33925E-09         0.00000E+00
    0.14511E-07         0.38706E-09         0.00000E+00
    0.14503E-07         0.43229E-09         0.00000E+00
    0.14495E-07         0.47492E-09         0.00000E+00
    0.14486E-07         0.51493E-09         0.00000E+00
    0.14476E-07         0.55231E-09         0.00000E+00
    0.14466E-07         0.58704E-09         0.00000E+00
    0.14455E-07         0.61911E-09         0.00000E+00
    0.14444E-07         0.64851E-09         0.00000E+00
    0.14432E-07         0.67525E-09         0.00000E+00
    0.14420E-07         0.69930E-09         0.00000E+00
    0.14407E-07         0.72068E-09         0.00000E+00
    0.14394E-07         0.73938E-09         0.00000E+00
    0.14381E-07         0.75539E-09         0.00000E+00
    0.14368E-07         0.76873E-09         0.00000E+00
    0.14355E-07         0.77940E-09         0.00000E+00
    0.14341E-07         0.78740E-09         0.00000E+00
    0.14328E-07         0.79274E-09         0.00000E+00
    0.14314E-07         0.79543E-09         0.00000E+00
    0.14301E-07         0.79548E-09         0.00000E+00
    0.14287E-07         0.79291E-09         0.00000E+00
    0.14274E-07         0.78772E-09         0.00000E+00
    0.14261E-07         0.77994E-09         0.00000E+00
    0.14248E-07         0.76957E-09         0.00000E+00
    0.14235E-07         0.75664E-09         0.00000E+00
    0.14223E-07         0.74117E-09         0.00000E+00
    0.14211E-07         0.72318E-09         0.00000E+00
    0.14199E-07         0.70269E-09         0.00000E+00
    0.14188E-07         0.67972E-09         0.00000E+00
    0.14177E-07         0.65429E-09         0.00000E+00
    0.14167E-07         0.62645E-09         0.00000E+00
    0.14157E-07         0.59620E-09         0.00000E+00
    0.14148E-07         0.56359E-09         0.00000E+00
    0.14139E-07         0.52864E-09         0.00000E+00
    0.14131E-07         0.49138E-09         0.00000E+00
    0.14124E-07         0.45184E-09         0.00000E+00
    0.14117E-07         0.41007E-09         0.00000E+00
    0.14111E-07         0.36609E-09         0.00000E+00
    0.14105E-07         0.31995E-09         0.00000E+00
    0.14101E-07         0.27168E-09         0.00000E+00
    0.14097E-07         0.22132E-09         0.00000E+00
    0.14094E-07         0.16891E-09         0.00000E+00
    0.14092E-07         0.11450E-09         0.00000E+00
    0.14091E-07         0.58128E-10         0.00000E+00
    0.14090E-07         0.29459E-10         0.00000E+00
    0.15345E-07         0.34702E-10         0.00000E+00
    0.15345E-07         0.68501E-10         0.00000E+00
    0.15343E-07         0.13473E-09         0.00000E+00
    0.15340E-07         0.19821E-09         0.00000E+00
    0.15335E-07         0.25890E-09         0.00000E+00
    0.15330E-07         0.31679E-09         0.00000E+00
    0.15324E-07         0.37183E-09         0.00000E+00
    0.15317E-07         0.42402E-09         0.00000E+00
    0.15309E-07         0.47334E-09         0.00000E+00
    0.15300E-07         0.51976E-09         0.00000E+00
    0.15290E-07         0.56328E-09         0.00000E+00
    0.15280E-07         0.60387E-09         0.00000E+00
    0.15269E-07         0.64154E-09         0.00000E+00
    0.15257E-07         0.67627E-09         0.00000E+00
    0.15245E-07         0.70806E-09         0.00000E+00
    0.15233E-07         0.73691E-09         0.00000E+00
    0.15220E-07         0.76282E-09         0.00000E+00
    0.15207E-07         0.78579E-09         0.00000E+00
    0.15193E-07         0.80581E-09         0.00000E+00
    0.15180E-07         0.82291E-09         0.00000E+00
    0.15166E-07         0.83707E-09         0.00000E+00
    0.15152E-07         0.84832E-09         0.00000E+00
    0.15137E-07         0.85666E-09         0.00000E+00
    0.15123E-07         0.86211E-09         0.00000E+00
    0.15109E-07         0.86468E-09         0.00000E+00
    0.15095E-07         0.86438E-09         0.00000E+00
    0.15081E-07         0.86123E-09         0.00000E+00
    0.15067E-07         0.85525E-09         0.00000E+00
    0.15053E-07         0.84646E-09         0.00000E+00
    0.15040E-07         0.83488E-09         0.00000E+00
    0.15027E-07         0.82053E-09         0.00000E+00
    0.15014E-07         0.80344E-09         0.00000E+00
    0.15001E-07         0.78364E-09         0.00000E+00
    0.14989E-07         0.76114E-09         0.00000E+00
    0.14977E-07         0.73598E-09         0.00000E+00
    0.14966E-07         0.70819E-09         0.00000E+00
    0.14956E-07         0.67779E-09         0.00000E+00
    0.14945E-07         0.64483E-09         0.00000E+00
    0.14936E-07         0.60934E-09         0.00000E+00
    0.14927E-07         0.57134E-09         0.00000E+00
    0.14918E-07         0.53088E-09         0.00000E+00
    0.14911E-07         0.48799E-09         0.00000E+00
    0.14904E-07         0.44272E-09         0.00000E+00
    0.14897E-07         0.39510E-09         0.00000E+00
    0.14892E-07         0.34518E-09         0.00000E+00
    0.14887E-07         0.29300E-09         0.00000E+00
    0.14883E-07         0.23861E-09         0.00000E+00
    0.14880E-07         0.18204E-09         0.00000E+00
    0.14878E-07         0.12336E-09         0.00000E+00
    0.14877E-07         0.62607E-10         0.00000E+00
    0.14876E-07         0.31720E-10         0.00000E+00
    0.16229E-07         0.38056E-10         0.00000E+00
    0.16228E-07         0.75093E-10         0.00000E+00
    0.16226E-07         0.14762E-09         0.00000E+00
    0.16223E-07         0.21706E-09         0.00000E+00
    0.16218E-07         0.28337E-09         0.00000E+00
    0.16213E-07         0.34653E-09         0.00000E+00
    0.16206E-07         0.40653E-09         0.00000E+00
    0.16198E-07         0.46334E-09         0.00000E+00
    0.16190E-07         0.51695E-09         0.00000E+00
    0.16180E-07         0.56734E-09         0.00000E+00
    0.16170E-07         0.61452E-09         0.00000E+00
    0.16159E-07         0.65847E-09         0.00000E+00
    0.16148E-07         0.69918E-09         0.00000E+00
    0.16136E-07         0.73667E-09         0.00000E+00
    0.16123E-07         0.77091E-09         0.00000E+00
    0.16110E-07         0.80193E-09         0.00000E+00
    0.16096E-07         0.82972E-09         0.00000E+00
    0.16083E-07         0.85428E-09         0.00000E+00
    0.16068E-07         0.87564E-09         0.00000E+00
    0.16054E-07         0.89379E-09         0.00000E+00
    0.16040E-07         0.90876E-09         0.00000E+00
    0.16025E-07         0.92055E-09         0.00000E+00
    0.16010E-07         0.92918E-09         0.00000E+00
    0.15995E-07         0.93467E-09         0.00000E+00
    0.15980E-07         0.93704E-09         0.00000E+00
    0.15966E-07         0.93630E-09         0.00000E+00
    0.15951E-07         0.93249E-09         0.00000E+00
    0.15937E-07         0.92562E-09         0.00000E+00
    0.15923E-07         0.91572E-09         0.00000E+00
    0.15909E-07         0.90282E-09         0.00000E+00
    0.15895E-07         0.88694E-09         0.00000E+00
    0.15882E-07         0.86811E-09         0.00000E+00
    0.15869E-07         0.84637E-09         0.00000E+00
    0.15856E-07         0.82174E-09         0.00000E+00
    0.15844E-07         0.79426E-09         0.00000E+00
    0.15832E-07         0.76397E-09         0.00000E+00
    0.15821E-07         0.73090E-09         0.00000E+00
    0.15811E-07         0.69509E-09         0.00000E+00
    0.15801E-07         0.65658E-09         0.00000E+00
    0.15792E-07         0.61541E-09         0.00000E+00
    0.15783E-07         0.57161E-09         0.00000E+00
    0.15775E-07         0.52524E-09         0.00000E+00
    0.15768E-07         0.47634E-09         0.00000E+00
    0.15762E-07         0.42495E-09         0.00000E+00
    0.15756E-07         0.37113E-09         0.00000E+00
    0.15751E-07         0.31491E-09         0.00000E+00
    0.15747E-07         0.25636E-09         0.00000E+00
    0.15744E-07         0.19552E-09         0.00000E+00
    0.15742E-07         0.13245E-09         0.00000E+00
    0.15740E-07         0.67197E-10         0.00000E+00
    0.15740E-07         0.34035E-10         0.00000E+00
    0.17195E-07         0.41632E-10         0.00000E+00
    0.17195E-07         0.82114E-10         0.00000E+00
    0.17193E-07         0.16134E-09         0.00000E+00
    0.17189E-07         0.23709E-09         0.00000E+00
    0.17184E-07         0.30934E-09         0.00000E+00
    0.17178E-07         0.37806E-09         0.00000E+00
    0.17171E-07         0.44326E-09         0.00000E+00
    0.17163E-07         0.50491E-09         0.00000E+00
    0.17154E-07         0.56300E-09         0.00000E+00
    0.17144E-07         0.61754E-09         0.00000E+00
    0.17134E-07         0.66851E-09         0.00000E+00
    0.17122E-07         0.71592E-09         0.00000E+00
    0.17110E-07         0.75977E-09         0.00000E+00
    0.17098E-07         0.80007E-09         0.00000E+00
    0.17084E-07         0.83682E-09         0.00000E+00
    0.17071E-07         0.87002E-09         0.00000E+00
    0.17057E-07         0.89971E-09         0.00000E+00
    0.17042E-07         0.92587E-09         0.00000E+00
    0.17027E-07         0.94854E-09         0.00000E+00
    0.17013E-07         0.96772E-09         0.00000E+00
    0.16997E-07         0.98344E-09         0.00000E+00
    0.16982E-07         0.99571E-09         0.00000E+00
    0.16967E-07         0.10046E-08         0.00000E+00
    0.16952E-07         0.10100E-08         0.00000E+00
    0.16936E-07         0.10121E-08         0.00000E+00
    0.16921E-07         0.10109E-08         0.00000E+00
    0.16906E-07         0.10063E-08         0.00000E+00
    0.16891E-07         0.99842E-09         0.00000E+00
    0.16877E-07         0.98730E-09         0.00000E+00
    0.16862E-07         0.97296E-09         0.00000E+00
    0.16848E-07         0.95544E-09         0.00000E+00
    0.16835E-07         0.93476E-09         0.00000E+00
    0.16821E-07         0.91096E-09         0.00000E+00
    0.16809E-07         0.88409E-09         0.00000E+00
    0.16796E-07         0.85418E-09         0.00000E+00
    0.16784E-07         0.82127E-09         0.00000E+00
    0.16773E-07         0.78540E-09         0.00000E+00
    0.16762E-07         0.74663E-09         0.00000E+00
    0.16752E-07         0.70498E-09         0.00000E+00
    0.16743E-07         0.66052E-09         0.00000E+00
    0.16734E-07         0.61328E-09         0.00000E+00
    0.16726E-07         0.56331E-09         0.00000E+00
    0.16719E-07         0.51067E-09         0.00000E+00
    0.16712E-07         0.45541E-09         0.00000E+00
    0.16707E-07         0.39758E-09         0.00000E+00
    0.16702E-07         0.33724E-09         0.00000E+00
    0.16698E-07         0.27443E-09         0.00000E+00
    0.16694E-07         0.20923E-09         0.00000E+00
    0.16692E-07         0.14168E-09         0.00000E+00
    0.16691E-07         0.71860E-10         0.00000E+00
    0.16690E-07         0.36386E-10         0.00000E+00
    0.18254E-07         0.45417E-10         0.00000E+00
    0.18253E-07         0.89539E-10         0.00000E+00
    0.18251E-07         0.17583E-09         0.00000E+00
    0.18247E-07         0.25822E-09         0.00000E+00
    0.18242E-07         0.33669E-09         0.00000E+00
    0.18236E-07         0.41123E-09         0.00000E+00
    0.18228E-07         0.48184E-09         0.00000E+00
    0.18220E-07         0.54851E-09         0.00000E+00
    0.18211E-07         0.61125E-09         0.00000E+00
    0.18200E-07         0.67005E-09         0.00000E+00
    0.18189E-07         0.72492E-09         0.00000E+00
    0.18177E-07         0.77588E-09         0.00000E+00
    0.18165E-07         0.82292E-09         0.00000E+00
    0.18152E-07         0.86607E-09         0.00000E+00
    0.18138E-07         0.90533E-09         0.00000E+00
    0.18124E-07         0.94073E-09         0.00000E+00
    0.18109E-07         0.97229E-09         0.00000E+00
    0.18095E-07         0.10000E-08         0.00000E+00
    0.18079E-07         0.10240E-08         0.00000E+00
    0.18064E-07         0.10441E-08         0.00000E+00
    0.18049E-07         0.10605E-08         0.00000E+00
    0.18033E-07         0.10732E-08         0.00000E+00
    0.18017E-07         0.10822E-08         0.00000E+00
    0.18002E-07         0.10875E-08         0.00000E+00
    0.17986E-07         0.10893E-08         0.00000E+00
    0.17971E-07         0.10874E-08         0.00000E+00
    0.17955E-07         0.10819E-08         0.00000E+00
    0.17940E-07         0.10730E-08         0.00000E+00
    0.17925E-07         0.10606E-08         0.00000E+00
    0.17911E-07         0.10447E-08         0.00000E+00
    0.17896E-07         0.10254E-08         0.00000E+00
    0.17883E-07         0.10028E-08         0.00000E+00
    0.17869E-07         0.97680E-09         0.00000E+00
    0.17856E-07         0.94758E-09         0.00000E+00
    0.17844E-07         0.91513E-09         0.00000E+00
    0.17832E-07         0.87950E-09         0.00000E+00
    0.17820E-07         0.84075E-09         0.00000E+00
    0.17810E-07         0.79891E-09         0.00000E+00
    0.17799E-07         0.75405E-09         0.00000E+00
    0.17790E-07         0.70621E-09         0.00000E+00
    0.17781E-07         0.65544E-09         0.00000E+00
    0.17773E-07         0.60181E-09         0.00000E+00
    0.17766E-07         0.54537E-09         0.00000E+00
    0.17759E-07         0.48617E-09         0.00000E+00
    0.17754E-07         0.42427E-09         0.00000E+00
    0.17749E-07         0.35974E-09         0.00000E+00
    0.17745E-07         0.29264E-09         0.00000E+00
    0.17741E-07         0.22303E-09         0.00000E+00
    0.17739E-07         0.15098E-09         0.00000E+00
    0.17738E-07         0.76548E-10         0.00000E+00
    0.17737E-07         0.38749E-10         0.00000E+00
    0.19414E-07         0.49386E-10         0.00000E+00
    0.19413E-07         0.97316E-10         0.00000E+00
    0.19410E-07         0.19099E-09         0.00000E+00
    0.19407E-07         0.28029E-09         0.00000E+00
    0.19401E-07         0.36522E-09         0.00000E+00
    0.19395E-07         0.44577E-09         0.00000E+00
    0.19387E-07         0.52196E-09         0.00000E+00
    0.19379E-07         0.59379E-09         0.00000E+00
    0.19369E-07         0.66127E-09         0.00000E+00
    0.19358E-07         0.72441E-09         0.00000E+00
    0.19347E-07         0.78324E-09         0.00000E+00
    0.19335E-07         0.83777E-09         0.00000E+00
    0.19322E-07         0.88801E-09         0.00000E+00
    0.19309E-07         0.93400E-09         0.00000E+00
    0.19295E-07         0.97577E-09         0.00000E+00
    0.19280E-07         0.10133E-08         0.00000E+00
    0.19265E-07         0.10467E-08         0.00000E+00
    0.19250E-07         0.10759E-08         0.00000E+00
    0.19235E-07         0.11011E-08         0.00000E+00
    0.19219E-07         0.11221E-08         0.00000E+00
    0.19204E-07         0.11391E-08         0.00000E+00
    0.19188E-07         0.11522E-08         0.00000E+00
    0.19172E-07         0.11612E-08         0.00000E+00
    0.19156E-07         0.11663E-08         0.00000E+00
    0.19141E-07         0.11676E-08         0.00000E+00
    0.19125E-07         0.11650E-08         0.00000E+00
    0.19110E-07         0.11586E-08         0.00000E+00
    0.19094E-07         0.11484E-08         0.00000E+00
    0.19080E-07         0.11345E-08         0.00000E+00
    0.19065E-07         0.11170E-08         0.00000E+00
    0.19051E-07         0.10959E-08         0.00000E+00
    0.19037E-07         0.10712E-08         0.00000E+00
    0.19023E-07         0.10430E-08         0.00000E+00
    0.19011E-07         0.10114E-08         0.00000E+00
    0.18998E-07         0.97631E-09         0.00000E+00
    0.18986E-07         0.93789E-09         0.00000E+00
    0.18975E-07         0.89618E-09         0.00000E+00
    0.18964E-07         0.85123E-09         0.00000E+00
    0.18954E-07         0.80310E-09         0.00000E+00
    0.18945E-07         0.75184E-09         0.00000E+00
    0.18936E-07         0.69752E-09         0.00000E+00
    0.18928E-07         0.64019E-09         0.00000E+00
    0.18921E-07         0.57992E-09         0.00000E+00
    0.18914E-07         0.51677E-09         0.00000E+00
    0.18909E-07         0.45081E-09         0.00000E+00
    0.18904E-07         0.38210E-09         0.00000E+00
    0.18900E-07         0.31072E-09         0.00000E+00
    0.18897E-07         0.23672E-09         0.00000E+00
    0.18895E-07         0.16019E-09         0.00000E+00
    0.18893E-07         0.81192E-10         0.00000E+00
    0.18893E-07         0.41087E-10         0.00000E+00
    0.20686E-07         0.53496E-10         0.00000E+00
    0.20686E-07         0.10536E-09         0.00000E+00
    0.20683E-07         0.20665E-09         0.00000E+00
    0.20679E-07         0.30305E-09         0.00000E+00
    0.20674E-07         0.39459E-09         0.00000E+00
    0.20667E-07         0.48128E-09         0.00000E+00
    0.20660E-07         0.56313E-09         0.00000E+00
    0.20651E-07         0.64018E-09         0.00000E+00
    0.20641E-07         0.71243E-09         0.00000E+00
    0.20630E-07         0.77993E-09         0.00000E+00
    0.20619E-07         0.84270E-09         0.00000E+00
    0.20607E-07         0.90076E-09         0.00000E+00
    0.20594E-07         0.95417E-09         0.00000E+00
    0.20580E-07         0.10029E-08         0.00000E+00
    0.20566E-07         0.10471E-08         0.00000E+00
    0.20552E-07         0.10867E-08         0.00000E+00
    0.20537E-07         0.11219E-08         0.00000E+00
    0.20522E-07         0.11525E-08         0.00000E+00
    0.20506E-07         0.11787E-08         0.00000E+00
    0.20491E-07         0.12006E-08         0.00000E+00
    0.20475E-07         0.12181E-08         0.00000E+00
    0.20460E-07         0.12313E-08         0.00000E+00
    0.20444E-07         0.12403E-08         0.00000E+00
    0.20428E-07         0.12451E-08         0.00000E+00
    0.20413E-07         0.12457E-08         0.00000E+00
    0.20397E-07         0.12423E-08         0.00000E+00
    0.20382E-07         0.12348E-08         0.00000E+00
    0.20367E-07         0.12234E-08         0.00000E+00
    0.20353E-07         0.12080E-08         0.00000E+00
    0.20338E-07         0.11888E-08         0.00000E+00
    0.20324E-07         0.11657E-08         0.00000E+00
    0.20311E-07         0.11389E-08         0.00000E+00
    0.20298E-07         0.11085E-08         0.00000E+00
    0.20285E-07         0.10743E-08         0.00000E+00
    0.20273E-07         0.10366E-08         0.00000E+00
    0.20261E-07         0.99539E-09         0.00000E+00
    0.20250E-07         0.95071E-09         0.00000E+00
    0.20240E-07         0.90264E-09         0.00000E+00
    0.20230E-07         0.85124E-09         0.00000E+00
    0.20221E-07         0.79658E-09         0.00000E+00
    0.20213E-07         0.73872E-09         0.00000E+00
    0.20205E-07         0.67774E-09         0.00000E+00
    0.20198E-07         0.61369E-09         0.00000E+00
    0.20192E-07         0.54666E-09         0.00000E+00
    0.20187E-07         0.47670E-09         0.00000E+00
    0.20182E-07         0.40390E-09         0.00000E+00
    0.20178E-07         0.32832E-09         0.00000E+00
    0.20175E-07         0.25004E-09         0.00000E+00
    0.20173E-07         0.16914E-09         0.00000E+00
    0.20172E-07         0.85703E-10         0.00000E+00
    0.20171E-07         0.43357E-10         0.00000E+00
    0.22086E-07         0.57687E-10         0.00000E+00
    0.22085E-07         0.11355E-09         0.00000E+00
    0.22083E-07         0.22257E-09         0.00000E+00
    0.22079E-07         0.32615E-09         0.00000E+00
    0.22073E-07         0.42434E-09         0.00000E+00
    0.22067E-07         0.51717E-09         0.00000E+00
    0.22059E-07         0.60467E-09         0.00000E+00
    0.22050E-07         0.68689E-09         0.00000E+00
    0.22041E-07         0.76385E-09         0.00000E+00
    0.22030E-07         0.83562E-09         0.00000E+00
    0.22019E-07         0.90223E-09         0.00000E+00
    0.22006E-07         0.96372E-09         0.00000E+00
    0.21994E-07         0.10202E-08         0.00000E+00
    0.21980E-07         0.10716E-08         0.00000E+00
    0.21967E-07         0.11180E-08         0.00000E+00
    0.21952E-07         0.11596E-08         0.00000E+00
    0.21938E-07         0.11963E-08         0.00000E+00
    0.21923E-07         0.12282E-08         0.00000E+00
    0.21908E-07         0.12554E-08         0.00000E+00
    0.21893E-07         0.12779E-08         0.00000E+00
    0.21878E-07         0.12957E-08         0.00000E+00
    0.21863E-07         0.13090E-08         0.00000E+00
    0.21848E-07         0.13178E-08         0.00000E+00
    0.21832E-07         0.13221E-08         0.00000E+00
    0.21818E-07         0.13221E-08         0.00000E+00
    0.21803E-07         0.13177E-08         0.00000E+00
    0.21788E-07         0.13091E-08         0.00000E+00
    0.21774E-07         0.12963E-08         0.00000E+00
    0.21760E-07         0.12794E-08         0.00000E+00
    0.21746E-07         0.12583E-08         0.00000E+00
    0.21733E-07         0.12333E-08         0.00000E+00
    0.21720E-07         0.12044E-08         0.00000E+00
    0.21708E-07         0.11716E-08         0.00000E+00
    0.21696E-07         0.11350E-08         0.00000E+00
    0.21684E-07         0.10946E-08         0.00000E+00
    0.21673E-07         0.10506E-08         0.00000E+00
    0.21663E-07         0.10030E-08         0.00000E+00
    0.21653E-07         0.95189E-09         0.00000E+00
    0.21644E-07         0.89731E-09         0.00000E+00
    0.21635E-07         0.83934E-09         0.00000E+00
    0.21627E-07         0.77806E-09         0.00000E+00
    0.21620E-07         0.71354E-09         0.00000E+00
    0.21614E-07         0.64585E-09         0.00000E+00
    0.21608E-07         0.57508E-09         0.00000E+00
    0.21603E-07         0.50130E-09         0.00000E+00
    0.21598E-07         0.42458E-09         0.00000E+00
    0.21595E-07         0.34500E-09         0.00000E+00
    0.21592E-07         0.26265E-09         0.00000E+00
    0.21590E-07         0.17761E-09         0.00000E+00
    0.21589E-07         0.89966E-10         0.00000E+00
    0.21588E-07         0.45501E-10         0.00000E+00
    0.23628E-07         0.61873E-10         0.00000E+00
    0.23627E-07         0.12172E-09         0.00000E+00
    0.23624E-07         0.23841E-09         0.00000E+00
    0.23620E-07         0.34909E-09         0.00000E+00
    0.23615E-07         0.45382E-09         0.00000E+00
    0.23609E-07         0.55265E-09         0.00000E+00
    0.23601E-07         0.64565E-09         0.00000E+00
    0.23593E-07         0.73286E-09         0.00000E+00
    0.23583E-07         0.81435E-09         0.00000E+00
    0.23573E-07         0.89019E-09         0.00000E+00
    0.23562E-07         0.96042E-09         0.00000E+00
    0.23550E-07         0.10251E-08         0.00000E+00
    0.23538E-07         0.10844E-08         0.00000E+00
    0.23526E-07         0.11382E-08         0.00000E+00
    0.23512E-07         0.11868E-08         0.00000E+00
    0.23499E-07         0.12300E-08         0.00000E+00
    0.23485E-07         0.12681E-08         0.00000E+00
    0.23471E-07         0.13011E-08         0.00000E+00
    0.23457E-07         0.13290E-08         0.00000E+00
    0.23443E-07         0.13519E-08         0.00000E+00
    0.23429E-07         0.13700E-08         0.00000E+00
    0.23414E-07         0.13832E-08         0.00000E+00
    0.23400E-07         0.13916E-08         0.00000E+00
    0.23386E-07         0.13954E-08         0.00000E+00
    0.23372E-07         0.13945E-08         0.00000E+00
    0.23358E-07         0.13891E-08         0.00000E+00
    0.23345E-07         0.13793E-08         0.00000E+00
    0.23332E-07         0.13650E-08         0.00000E+00
    0.23319E-07         0.13465E-08         0.00000E+00
    0.23306E-07         0.13237E-08         0.00000E+00
    0.23294E-07         0.12967E-08         0.00000E+00
    0.23282E-07         0.12656E-08         0.00000E+00
    0.23271E-07         0.12305E-08         0.00000E+00
    0.23260E-07         0.11915E-08         0.00000E+00
    0.23250E-07         0.11486E-08         0.00000E+00
    0.23240E-07         0.11019E-08         0.00000E+00
    0.23230E-07         0.10515E-08         0.00000E+00
    0.23221E-07         0.99746E-09         0.00000E+00
    0.23213E-07         0.93986E-09         0.00000E+00
    0.23205E-07         0.87876E-09         0.00000E+00
    0.23198E-07         0.81427E-09         0.00000E+00
    0.23192E-07         0.74644E-09         0.00000E+00
    0.23186E-07         0.67537E-09         0.00000E+00
    0.23181E-07         0.60113E-09         0.00000E+00
    0.23176E-07         0.52380E-09         0.00000E+00
    0.23173E-07         0.44347E-09         0.00000E+00
    0.23169E-07         0.36023E-09         0.00000E+00
    0.23167E-07         0.27415E-09         0.00000E+00
    0.23165E-07         0.18532E-09         0.00000E+00
    0.23164E-07         0.93842E-10         0.00000E+00
    0.23164E-07         0.47448E-10         0.00000E+00
    0.25329E-07         0.65942E-10         0.00000E+00
    0.25329E-07         0.12965E-09         0.00000E+00
    0.25326E-07         0.25374E-09         0.00000E+00
    0.25323E-07         0.37123E-09         0.00000E+00
    0.25318E-07         0.48219E-09         0.00000E+00
    0.25312E-07         0.58671E-09         0.00000E+00
    0.25305E-07         0.68486E-09         0.00000E+00
    0.25297E-07         0.77673E-09         0.00000E+00
    0.25288E-07         0.86240E-09         0.00000E+00
    0.25278E-07         0.94196E-09         0.00000E+00
    0.25268E-07         0.10155E-08         0.00000E+00
    0.25258E-07         0.10831E-08         0.00000E+00
    0.25246E-07         0.11448E-08         0.00000E+00
    0.25235E-07         0.12008E-08         0.00000E+00
    0.25223E-07         0.12510E-08         0.00000E+00
    0.25210E-07         0.12957E-08         0.00000E+00
    0.25198E-07         0.13349E-08         0.00000E+00
    0.25185E-07         0.13686E-08         0.00000E+00
    0.25173E-07         0.13970E-08         0.00000E+00
    0.25160E-07         0.14202E-08         0.00000E+00
    0.25147E-07         0.14382E-08         0.00000E+00
    0.25134E-07         0.14511E-08         0.00000E+00
    0.25122E-07         0.14591E-08         0.00000E+00
    0.25109E-07         0.14621E-08         0.00000E+00
    0.25097E-07         0.14604E-08         0.00000E+00
    0.25085E-07         0.14538E-08         0.00000E+00
    0.25073E-07         0.14427E-08         0.00000E+00
    0.25061E-07         0.14270E-08         0.00000E+00
    0.25050E-07         0.14068E-08         0.00000E+00
    0.25039E-07         0.13822E-08         0.00000E+00
    0.25029E-07         0.13533E-08         0.00000E+00
    0.25019E-07         0.13202E-08         0.00000E+00
    0.25009E-07         0.12829E-08         0.00000E+00
    0.24999E-07         0.12416E-08         0.00000E+00
    0.24991E-07         0.11963E-08         0.00000E+00
    0.24982E-07         0.11472E-08         0.00000E+00
    0.24974E-07         0.10942E-08         0.00000E+00
    0.24967E-07         0.10375E-08         0.00000E+00
    0.24960E-07         0.97712E-09         0.00000E+00
    0.24953E-07         0.91321E-09         0.00000E+00
    0.24947E-07         0.84583E-09         0.00000E+00
    0.24942E-07         0.77505E-09         0.00000E+00
    0.24937E-07         0.70097E-09         0.00000E+00
    0.24933E-07         0.62367E-09         0.00000E+00
    0.24929E-07         0.54324E-09         0.00000E+00
    0.24926E-07         0.45976E-09         0.00000E+00
    0.24923E-07         0.37332E-09         0.00000E+00
    0.24921E-07         0.28402E-09         0.00000E+00
    0.24920E-07         0.19193E-09         0.00000E+00
    0.24919E-07         0.97157E-10         0.00000E+00
    0.24918E-07         0.49111E-10         0.00000E+00
    0.27213E-07         0.69748E-10         0.00000E+00
    0.27212E-07         0.13705E-09         0.00000E+00
    0.27210E-07         0.26801E-09         0.00000E+00
    0.27207E-07         0.39176E-09         0.00000E+00
    0.27202E-07         0.50840E-09         0.00000E+00
    0.27197E-07         0.61804E-09         0.00000E+00
    0.27191E-07         0.72080E-09         0.00000E+00
    0.27183E-07         0.81678E-09         0.00000E+00
    0.27176E-07         0.90609E-09         0.00000E+00
    0.27167E-07         0.98885E-09         0.00000E+00
    0.27158E-07         0.10652E-08         0.00000E+00
    0.27149E-07         0.11351E-08         0.00000E+00
    0.27139E-07         0.11989E-08         0.00000E+00
    0.27129E-07         0.12565E-08         0.00000E+00
    0.27119E-07         0.13081E-08         0.00000E+00
    0.27109E-07         0.13538E-08         0.00000E+00
    0.27098E-07         0.13937E-08         0.00000E+00
    0.27087E-07         0.14279E-08         0.00000E+00
    0.27077E-07         0.14565E-08         0.00000E+00
    0.27066E-07         0.14796E-08         0.00000E+00
    0.27055E-07         0.14973E-08         0.00000E+00
    0.27045E-07         0.15098E-08         0.00000E+00
    0.27035E-07         0.15170E-08         0.00000E+00
    0.27024E-07         0.15192E-08         0.00000E+00
    0.27015E-07         0.15164E-08         0.00000E+00
    0.27005E-07         0.15087E-08         0.00000E+00
    0.26995E-07         0.14962E-08         0.00000E+00
    0.26986E-07         0.14791E-08         0.00000E+00
    0.26977E-07         0.14573E-08         0.00000E+00
    0.26969E-07         0.14310E-08         0.00000E+00
    0.26960E-07         0.14003E-08         0.00000E+00
    0.26952E-07         0.13653E-08         0.00000E+00
    0.26945E-07         0.13261E-08         0.00000E+00
    0.26938E-07         0.12827E-08         0.00000E+00
    0.26931E-07         0.12353E-08         0.00000E+00
    0.26924E-07         0.11839E-08         0.00000E+00
    0.26918E-07         0.11287E-08         0.00000E+00
    0.26913E-07         0.10697E-08         0.00000E+00
    0.26908E-07         0.10070E-08         0.00000E+00
    0.26903E-07         0.94072E-09         0.00000E+00
    0.26898E-07         0.87092E-09         0.00000E+00
    0.26895E-07         0.79771E-09         0.00000E+00
    0.26891E-07         0.72117E-09         0.00000E+00
    0.26888E-07         0.64139E-09         0.00000E+00
    0.26885E-07         0.55846E-09         0.00000E+00
    0.26883E-07         0.47246E-09         0.00000E+00
    0.26881E-07         0.38350E-09         0.00000E+00
    0.26880E-07         0.29166E-09         0.00000E+00
    0.26879E-07         0.19703E-09         0.00000E+00
    0.26878E-07         0.99707E-10         0.00000E+00
    0.26878E-07         0.50386E-10         0.00000E+00
    0.29301E-07         0.73113E-10         0.00000E+00
    0.29301E-07         0.14356E-09         0.00000E+00
    0.29299E-07         0.28051E-09         0.00000E+00
    0.29296E-07         0.40965E-09         0.00000E+00
    0.29293E-07         0.53112E-09         0.00000E+00
    0.29288E-07         0.64506E-09         0.00000E+00
    0.29283E-07         0.75161E-09         0.00000E+00
    0.29277E-07         0.85092E-09         0.00000E+00
    0.29271E-07         0.94312E-09         0.00000E+00
    0.29264E-07         0.10283E-08         0.00000E+00
    0.29257E-07         0.11067E-08         0.00000E+00
    0.29250E-07         0.11784E-08         0.00000E+00
    0.29242E-07         0.12436E-08         0.00000E+00
    0.29235E-07         0.13022E-08         0.00000E+00
    0.29227E-07         0.13546E-08         0.00000E+00
    0.29219E-07         0.14008E-08         0.00000E+00
    0.29211E-07         0.14410E-08         0.00000E+00
    0.29203E-07         0.14752E-08         0.00000E+00
    0.29195E-07         0.15036E-08         0.00000E+00
    0.29188E-07         0.15264E-08         0.00000E+00
    0.29180E-07         0.15435E-08         0.00000E+00
    0.29173E-07         0.15553E-08         0.00000E+00
    0.29165E-07         0.15617E-08         0.00000E+00
    0.29158E-07         0.15628E-08         0.00000E+00
    0.29151E-07         0.15589E-08         0.00000E+00
    0.29145E-07         0.15500E-08         0.00000E+00
    0.29138E-07         0.15362E-08         0.00000E+00
    0.29132E-07         0.15176E-08         0.00000E+00
    0.29127E-07         0.14943E-08         0.00000E+00
    0.29121E-07         0.14665E-08         0.00000E+00
    0.29116E-07         0.14342E-08         0.00000E+00
    0.29111E-07         0.13975E-08         0.00000E+00
    0.29106E-07         0.13566E-08         0.00000E+00
    0.29102E-07         0.13115E-08         0.00000E+00
    0.29098E-07         0.12624E-08         0.00000E+00
    0.29094E-07         0.12093E-08         0.00000E+00
    0.29091E-07         0.11523E-08         0.00000E+00
    0.29088E-07         0.10915E-08         0.00000E+00
    0.29085E-07         0.10270E-08         0.00000E+00
    0.29082E-07         0.95900E-09         0.00000E+00
    0.29080E-07         0.88745E-09         0.00000E+00
    0.29078E-07         0.81249E-09         0.00000E+00
    0.29076E-07         0.73422E-09         0.00000E+00
    0.29074E-07         0.65272E-09         0.00000E+00
    0.29073E-07         0.56810E-09         0.00000E+00
    0.29072E-07         0.48044E-09         0.00000E+00
    0.29071E-07         0.38983E-09         0.00000E+00
    0.29070E-07         0.29636E-09         0.00000E+00
    0.29070E-07         0.20014E-09         0.00000E+00
    0.29069E-07         0.10125E-09         0.00000E+00
    0.29069E-07         0.51153E-10         0.00000E+00
    0.31623E-07         0.75818E-10         0.00000E+00
    0.31622E-07         0.14877E-09         0.00000E+00
    0.31621E-07         0.29043E-09         0.00000E+00
    0.31619E-07         0.42372E-09         0.00000E+00
    0.31617E-07         0.54881E-09         0.00000E+00
    0.31613E-07         0.66588E-09         0.00000E+00
    0.31610E-07         0.77511E-09         0.00000E+00
    0.31606E-07         0.87666E-09         0.00000E+00
    0.31602E-07         0.97072E-09         0.00000E+00
    0.31598E-07         0.10575E-08         0.00000E+00
    0.31593E-07         0.11370E-08         0.00000E+00
    0.31588E-07         0.12096E-08         0.00000E+00
    0.31584E-07         0.12753E-08         0.00000E+00
    0.31579E-07         0.13343E-08         0.00000E+00
    0.31575E-07         0.13868E-08         0.00000E+00
    0.31570E-07         0.14329E-08         0.00000E+00
    0.31566E-07         0.14727E-08         0.00000E+00
    0.31561E-07         0.15065E-08         0.00000E+00
    0.31557E-07         0.15343E-08         0.00000E+00
    0.31553E-07         0.15562E-08         0.00000E+00
    0.31550E-07         0.15725E-08         0.00000E+00
    0.31546E-07         0.15833E-08         0.00000E+00
    0.31543E-07         0.15886E-08         0.00000E+00
    0.31540E-07         0.15887E-08         0.00000E+00
    0.31537E-07         0.15835E-08         0.00000E+00
    0.31535E-07         0.15734E-08         0.00000E+00
    0.31532E-07         0.15583E-08         0.00000E+00
    0.31530E-07         0.15384E-08         0.00000E+00
    0.31529E-07         0.15138E-08         0.00000E+00
    0.31527E-07         0.14847E-08         0.00000E+00
    0.31526E-07         0.14511E-08         0.00000E+00
    0.31524E-07         0.14131E-08         0.00000E+00
    0.31524E-07         0.13709E-08         0.00000E+00
    0.31523E-07         0.13246E-08         0.00000E+00
    0.31522E-07         0.12742E-08         0.00000E+00
    0.31522E-07         0.12199E-08         0.00000E+00
    0.31522E-07         0.11618E-08         0.00000E+00
    0.31522E-07         0.11000E-08         0.00000E+00
    0.31522E-07         0.10345E-08         0.00000E+00
    0.31522E-07         0.96545E-09         0.00000E+00
    0.31522E-07         0.89299E-09         0.00000E+00
    0.31522E-07         0.81719E-09         0.00000E+00
    0.31523E-07         0.73813E-09         0.00000E+00
    0.31523E-07         0.65591E-09         0.00000E+00
    0.31523E-07         0.57064E-09         0.00000E+00
    0.31524E-07         0.48239E-09         0.00000E+00
    0.31524E-07         0.39126E-09         0.00000E+00
    0.31524E-07         0.29734E-09         0.00000E+00
    0.31525E-07         0.20073E-09         0.00000E+00
    0.31525E-07         0.10152E-09         0.00000E+00
    0.31525E-07         0.51274E-10         0.00000E+00
    0.34209E-07         0.77607E-10         0.00000E+00
    0.34209E-07         0.15216E-09         0.00000E+00
    0.34208E-07         0.29678E-09         0.00000E+00
    0.34207E-07         0.43253E-09         0.00000E+00
    0.34206E-07         0.55962E-09         0.00000E+00
    0.34205E-07         0.67828E-09         0.00000E+00
    0.34203E-07         0.78871E-09         0.00000E+00
    0.34202E-07         0.89113E-09         0.00000E+00
    0.34200E-07         0.98574E-09         0.00000E+00
    0.34199E-07         0.10727E-08         0.00000E+00
    0.34198E-07         0.11523E-08         0.00000E+00
    0.34197E-07         0.12246E-08         0.00000E+00
    0.34196E-07         0.12899E-08         0.00000E+00
    0.34195E-07         0.13484E-08         0.00000E+00
    0.34195E-07         0.14001E-08         0.00000E+00
    0.34195E-07         0.14453E-08         0.00000E+00
    0.34195E-07         0.14842E-08         0.00000E+00
    0.34195E-07         0.15169E-08         0.00000E+00
    0.34196E-07         0.15436E-08         0.00000E+00
    0.34197E-07         0.15644E-08         0.00000E+00
    0.34198E-07         0.15794E-08         0.00000E+00
    0.34199E-07         0.15889E-08         0.00000E+00
    0.34201E-07         0.15930E-08         0.00000E+00
    0.34203E-07         0.15918E-08         0.00000E+00
    0.34205E-07         0.15855E-08         0.00000E+00
    0.34208E-07         0.15741E-08         0.00000E+00
    0.34211E-07         0.15579E-08         0.00000E+00
    0.34214E-07         0.15369E-08         0.00000E+00
    0.34217E-07         0.15113E-08         0.00000E+00
    0.34220E-07         0.14811E-08         0.00000E+00
    0.34223E-07         0.14466E-08         0.00000E+00
    0.34227E-07         0.14079E-08         0.00000E+00
    0.34231E-07         0.13649E-08         0.00000E+00
    0.34234E-07         0.13180E-08         0.00000E+00
    0.34238E-07         0.12671E-08         0.00000E+00
    0.34242E-07         0.12123E-08         0.00000E+00
    0.34246E-07         0.11539E-08         0.00000E+00
    0.34249E-07         0.10918E-08         0.00000E+00
    0.34253E-07         0.10262E-08         0.00000E+00
    0.34256E-07         0.95724E-09         0.00000E+00
    0.34260E-07         0.88492E-09         0.00000E+00
    0.34263E-07         0.80938E-09         0.00000E+00
    0.34266E-07         0.73072E-09         0.00000E+00
    0.34269E-07         0.64901E-09         0.00000E+00
    0.34271E-07         0.56437E-09         0.00000E+00
    0.34273E-07         0.47688E-09         0.00000E+00
    0.34275E-07         0.38662E-09         0.00000E+00
    0.34276E-07         0.29370E-09         0.00000E+00
    0.34278E-07         0.19820E-09         0.00000E+00
    0.34278E-07         0.10020E-09         0.00000E+00
    0.34278E-07         0.50593E-10         0.00000E+00
    0.37095E-07         0.78185E-10         0.00000E+00
    0.37095E-07         0.15317E-09         0.00000E+00
    0.37095E-07         0.29845E-09         0.00000E+00
    0.37096E-07         0.43446E-09         0.00000E+00
    0.37096E-07         0.56147E-09         0.00000E+00
    0.37097E-07         0.67975E-09         0.00000E+00
    0.37099E-07         0.78953E-09         0.00000E+00
    0.37100E-07         0.89106E-09         0.00000E+00
    0.37102E-07         0.98458E-09         0.00000E+00
    0.37105E-07         0.10703E-08         0.00000E+00
    0.37108E-07         0.11485E-08         0.00000E+00
    0.37111E-07         0.12193E-08         0.00000E+00
    0.37115E-07         0.12830E-08         0.00000E+00
    0.37119E-07         0.13398E-08         0.00000E+00
    0.37124E-07         0.13898E-08         0.00000E+00
    0.37129E-07         0.14333E-08         0.00000E+00
    0.37134E-07         0.14704E-08         0.00000E+00
    0.37141E-07         0.15014E-08         0.00000E+00
    0.37147E-07         0.15263E-08         0.00000E+00
    0.37154E-07         0.15455E-08         0.00000E+00
    0.37161E-07         0.15590E-08         0.00000E+00
    0.37169E-07         0.15669E-08         0.00000E+00
    0.37177E-07         0.15696E-08         0.00000E+00
    0.37185E-07         0.15671E-08         0.00000E+00
    0.37193E-07         0.15595E-08         0.00000E+00
    0.37202E-07         0.15470E-08         0.00000E+00
    0.37211E-07         0.15298E-08         0.00000E+00
    0.37220E-07         0.15080E-08         0.00000E+00
    0.37229E-07         0.14817E-08         0.00000E+00
    0.37238E-07         0.14511E-08         0.00000E+00
    0.37247E-07         0.14162E-08         0.00000E+00
    0.37256E-07         0.13772E-08         0.00000E+00
    0.37265E-07         0.13342E-08         0.00000E+00
    0.37274E-07         0.12874E-08         0.00000E+00
    0.37283E-07         0.12368E-08         0.00000E+00
    0.37292E-07         0.11826E-08         0.00000E+00
    0.37300E-07         0.11248E-08         0.00000E+00
    0.37308E-07         0.10636E-08         0.00000E+00
    0.37316E-07         0.99906E-09         0.00000E+00
    0.37324E-07         0.93130E-09         0.00000E+00
    0.37331E-07         0.86042E-09         0.00000E+00
    0.37337E-07         0.78650E-09         0.00000E+00
    0.37343E-07         0.70965E-09         0.00000E+00
    0.37349E-07         0.62995E-09         0.00000E+00
    0.37354E-07         0.54750E-09         0.00000E+00
    0.37358E-07         0.46238E-09         0.00000E+00
    0.37362E-07         0.37468E-09         0.00000E+00
    0.37365E-07         0.28449E-09         0.00000E+00
    0.37367E-07         0.19189E-09         0.00000E+00
    0.37368E-07         0.96975E-10         0.00000E+00
    0.37368E-07         0.48947E-10         0.00000E+00
    0.40321E-07         0.77221E-10         0.00000E+00
    0.40322E-07         0.15115E-09         0.00000E+00
    0.40323E-07         0.29418E-09         0.00000E+00
    0.40325E-07         0.42771E-09         0.00000E+00
    0.40328E-07         0.55206E-09         0.00000E+00
    0.40332E-07         0.66752E-09         0.00000E+00
    0.40336E-07         0.77437E-09         0.00000E+00
    0.40341E-07         0.87288E-09         0.00000E+00
    0.40348E-07         0.96333E-09         0.00000E+00
    0.40355E-07         0.10460E-08         0.00000E+00
    0.40363E-07         0.11211E-08         0.00000E+00
    0.40371E-07         0.11888E-08         0.00000E+00
    0.40381E-07         0.12495E-08         0.00000E+00
    0.40391E-07         0.13033E-08         0.00000E+00
    0.40402E-07         0.13505E-08         0.00000E+00
    0.40414E-07         0.13913E-08         0.00000E+00
    0.40426E-07         0.14258E-08         0.00000E+00
    0.40439E-07         0.14543E-08         0.00000E+00
    0.40452E-07         0.14770E-08         0.00000E+00
    0.40466E-07         0.14940E-08         0.00000E+00
    0.40480E-07         0.15055E-08         0.00000E+00
    0.40495E-07         0.15117E-08         0.00000E+00
    0.40510E-07         0.15128E-08         0.00000E+00
    0.40526E-07         0.15089E-08         0.00000E+00
    0.40541E-07         0.15002E-08         0.00000E+00
    0.40557E-07         0.14869E-08         0.00000E+00
    0.40573E-07         0.14690E-08         0.00000E+00
    0.40589E-07         0.14467E-08         0.00000E+00
    0.40605E-07         0.14202E-08         0.00000E+00
    0.40621E-07         0.13896E-08         0.00000E+00
    0.40637E-07         0.13550E-08         0.00000E+00
    0.40652E-07         0.13166E-08         0.00000E+00
    0.40668E-07         0.12744E-08         0.00000E+00
    0.40683E-07         0.12286E-08         0.00000E+00
    0.40698E-07         0.11794E-08         0.00000E+00
    0.40712E-07         0.11267E-08         0.00000E+00
    0.40726E-07         0.10708E-08         0.00000E+00
    0.40739E-07         0.10118E-08         0.00000E+00
    0.40752E-07         0.94965E-09         0.00000E+00
    0.40764E-07         0.88457E-09         0.00000E+00
    0.40776E-07         0.81663E-09         0.00000E+00
    0.40786E-07         0.74593E-09         0.00000E+00
    0.40796E-07         0.67256E-09         0.00000E+00
    0.40805E-07         0.59660E-09         0.00000E+00
    0.40812E-07         0.51816E-09         0.00000E+00
    0.40819E-07         0.43731E-09         0.00000E+00
    0.40825E-07         0.35414E-09         0.00000E+00
    0.40829E-07         0.26873E-09         0.00000E+00
    0.40833E-07         0.18116E-09         0.00000E+00
    0.40835E-07         0.91501E-10         0.00000E+00
    0.40835E-07         0.46162E-10         0.00000E+00
    0.43932E-07         0.74352E-10         0.00000E+00
    0.43933E-07         0.14539E-09         0.00000E+00
    0.43935E-07         0.28262E-09         0.00000E+00
    0.43939E-07         0.41034E-09         0.00000E+00
    0.43945E-07         0.52890E-09         0.00000E+00
    0.43952E-07         0.63861E-09         0.00000E+00
    0.43960E-07         0.73981E-09         0.00000E+00
    0.43970E-07         0.83280E-09         0.00000E+00
    0.43982E-07         0.91786E-09         0.00000E+00
    0.43994E-07         0.99529E-09         0.00000E+00
    0.44008E-07         0.10654E-08         0.00000E+00
    0.44023E-07         0.11283E-08         0.00000E+00
    0.44039E-07         0.11844E-08         0.00000E+00
    0.44056E-07         0.12339E-08         0.00000E+00
    0.44075E-07         0.12770E-08         0.00000E+00
    0.44094E-07         0.13139E-08         0.00000E+00
    0.44114E-07         0.13449E-08         0.00000E+00
    0.44134E-07         0.13702E-08         0.00000E+00
    0.44156E-07         0.13900E-08         0.00000E+00
    0.44178E-07         0.14043E-08         0.00000E+00
    0.44200E-07         0.14136E-08         0.00000E+00
    0.44223E-07         0.14178E-08         0.00000E+00
    0.44247E-07         0.14173E-08         0.00000E+00
    0.44270E-07         0.14121E-08         0.00000E+00
    0.44294E-07         0.14024E-08         0.00000E+00
    0.44318E-07         0.13884E-08         0.00000E+00
    0.44342E-07         0.13702E-08         0.00000E+00
    0.44366E-07         0.13480E-08         0.00000E+00
    0.44390E-07         0.13219E-08         0.00000E+00
    0.44414E-07         0.12921E-08         0.00000E+00
    0.44437E-07         0.12586E-08         0.00000E+00
    0.44460E-07         0.12216E-08         0.00000E+00
    0.44483E-07         0.11813E-08         0.00000E+00
    0.44505E-07         0.11377E-08         0.00000E+00
    0.44526E-07         0.10909E-08         0.00000E+00
    0.44547E-07         0.10412E-08         0.00000E+00
    0.44567E-07         0.98852E-09         0.00000E+00
    0.44586E-07         0.93306E-09         0.00000E+00
    0.44604E-07         0.87489E-09         0.00000E+00
    0.44622E-07         0.81413E-09         0.00000E+00
    0.44638E-07         0.75086E-09         0.00000E+00
    0.44653E-07         0.68518E-09         0.00000E+00
    0.44666E-07         0.61719E-09         0.00000E+00
    0.44679E-07         0.54697E-09         0.00000E+00
    0.44690E-07         0.47461E-09         0.00000E+00
    0.44699E-07         0.40019E-09         0.00000E+00
    0.44707E-07         0.32378E-09         0.00000E+00
    0.44714E-07         0.24548E-09         0.00000E+00
    0.44718E-07         0.16534E-09         0.00000E+00
    0.44721E-07         0.83449E-10         0.00000E+00
    0.44722E-07         0.42071E-10         0.00000E+00
    0.47976E-07         0.69197E-10         0.00000E+00
    0.47977E-07         0.13515E-09         0.00000E+00
    0.47981E-07         0.26235E-09         0.00000E+00
    0.47988E-07         0.38030E-09         0.00000E+00
    0.47996E-07         0.48938E-09         0.00000E+00
    0.48007E-07         0.58996E-09         0.00000E+00
    0.48020E-07         0.68236E-09         0.00000E+00
    0.48035E-07         0.76692E-09         0.00000E+00
    0.48053E-07         0.84395E-09         0.00000E+00
    0.48072E-07         0.91375E-09         0.00000E+00
    0.48092E-07         0.97661E-09         0.00000E+00
    0.48115E-07         0.10328E-08         0.00000E+00
    0.48138E-07         0.10826E-08         0.00000E+00
    0.48164E-07         0.11262E-08         0.00000E+00
    0.48190E-07         0.11639E-08         0.00000E+00
    0.48218E-07         0.11959E-08         0.00000E+00
    0.48246E-07         0.12225E-08         0.00000E+00
    0.48276E-07         0.12437E-08         0.00000E+00
    0.48306E-07         0.12600E-08         0.00000E+00
    0.48337E-07         0.12713E-08         0.00000E+00
    0.48369E-07         0.12780E-08         0.00000E+00
    0.48401E-07         0.12801E-08         0.00000E+00
    0.48434E-07         0.12779E-08         0.00000E+00
    0.48467E-07         0.12716E-08         0.00000E+00
    0.48499E-07         0.12612E-08         0.00000E+00
    0.48532E-07         0.12470E-08         0.00000E+00
    0.48565E-07         0.12291E-08         0.00000E+00
    0.48598E-07         0.12076E-08         0.00000E+00
    0.48630E-07         0.11827E-08         0.00000E+00
    0.48662E-07         0.11544E-08         0.00000E+00
    0.48694E-07         0.11230E-08         0.00000E+00
    0.48725E-07         0.10886E-08         0.00000E+00
    0.48755E-07         0.10512E-08         0.00000E+00
    0.48785E-07         0.10111E-08         0.00000E+00
    0.48814E-07         0.96822E-09         0.00000E+00
    0.48841E-07         0.92280E-09         0.00000E+00
    0.48868E-07         0.87492E-09         0.00000E+00
    0.48893E-07         0.82469E-09         0.00000E+00
    0.48918E-07         0.77220E-09         0.00000E+00
    0.48940E-07         0.71755E-09         0.00000E+00
    0.48962E-07         0.66086E-09         0.00000E+00
    0.48981E-07         0.60220E-09         0.00000E+00
    0.49000E-07         0.54167E-09         0.00000E+00
    0.49016E-07         0.47936E-09         0.00000E+00
    0.49030E-07         0.41535E-09         0.00000E+00
    0.49043E-07         0.34972E-09         0.00000E+00
    0.49053E-07         0.28255E-09         0.00000E+00
    0.49062E-07         0.21392E-09         0.00000E+00
    0.49068E-07         0.14389E-09         0.00000E+00
    0.49072E-07         0.72530E-10         0.00000E+00
    0.49073E-07         0.36524E-10         0.00000E+00
    0.52506E-07         0.61365E-10         0.00000E+00
    0.52508E-07         0.11969E-09         0.00000E+00
    0.52514E-07         0.23192E-09         0.00000E+00
    0.52523E-07         0.33554E-09         0.00000E+00
    0.52535E-07         0.43094E-09         0.00000E+00
    0.52550E-07         0.51849E-09         0.00000E+00
    0.52569E-07         0.59854E-09         0.00000E+00
    0.52590E-07         0.67145E-09         0.00000E+00
    0.52614E-07         0.73752E-09         0.00000E+00
    0.52640E-07         0.79706E-09         0.00000E+00
    0.52668E-07         0.85037E-09         0.00000E+00
    0.52699E-07         0.89771E-09         0.00000E+00
    0.52731E-07         0.93935E-09         0.00000E+00
    0.52765E-07         0.97554E-09         0.00000E+00
    0.52800E-07         0.10065E-08         0.00000E+00
    0.52837E-07         0.10325E-08         0.00000E+00
    0.52876E-07         0.10536E-08         0.00000E+00
    0.52915E-07         0.10702E-08         0.00000E+00
    0.52955E-07         0.10824E-08         0.00000E+00
    0.52996E-07         0.10904E-08         0.00000E+00
    0.53038E-07         0.10944E-08         0.00000E+00
    0.53080E-07         0.10945E-08         0.00000E+00
    0.53122E-07         0.10908E-08         0.00000E+00
    0.53165E-07         0.10836E-08         0.00000E+00
    0.53207E-07         0.10731E-08         0.00000E+00
    0.53250E-07         0.10592E-08         0.00000E+00
    0.53292E-07         0.10422E-08         0.00000E+00
    0.53334E-07         0.10223E-08         0.00000E+00
    0.53375E-07         0.99944E-09         0.00000E+00
    0.53416E-07         0.97387E-09         0.00000E+00
    0.53456E-07         0.94569E-09         0.00000E+00
    0.53495E-07         0.91501E-09         0.00000E+00
    0.53534E-07         0.88195E-09         0.00000E+00
    0.53571E-07         0.84663E-09         0.00000E+00
    0.53607E-07         0.80917E-09         0.00000E+00
    0.53642E-07         0.76966E-09         0.00000E+00
    0.53675E-07         0.72822E-09         0.00000E+00
    0.53707E-07         0.68495E-09         0.00000E+00
    0.53738E-07         0.63997E-09         0.00000E+00
    0.53766E-07         0.59336E-09         0.00000E+00
    0.53793E-07         0.54523E-09         0.00000E+00
    0.53817E-07         0.49568E-09         0.00000E+00
    0.53840E-07         0.44480E-09         0.00000E+00
    0.53860E-07         0.39268E-09         0.00000E+00
    0.53879E-07         0.33941E-09         0.00000E+00
    0.53894E-07         0.28507E-09         0.00000E+00
    0.53907E-07         0.22974E-09         0.00000E+00
    0.53918E-07         0.17350E-09         0.00000E+00
    0.53925E-07         0.11641E-09         0.00000E+00
    0.53930E-07         0.58537E-10         0.00000E+00
    0.53931E-07         0.29414E-10         0.00000E+00
    0.57580E-07         0.50472E-10         0.00000E+00
    0.57582E-07         0.98255E-10         0.00000E+00
    0.57589E-07         0.18995E-09         0.00000E+00
    0.57601E-07         0.27410E-09         0.00000E+00
    0.57618E-07         0.35110E-09         0.00000E+00
    0.57638E-07         0.42134E-09         0.00000E+00
    0.57662E-07         0.48516E-09         0.00000E+00
    0.57690E-07         0.54291E-09         0.00000E+00
    0.57721E-07         0.59489E-09         0.00000E+00
    0.57755E-07         0.64140E-09         0.00000E+00
    0.57791E-07         0.68271E-09         0.00000E+00
    0.57831E-07         0.71909E-09         0.00000E+00
    0.57872E-07         0.75077E-09         0.00000E+00
    0.57916E-07         0.77799E-09         0.00000E+00
    0.57961E-07         0.80096E-09         0.00000E+00
    0.58008E-07         0.81988E-09         0.00000E+00
    0.58056E-07         0.83494E-09         0.00000E+00
    0.58106E-07         0.84633E-09         0.00000E+00
    0.58156E-07         0.85420E-09         0.00000E+00
    0.58207E-07         0.85871E-09         0.00000E+00
    0.58259E-07         0.86003E-09         0.00000E+00
    0.58311E-07         0.85828E-09         0.00000E+00
    0.58364E-07         0.85362E-09         0.00000E+00
    0.58416E-07         0.84616E-09         0.00000E+00
    0.58469E-07         0.83604E-09         0.00000E+00
    0.58521E-07         0.82338E-09         0.00000E+00
    0.58572E-07         0.80829E-09         0.00000E+00
    0.58623E-07         0.79089E-09         0.00000E+00
    0.58674E-07         0.77129E-09         0.00000E+00
    0.58723E-07         0.74960E-09         0.00000E+00
    0.58772E-07         0.72594E-09         0.00000E+00
    0.58819E-07         0.70040E-09         0.00000E+00
    0.58865E-07         0.67310E-09         0.00000E+00
    0.58910E-07         0.64414E-09         0.00000E+00
    0.58953E-07         0.61364E-09         0.00000E+00
    0.58995E-07         0.58169E-09         0.00000E+00
    0.59035E-07         0.54841E-09         0.00000E+00
    0.59073E-07         0.51389E-09         0.00000E+00
    0.59109E-07         0.47826E-09         0.00000E+00
    0.59143E-07         0.44161E-09         0.00000E+00
    0.59175E-07         0.40405E-09         0.00000E+00
    0.59204E-07         0.36568E-09         0.00000E+00
    0.59231E-07         0.32661E-09         0.00000E+00
    0.59255E-07         0.28693E-09         0.00000E+00
    0.59277E-07         0.24675E-09         0.00000E+00
    0.59296E-07         0.20616E-09         0.00000E+00
    0.59311E-07         0.16525E-09         0.00000E+00
    0.59323E-07         0.12410E-09         0.00000E+00
    0.59333E-07         0.82800E-10         0.00000E+00
    0.59338E-07         0.41411E-10         0.00000E+00
    0.59340E-07         0.20704E-10         0.00000E+00
    0.63254E-07         0.36160E-10         0.00000E+00
    0.63258E-07         0.70178E-10         0.00000E+00
    0.63267E-07         0.13515E-09         0.00000E+00
    0.63282E-07         0.19420E-09         0.00000E+00
    0.63303E-07         0.24772E-09         0.00000E+00
    0.63329E-07         0.29605E-09         0.00000E+00
    0.63359E-07         0.33952E-09         0.00000E+00
    0.63394E-07         0.37846E-09         0.00000E+00
    0.63433E-07         0.41313E-09         0.00000E+00
    0.63475E-07         0.44381E-09         0.00000E+00
    0.63520E-07         0.47073E-09         0.00000E+00
    0.63569E-07         0.49411E-09         0.00000E+00
    0.63620E-07         0.51416E-09         0.00000E+00
    0.63673E-07         0.53107E-09         0.00000E+00
    0.63728E-07         0.54501E-09         0.00000E+00
    0.63786E-07         0.55615E-09         0.00000E+00
    0.63844E-07         0.56462E-09         0.00000E+00
    0.63904E-07         0.57057E-09         0.00000E+00
    0.63965E-07         0.57411E-09         0.00000E+00
    0.64026E-07         0.57538E-09         0.00000E+00
    0.64088E-07         0.57446E-09         0.00000E+00
    0.64150E-07         0.57148E-09         0.00000E+00
    0.64212E-07         0.56652E-09         0.00000E+00
    0.64274E-07         0.55967E-09         0.00000E+00
    0.64336E-07         0.55103E-09         0.00000E+00
    0.64397E-07         0.54067E-09         0.00000E+00
    0.64457E-07         0.52869E-09         0.00000E+00
    0.64517E-07         0.51517E-09         0.00000E+00
    0.64575E-07         0.50018E-09         0.00000E+00
    0.64632E-07         0.48382E-09         0.00000E+00
    0.64688E-07         0.46617E-09         0.00000E+00
    0.64743E-07         0.44731E-09         0.00000E+00
    0.64796E-07         0.42734E-09         0.00000E+00
    0.64847E-07         0.40636E-09         0.00000E+00
    0.64897E-07         0.38445E-09         0.00000E+00
    0.64944E-07         0.36172E-09         0.00000E+00
    0.64990E-07         0.33828E-09         0.00000E+00
    0.65033E-07         0.31424E-09         0.00000E+00
    0.65074E-07         0.28970E-09         0.00000E+00
    0.65113E-07         0.26478E-09         0.00000E+00
    0.65149E-07         0.23961E-09         0.00000E+00
    0.65182E-07         0.21430E-09         0.00000E+00
    0.65212E-07         0.18897E-09         0.00000E+00
    0.65240E-07         0.16375E-09         0.00000E+00
    0.65264E-07         0.13877E-09         0.00000E+00
    0.65285E-07         0.11413E-09         0.00000E+00
    0.65303E-07         0.89957E-10         0.00000E+00
    0.65317E-07         0.66364E-10         0.00000E+00
    0.65328E-07         0.43456E-10         0.00000E+00
    0.65334E-07         0.21332E-10         0.00000E+00
    0.65336E-07         0.10478E-10         0.00000E+00
    0.69591E-07         0.18124E-10         0.00000E+00
    0.69595E-07         0.34883E-10         0.00000E+00
    0.69607E-07         0.66491E-10         0.00000E+00
    0.69625E-07         0.94457E-10         0.00000E+00
    0.69651E-07         0.11912E-09         0.00000E+00
    0.69682E-07         0.14079E-09         0.00000E+00
    0.69719E-07         0.15974E-09         0.00000E+00
    0.69761E-07         0.17622E-09         0.00000E+00
    0.69808E-07         0.19046E-09         0.00000E+00
    0.69858E-07         0.20266E-09         0.00000E+00
    0.69913E-07         0.21299E-09         0.00000E+00
    0.69970E-07         0.22162E-09         0.00000E+00
    0.70031E-07         0.22867E-09         0.00000E+00
    0.70094E-07         0.23429E-09         0.00000E+00
    0.70159E-07         0.23856E-09         0.00000E+00
    0.70226E-07         0.24158E-09         0.00000E+00
    0.70294E-07         0.24342E-09         0.00000E+00
    0.70364E-07         0.24417E-09         0.00000E+00
    0.70434E-07         0.24387E-09         0.00000E+00
    0.70505E-07         0.24258E-09         0.00000E+00
    0.70576E-07         0.24033E-09         0.00000E+00
    0.70647E-07         0.23717E-09         0.00000E+00
    0.70718E-07         0.23314E-09         0.00000E+00
    0.70788E-07         0.22825E-09         0.00000E+00
    0.70858E-07         0.22255E-09         0.00000E+00
    0.70926E-07         0.21605E-09         0.00000E+00
    0.70994E-07         0.20880E-09         0.00000E+00
    0.71060E-07         0.20083E-09         0.00000E+00
    0.71125E-07         0.19217E-09         0.00000E+00
    0.71189E-07         0.18287E-09         0.00000E+00
    0.71250E-07         0.17297E-09         0.00000E+00
    0.71310E-07         0.16252E-09         0.00000E+00
    0.71368E-07         0.15160E-09         0.00000E+00
    0.71424E-07         0.14027E-09         0.00000E+00
    0.71478E-07         0.12861E-09         0.00000E+00
    0.71529E-07         0.11672E-09         0.00000E+00
    0.71578E-07         0.10468E-09         0.00000E+00
    0.71625E-07         0.92630E-10         0.00000E+00
    0.71669E-07         0.80675E-10         0.00000E+00
    0.71710E-07         0.68951E-10         0.00000E+00
    0.71749E-07         0.57601E-10         0.00000E+00
    0.71784E-07         0.46776E-10         0.00000E+00
    0.71817E-07         0.36634E-10         0.00000E+00
    0.71846E-07         0.27339E-10         0.00000E+00
    0.71872E-07         0.19061E-10         0.00000E+00
    0.71895E-07         0.11971E-10         0.00000E+00
    0.71914E-07         0.62406E-11         0.00000E+00
    0.71929E-07         0.20389E-11         0.00000E+00
    0.71940E-07        -0.47308E-12         0.00000E+00
    0.71947E-07        -0.11438E-11         0.00000E+00
    0.71950E-07        -0.10004E-11         0.00000E+00
    0.76648E-07        -0.38574E-11         0.00000E+00
    0.76652E-07        -0.80243E-11         0.00000E+00
    0.76666E-07        -0.16715E-10         0.00000E+00
    0.76689E-07        -0.25981E-10         0.00000E+00
    0.76719E-07        -0.35571E-10         0.00000E+00
    0.76756E-07        -0.45265E-10         0.00000E+00
    0.76799E-07        -0.54877E-10         0.00000E+00
    0.76848E-07        -0.64254E-10         0.00000E+00
    0.76903E-07        -0.73267E-10         0.00000E+00
    0.76961E-07        -0.81817E-10         0.00000E+00
    0.77024E-07        -0.89825E-10         0.00000E+00
    0.77091E-07        -0.97235E-10         0.00000E+00
    0.77160E-07        -0.10401E-09         0.00000E+00
    0.77232E-07        -0.11013E-09         0.00000E+00
    0.77306E-07        -0.11559E-09         0.00000E+00
    0.77382E-07        -0.12041E-09         0.00000E+00
    0.77459E-07        -0.12459E-09         0.00000E+00
    0.77537E-07        -0.12817E-09         0.00000E+00
    0.77616E-07        -0.13119E-09         0.00000E+00
    0.77694E-07        -0.13369E-09         0.00000E+00
    0.77773E-07        -0.13572E-09         0.00000E+00
    0.77851E-07        -0.13734E-09         0.00000E+00
    0.77928E-07        -0.13860E-09         0.00000E+00
    0.78005E-07        -0.13956E-09         0.00000E+00
    0.78080E-07        -0.14026E-09         0.00000E+00
    0.78154E-07        -0.14076E-09         0.00000E+00
    0.78226E-07        -0.14111E-09         0.00000E+00
    0.78296E-07        -0.14134E-09         0.00000E+00
    0.78365E-07        -0.14149E-09         0.00000E+00
    0.78432E-07        -0.14158E-09         0.00000E+00
    0.78496E-07        -0.14163E-09         0.00000E+00
    0.78558E-07        -0.14164E-09         0.00000E+00
    0.78618E-07        -0.14158E-09         0.00000E+00
    0.78675E-07        -0.14144E-09         0.00000E+00
    0.78730E-07        -0.14115E-09         0.00000E+00
    0.78782E-07        -0.14067E-09         0.00000E+00
    0.78831E-07        -0.13989E-09         0.00000E+00
    0.78878E-07        -0.13870E-09         0.00000E+00
    0.78922E-07        -0.13699E-09         0.00000E+00
    0.78963E-07        -0.13458E-09         0.00000E+00
    0.79001E-07        -0.13132E-09         0.00000E+00
    0.79036E-07        -0.12698E-09         0.00000E+00
    0.79068E-07        -0.12137E-09         0.00000E+00
    0.79097E-07        -0.11423E-09         0.00000E+00
    0.79123E-07        -0.10533E-09         0.00000E+00
    0.79145E-07        -0.94392E-10         0.00000E+00
    0.79164E-07        -0.81157E-10         0.00000E+00
    0.79179E-07        -0.65345E-10         0.00000E+00
    0.79191E-07        -0.46675E-10         0.00000E+00
    0.79197E-07        -0.24870E-10         0.00000E+00
    0.79200E-07        -0.13151E-10         0.00000E+00
    0.84477E-07        -0.29869E-10         0.00000E+00
    0.84483E-07        -0.58662E-10         0.00000E+00
    0.84499E-07        -0.11458E-09         0.00000E+00
    0.84524E-07        -0.16709E-09         0.00000E+00
    0.84559E-07        -0.21607E-09         0.00000E+00
    0.84601E-07        -0.26146E-09         0.00000E+00
    0.84651E-07        -0.30322E-09         0.00000E+00
    0.84707E-07        -0.34134E-09         0.00000E+00
    0.84768E-07        -0.37583E-09         0.00000E+00
    0.84834E-07        -0.40675E-09         0.00000E+00
    0.84905E-07        -0.43418E-09         0.00000E+00
    0.84979E-07        -0.45818E-09         0.00000E+00
    0.85056E-07        -0.47889E-09         0.00000E+00
    0.85136E-07        -0.49641E-09         0.00000E+00
    0.85217E-07        -0.51088E-09         0.00000E+00
    0.85300E-07        -0.52246E-09         0.00000E+00
    0.85383E-07        -0.53128E-09         0.00000E+00
    0.85467E-07        -0.53752E-09         0.00000E+00
    0.85552E-07        -0.54134E-09         0.00000E+00
    0.85636E-07        -0.54291E-09         0.00000E+00
    0.85719E-07        -0.54240E-09         0.00000E+00
    0.85801E-07        -0.53998E-09         0.00000E+00
    0.85882E-07        -0.53583E-09         0.00000E+00
    0.85961E-07        -0.53012E-09         0.00000E+00
    0.86039E-07        -0.52300E-09         0.00000E+00
    0.86115E-07        -0.51464E-09         0.00000E+00
    0.86188E-07        -0.50520E-09         0.00000E+00
    0.86259E-07        -0.49481E-09         0.00000E+00
    0.86327E-07        -0.48360E-09         0.00000E+00
    0.86393E-07        -0.47171E-09         0.00000E+00
    0.86456E-07        -0.45923E-09         0.00000E+00
    0.86515E-07        -0.44625E-09         0.00000E+00
    0.86572E-07        -0.43284E-09         0.00000E+00
    0.86626E-07        -0.41905E-09         0.00000E+00
    0.86677E-07        -0.40489E-09         0.00000E+00
    0.86725E-07        -0.39036E-09         0.00000E+00
    0.86770E-07        -0.37541E-09         0.00000E+00
    0.86812E-07        -0.35996E-09         0.00000E+00
    0.86850E-07        -0.34388E-09         0.00000E+00
    0.86886E-07        -0.32703E-09         0.00000E+00
    0.86919E-07        -0.30917E-09         0.00000E+00
    0.86950E-07        -0.29007E-09         0.00000E+00
    0.86977E-07        -0.26941E-09         0.00000E+00
    0.87002E-07        -0.24686E-09         0.00000E+00
    0.87023E-07        -0.22202E-09         0.00000E+00
    0.87042E-07        -0.19445E-09         0.00000E+00
    0.87058E-07        -0.16370E-09         0.00000E+00
    0.87071E-07        -0.12930E-09         0.00000E+00
    0.87081E-07        -0.90796E-10         0.00000E+00
    0.87087E-07        -0.47727E-10         0.00000E+00
    0.87089E-07        -0.24991E-10         0.00000E+00
    0.93122E-07        -0.59775E-10         0.00000E+00
    0.93128E-07        -0.11670E-09         0.00000E+00
    0.93146E-07        -0.22632E-09         0.00000E+00
    0.93175E-07        -0.32749E-09         0.00000E+00
    0.93214E-07        -0.42032E-09         0.00000E+00
    0.93261E-07        -0.50497E-09         0.00000E+00
    0.93315E-07        -0.58160E-09         0.00000E+00
    0.93377E-07        -0.65043E-09         0.00000E+00
    0.93444E-07        -0.71171E-09         0.00000E+00
    0.93516E-07        -0.76567E-09         0.00000E+00
    0.93592E-07        -0.81261E-09         0.00000E+00
    0.93671E-07        -0.85282E-09         0.00000E+00
    0.93754E-07        -0.88658E-09         0.00000E+00
    0.93838E-07        -0.91423E-09         0.00000E+00
    0.93924E-07        -0.93606E-09         0.00000E+00
    0.94010E-07        -0.95241E-09         0.00000E+00
    0.94098E-07        -0.96361E-09         0.00000E+00
    0.94185E-07        -0.96997E-09         0.00000E+00
    0.94271E-07        -0.97182E-09         0.00000E+00
    0.94357E-07        -0.96949E-09         0.00000E+00
    0.94441E-07        -0.96329E-09         0.00000E+00
    0.94524E-07        -0.95354E-09         0.00000E+00
    0.94604E-07        -0.94056E-09         0.00000E+00
    0.94683E-07        -0.92464E-09         0.00000E+00
    0.94758E-07        -0.90609E-09         0.00000E+00
    0.94831E-07        -0.88520E-09         0.00000E+00
    0.94901E-07        -0.86225E-09         0.00000E+00
    0.94968E-07        -0.83752E-09         0.00000E+00
    0.95031E-07        -0.81127E-09         0.00000E+00
    0.95090E-07        -0.78375E-09         0.00000E+00
    0.95146E-07        -0.75520E-09         0.00000E+00
    0.95199E-07        -0.72583E-09         0.00000E+00
    0.95247E-07        -0.69584E-09         0.00000E+00
    0.95292E-07        -0.66542E-09         0.00000E+00
    0.95333E-07        -0.63470E-09         0.00000E+00
    0.95371E-07        -0.60380E-09         0.00000E+00
    0.95404E-07        -0.57279E-09         0.00000E+00
    0.95435E-07        -0.54170E-09         0.00000E+00
    0.95461E-07        -0.51051E-09         0.00000E+00
    0.95485E-07        -0.47911E-09         0.00000E+00
    0.95506E-07        -0.44734E-09         0.00000E+00
    0.95524E-07        -0.41491E-09         0.00000E+00
    0.95539E-07        -0.38144E-09         0.00000E+00
    0.95553E-07        -0.34645E-09         0.00000E+00
    0.95564E-07        -0.30936E-09         0.00000E+00
    0.95574E-07        -0.26953E-09         0.00000E+00
    0.95582E-07        -0.22620E-09         0.00000E+00
    0.95589E-07        -0.17846E-09         0.00000E+00
    0.95594E-07        -0.12532E-09         0.00000E+00
    0.95598E-07        -0.65839E-10         0.00000E+00
    0.95599E-07        -0.34403E-10         0.00000E+00
    0.10261E-06        -0.93076E-10         0.00000E+00
    0.10261E-06        -0.18110E-09         0.00000E+00
    0.10263E-06        -0.34974E-09         0.00000E+00
    0.10267E-06        -0.50374E-09         0.00000E+00
    0.10271E-06        -0.64355E-09         0.00000E+00
    0.10276E-06        -0.76963E-09         0.00000E+00
    0.10281E-06        -0.88250E-09         0.00000E+00
    0.10288E-06        -0.98265E-09         0.00000E+00
    0.10295E-06        -0.10706E-08         0.00000E+00
    0.10302E-06        -0.11470E-08         0.00000E+00
    0.10310E-06        -0.12123E-08         0.00000E+00
    0.10318E-06        -0.12671E-08         0.00000E+00
    0.10327E-06        -0.13119E-08         0.00000E+00
    0.10335E-06        -0.13474E-08         0.00000E+00
    0.10344E-06        -0.13739E-08         0.00000E+00
    0.10353E-06        -0.13922E-08         0.00000E+00
    0.10361E-06        -0.14026E-08         0.00000E+00
    0.10370E-06        -0.14058E-08         0.00000E+00
    0.10378E-06        -0.14022E-08         0.00000E+00
    0.10386E-06        -0.13923E-08         0.00000E+00
    0.10394E-06        -0.13767E-08         0.00000E+00
    0.10402E-06        -0.13557E-08         0.00000E+00
    0.10410E-06        -0.13299E-08         0.00000E+00
    0.10417E-06        -0.12997E-08         0.00000E+00
    0.10424E-06        -0.12656E-08         0.00000E+00
    0.10430E-06        -0.12279E-08         0.00000E+00
    0.10436E-06        -0.11871E-08         0.00000E+00
    0.10442E-06        -0.11436E-08         0.00000E+00
    0.10447E-06        -0.10979E-08         0.00000E+00
    0.10452E-06        -0.10503E-08         0.00000E+00
    0.10457E-06        -0.10011E-08         0.00000E+00
    0.10461E-06        -0.95088E-09         0.00000E+00
    0.10464E-06        -0.89988E-09         0.00000E+00
    0.10467E-06        -0.84849E-09         0.00000E+00
    0.10469E-06        -0.79705E-09         0.00000E+00
    0.10472E-06        -0.74589E-09         0.00000E+00
    0.10473E-06        -0.69531E-09         0.00000E+00
    0.10474E-06        -0.64554E-09         0.00000E+00
    0.10475E-06        -0.59679E-09         0.00000E+00
    0.10475E-06        -0.54920E-09         0.00000E+00
    0.10475E-06        -0.50288E-09         0.00000E+00
    0.10475E-06        -0.45789E-09         0.00000E+00
    0.10474E-06        -0.41412E-09         0.00000E+00
    0.10473E-06        -0.37120E-09         0.00000E+00
    0.10472E-06        -0.32848E-09         0.00000E+00
    0.10471E-06        -0.28487E-09         0.00000E+00
    0.10470E-06        -0.23899E-09         0.00000E+00
    0.10469E-06        -0.18933E-09         0.00000E+00
    0.10469E-06        -0.13427E-09         0.00000E+00
    0.10468E-06        -0.71699E-10         0.00000E+00
    0.10468E-06        -0.38226E-10         0.00000E+00
    0.11293E-06        -0.12871E-09         0.00000E+00
    0.11294E-06        -0.24970E-09         0.00000E+00
    0.11296E-06        -0.48047E-09         0.00000E+00
    0.11299E-06        -0.68924E-09         0.00000E+00
    0.11303E-06        -0.87693E-09         0.00000E+00
    0.11309E-06        -0.10445E-08         0.00000E+00
    0.11314E-06        -0.11928E-08         0.00000E+00
    0.11321E-06        -0.13229E-08         0.00000E+00
    0.11328E-06        -0.14357E-08         0.00000E+00
    0.11335E-06        -0.15321E-08         0.00000E+00
    0.11343E-06        -0.16131E-08         0.00000E+00
    0.11350E-06        -0.16794E-08         0.00000E+00
    0.11358E-06        -0.17321E-08         0.00000E+00
    0.11366E-06        -0.17719E-08         0.00000E+00
    0.11374E-06        -0.17996E-08         0.00000E+00
    0.11383E-06        -0.18161E-08         0.00000E+00
    0.11390E-06        -0.18221E-08         0.00000E+00
    0.11398E-06        -0.18183E-08         0.00000E+00
    0.11406E-06        -0.18055E-08         0.00000E+00
    0.11413E-06        -0.17843E-08         0.00000E+00
    0.11420E-06        -0.17553E-08         0.00000E+00
    0.11427E-06        -0.17192E-08         0.00000E+00
    0.11433E-06        -0.16767E-08         0.00000E+00
    0.11439E-06        -0.16282E-08         0.00000E+00
    0.11445E-06        -0.15744E-08         0.00000E+00
    0.11450E-06        -0.15158E-08         0.00000E+00
    0.11455E-06        -0.14529E-08         0.00000E+00
    0.11459E-06        -0.13863E-08         0.00000E+00
    0.11463E-06        -0.13166E-08         0.00000E+00
    0.11466E-06        -0.12442E-08         0.00000E+00
    0.11468E-06        -0.11696E-08         0.00000E+00
    0.11470E-06        -0.10934E-08         0.00000E+00
    0.11472E-06        -0.10162E-08         0.00000E+00
    0.11473E-06        -0.93844E-09         0.00000E+00
    0.11473E-06        -0.86068E-09         0.00000E+00
    0.11473E-06        -0.78344E-09         0.00000E+00
    0.11472E-06        -0.70733E-09         0.00000E+00
    0.11471E-06        -0.63299E-09         0.00000E+00
    0.11469E-06        -0.56106E-09         0.00000E+00
    0.11467E-06        -0.49212E-09         0.00000E+00
    0.11464E-06        -0.42660E-09         0.00000E+00
    0.11460E-06        -0.36478E-09         0.00000E+00
    0.11457E-06        -0.30704E-09         0.00000E+00
    0.11452E-06        -0.25401E-09         0.00000E+00
    0.11448E-06        -0.20650E-09         0.00000E+00
    0.11444E-06        -0.16539E-09         0.00000E+00
    0.11439E-06        -0.13090E-09         0.00000E+00
    0.11435E-06        -0.10133E-09         0.00000E+00
    0.11431E-06        -0.72874E-10         0.00000E+00
    0.11428E-06        -0.40829E-10         0.00000E+00
    0.11427E-06        -0.23298E-10         0.00000E+00
    0.12406E-06        -0.16475E-09         0.00000E+00
    0.12406E-06        -0.31870E-09         0.00000E+00
    0.12408E-06        -0.61097E-09         0.00000E+00
    0.12411E-06        -0.87284E-09         0.00000E+00
    0.12415E-06        -0.11059E-08         0.00000E+00
    0.12420E-06        -0.13117E-08         0.00000E+00
    0.12425E-06        -0.14918E-08         0.00000E+00
    0.12431E-06        -0.16477E-08         0.00000E+00
    0.12437E-06        -0.17809E-08         0.00000E+00
    0.12444E-06        -0.18928E-08         0.00000E+00
    0.12450E-06        -0.19848E-08         0.00000E+00
    0.12457E-06        -0.20581E-08         0.00000E+00
    0.12464E-06        -0.21141E-08         0.00000E+00
    0.12471E-06        -0.21538E-08         0.00000E+00
    0.12478E-06        -0.21784E-08         0.00000E+00
    0.12484E-06        -0.21891E-08         0.00000E+00
    0.12491E-06        -0.21867E-08         0.00000E+00
    0.12497E-06        -0.21722E-08         0.00000E+00
    0.12503E-06        -0.21465E-08         0.00000E+00
    0.12508E-06        -0.21106E-08         0.00000E+00
    0.12514E-06        -0.20651E-08         0.00000E+00
    0.12518E-06        -0.20108E-08         0.00000E+00
    0.12523E-06        -0.19485E-08         0.00000E+00
    0.12527E-06        -0.18788E-08         0.00000E+00
    0.12531E-06        -0.18024E-08         0.00000E+00
    0.12534E-06        -0.17199E-08         0.00000E+00
    0.12537E-06        -0.16320E-08         0.00000E+00
    0.12539E-06        -0.15393E-08         0.00000E+00
    0.12540E-06        -0.14422E-08         0.00000E+00
    0.12541E-06        -0.13416E-08         0.00000E+00
    0.12542E-06        -0.12379E-08         0.00000E+00
    0.12542E-06        -0.11319E-08         0.00000E+00
    0.12541E-06        -0.10240E-08         0.00000E+00
    0.12539E-06        -0.91503E-09         0.00000E+00
    0.12537E-06        -0.80580E-09         0.00000E+00
    0.12535E-06        -0.69708E-09         0.00000E+00
    0.12531E-06        -0.58955E-09         0.00000E+00
    0.12527E-06        -0.48378E-09         0.00000E+00
    0.12522E-06        -0.38046E-09         0.00000E+00
    0.12517E-06        -0.28073E-09         0.00000E+00
    0.12511E-06        -0.18625E-09         0.00000E+00
    0.12504E-06        -0.99070E-10         0.00000E+00
    0.12497E-06        -0.20813E-10         0.00000E+00
    0.12489E-06         0.48178E-10         0.00000E+00
    0.12481E-06         0.10797E-09         0.00000E+00
    0.12472E-06         0.15820E-09         0.00000E+00
    0.12464E-06         0.19715E-09         0.00000E+00
    0.12457E-06         0.21788E-09         0.00000E+00
    0.12451E-06         0.20254E-09         0.00000E+00
    0.12447E-06         0.12728E-09         0.00000E+00
    0.12445E-06         0.71769E-10         0.00000E+00
    0.13588E-06        -0.19813E-09         0.00000E+00
    0.13589E-06        -0.38202E-09         0.00000E+00
    0.13590E-06        -0.72943E-09         0.00000E+00
    0.13593E-06        -0.10373E-08         0.00000E+00
    0.13596E-06        -0.13083E-08         0.00000E+00
    0.13600E-06        -0.15446E-08         0.00000E+00
    0.13604E-06        -0.17487E-08         0.00000E+00
    0.13608E-06        -0.19228E-08         0.00000E+00
    0.13613E-06        -0.20690E-08         0.00000E+00
    0.13618E-06        -0.21893E-08         0.00000E+00
    0.13623E-06        -0.22856E-08         0.00000E+00
    0.13627E-06        -0.23596E-08         0.00000E+00
    0.13632E-06        -0.24130E-08         0.00000E+00
    0.13637E-06        -0.24475E-08         0.00000E+00
    0.13641E-06        -0.24643E-08         0.00000E+00
    0.13645E-06        -0.24649E-08         0.00000E+00
    0.13649E-06        -0.24505E-08         0.00000E+00
    0.13652E-06        -0.24221E-08         0.00000E+00
    0.13656E-06        -0.23810E-08         0.00000E+00
    0.13659E-06        -0.23280E-08         0.00000E+00
    0.13661E-06        -0.22641E-08         0.00000E+00
    0.13663E-06        -0.21901E-08         0.00000E+00
    0.13665E-06        -0.21068E-08         0.00000E+00
    0.13667E-06        -0.20148E-08         0.00000E+00
    0.13667E-06        -0.19150E-08         0.00000E+00
    0.13668E-06        -0.18078E-08         0.00000E+00
    0.13668E-06        -0.16941E-08         0.00000E+00
    0.13667E-06        -0.15744E-08         0.00000E+00
    0.13666E-06        -0.14493E-08         0.00000E+00
    0.13665E-06        -0.13194E-08         0.00000E+00
    0.13662E-06        -0.11853E-08         0.00000E+00
    0.13660E-06        -0.10479E-08         0.00000E+00
    0.13656E-06        -0.90779E-09         0.00000E+00
    0.13652E-06        -0.76562E-09         0.00000E+00
    0.13647E-06        -0.62184E-09         0.00000E+00
    0.13642E-06        -0.47722E-09         0.00000E+00
    0.13635E-06        -0.33322E-09         0.00000E+00
    0.13628E-06        -0.19184E-09         0.00000E+00
    0.13621E-06        -0.54806E-10         0.00000E+00
    0.13612E-06         0.77477E-10         0.00000E+00
    0.13603E-06         0.20551E-09         0.00000E+00
    0.13593E-06         0.32996E-09         0.00000E+00
    0.13583E-06         0.44903E-09         0.00000E+00
    0.13573E-06         0.55580E-09         0.00000E+00
    0.13563E-06         0.63558E-09         0.00000E+00
    0.13554E-06         0.67081E-09         0.00000E+00
    0.13547E-06         0.65316E-09         0.00000E+00
    0.13541E-06         0.57845E-09         0.00000E+00
    0.13536E-06         0.44179E-09         0.00000E+00
    0.13534E-06         0.24261E-09         0.00000E+00
    0.13533E-06         0.12763E-09         0.00000E+00
    0.14823E-06        -0.22429E-09         0.00000E+00
    0.14823E-06        -0.43083E-09         0.00000E+00
    0.14824E-06        -0.81875E-09         0.00000E+00
    0.14826E-06        -0.11582E-08         0.00000E+00
    0.14828E-06        -0.14529E-08         0.00000E+00
    0.14830E-06        -0.17063E-08         0.00000E+00
    0.14832E-06        -0.19216E-08         0.00000E+00
    0.14834E-06        -0.21019E-08         0.00000E+00
    0.14836E-06        -0.22502E-08         0.00000E+00
    0.14838E-06        -0.23690E-08         0.00000E+00
    0.14840E-06        -0.24608E-08         0.00000E+00
    0.14841E-06        -0.25278E-08         0.00000E+00
    0.14842E-06        -0.25722E-08         0.00000E+00
    0.14843E-06        -0.25958E-08         0.00000E+00
    0.14844E-06        -0.26003E-08         0.00000E+00
    0.14845E-06        -0.25873E-08         0.00000E+00
    0.14845E-06        -0.25581E-08         0.00000E+00
    0.14845E-06        -0.25141E-08         0.00000E+00
    0.14844E-06        -0.24564E-08         0.00000E+00
    0.14843E-06        -0.23859E-08         0.00000E+00
    0.14842E-06        -0.23037E-08         0.00000E+00
    0.14841E-06        -0.22104E-08         0.00000E+00
    0.14839E-06        -0.21070E-08         0.00000E+00
    0.14837E-06        -0.19940E-08         0.00000E+00
    0.14834E-06        -0.18721E-08         0.00000E+00
    0.14831E-06        -0.17418E-08         0.00000E+00
    0.14828E-06        -0.16038E-08         0.00000E+00
    0.14824E-06        -0.14586E-08         0.00000E+00
    0.14819E-06        -0.13067E-08         0.00000E+00
    0.14815E-06        -0.11488E-08         0.00000E+00
    0.14809E-06        -0.98531E-09         0.00000E+00
    0.14803E-06        -0.81659E-09         0.00000E+00
    0.14796E-06        -0.64326E-09         0.00000E+00
    0.14789E-06        -0.46660E-09         0.00000E+00
    0.14781E-06        -0.28856E-09         0.00000E+00
    0.14772E-06        -0.11030E-09         0.00000E+00
    0.14762E-06         0.69000E-10         0.00000E+00
    0.14751E-06         0.25102E-09         0.00000E+00
    0.14740E-06         0.43549E-09         0.00000E+00
    0.14729E-06         0.61656E-09         0.00000E+00
    0.14718E-06         0.77876E-09         0.00000E+00
    0.14708E-06         0.90505E-09         0.00000E+00
    0.14699E-06         0.98967E-09         0.00000E+00
    0.14691E-06         0.10308E-08         0.00000E+00
    0.14685E-06         0.10254E-08         0.00000E+00
    0.14680E-06         0.97355E-09         0.00000E+00
    0.14677E-06         0.87555E-09         0.00000E+00
    0.14676E-06         0.73104E-09         0.00000E+00
    0.14675E-06         0.53822E-09         0.00000E+00
    0.14676E-06         0.29115E-09         0.00000E+00
    0.14676E-06         0.15305E-09         0.00000E+00
    0.16082E-06        -0.23697E-09         0.00000E+00
    0.16082E-06        -0.45308E-09         0.00000E+00
    0.16082E-06        -0.85605E-09         0.00000E+00
    0.16082E-06        -0.12031E-08         0.00000E+00
    0.16082E-06        -0.14993E-08         0.00000E+00
    0.16081E-06        -0.17493E-08         0.00000E+00
    0.16080E-06        -0.19576E-08         0.00000E+00
    0.16079E-06        -0.21279E-08         0.00000E+00
    0.16077E-06        -0.22641E-08         0.00000E+00
    0.16075E-06        -0.23694E-08         0.00000E+00
    0.16072E-06        -0.24466E-08         0.00000E+00
    0.16069E-06        -0.24986E-08         0.00000E+00
    0.16066E-06        -0.25276E-08         0.00000E+00
    0.16062E-06        -0.25357E-08         0.00000E+00
    0.16058E-06        -0.25248E-08         0.00000E+00
    0.16054E-06        -0.24964E-08         0.00000E+00
    0.16049E-06        -0.24520E-08         0.00000E+00
    0.16044E-06        -0.23928E-08         0.00000E+00
    0.16039E-06        -0.23198E-08         0.00000E+00
    0.16034E-06        -0.22340E-08         0.00000E+00
    0.16028E-06        -0.21360E-08         0.00000E+00
    0.16022E-06        -0.20266E-08         0.00000E+00
    0.16016E-06        -0.19064E-08         0.00000E+00
    0.16010E-06        -0.17758E-08         0.00000E+00
    0.16003E-06        -0.16353E-08         0.00000E+00
    0.15996E-06        -0.14852E-08         0.00000E+00
    0.15989E-06        -0.13260E-08         0.00000E+00
    0.15981E-06        -0.11578E-08         0.00000E+00
    0.15973E-06        -0.98090E-09         0.00000E+00
    0.15964E-06        -0.79562E-09         0.00000E+00
    0.15955E-06        -0.60268E-09         0.00000E+00
    0.15945E-06        -0.40342E-09         0.00000E+00
    0.15934E-06        -0.19862E-09         0.00000E+00
    0.15923E-06         0.12888E-10         0.00000E+00
    0.15910E-06         0.23429E-09         0.00000E+00
    0.15898E-06         0.46508E-09         0.00000E+00
    0.15885E-06         0.69072E-09         0.00000E+00
    0.15872E-06         0.89048E-09         0.00000E+00
    0.15860E-06         0.10544E-08         0.00000E+00
    0.15850E-06         0.11790E-08         0.00000E+00
    0.15840E-06         0.12611E-08         0.00000E+00
    0.15833E-06         0.13002E-08         0.00000E+00
    0.15827E-06         0.12955E-08         0.00000E+00
    0.15823E-06         0.12478E-08         0.00000E+00
    0.15821E-06         0.11606E-08         0.00000E+00
    0.15821E-06         0.10357E-08         0.00000E+00
    0.15823E-06         0.87389E-09         0.00000E+00
    0.15826E-06         0.67813E-09         0.00000E+00
    0.15830E-06         0.45775E-09         0.00000E+00
    0.15833E-06         0.22840E-09         0.00000E+00
    0.15834E-06         0.11366E-09         0.00000E+00
    0.17323E-06        -0.22834E-09         0.00000E+00
    0.17322E-06        -0.43379E-09         0.00000E+00
    0.17321E-06        -0.81310E-09         0.00000E+00
    0.17318E-06        -0.11327E-08         0.00000E+00
    0.17315E-06        -0.13993E-08         0.00000E+00
    0.17311E-06        -0.16190E-08         0.00000E+00
    0.17305E-06        -0.17971E-08         0.00000E+00
    0.17299E-06        -0.19384E-08         0.00000E+00
    0.17292E-06        -0.20471E-08         0.00000E+00
    0.17285E-06        -0.21268E-08         0.00000E+00
    0.17277E-06        -0.21808E-08         0.00000E+00
    0.17268E-06        -0.22116E-08         0.00000E+00
    0.17260E-06        -0.22217E-08         0.00000E+00
    0.17250E-06        -0.22131E-08         0.00000E+00
    0.17241E-06        -0.21873E-08         0.00000E+00
    0.17232E-06        -0.21458E-08         0.00000E+00
    0.17222E-06        -0.20897E-08         0.00000E+00
    0.17212E-06        -0.20198E-08         0.00000E+00
    0.17202E-06        -0.19368E-08         0.00000E+00
    0.17192E-06        -0.18413E-08         0.00000E+00
    0.17182E-06        -0.17337E-08         0.00000E+00
    0.17172E-06        -0.16143E-08         0.00000E+00
    0.17161E-06        -0.14834E-08         0.00000E+00
    0.17151E-06        -0.13409E-08         0.00000E+00
    0.17140E-06        -0.11871E-08         0.00000E+00
    0.17129E-06        -0.10218E-08         0.00000E+00
    0.17118E-06        -0.84487E-09         0.00000E+00
    0.17107E-06        -0.65655E-09         0.00000E+00
    0.17095E-06        -0.45724E-09         0.00000E+00
    0.17083E-06        -0.24721E-09         0.00000E+00
    0.17070E-06        -0.25011E-10         0.00000E+00
    0.17057E-06         0.21327E-09         0.00000E+00
    0.17043E-06         0.46734E-09         0.00000E+00
    0.17029E-06         0.72205E-09         0.00000E+00
    0.17015E-06         0.95771E-09         0.00000E+00
    0.17001E-06         0.11652E-08         0.00000E+00
    0.16989E-06         0.13398E-08         0.00000E+00
    0.16977E-06         0.14769E-08         0.00000E+00
    0.16967E-06         0.15720E-08         0.00000E+00
    0.16958E-06         0.16208E-08         0.00000E+00
    0.16951E-06         0.16204E-08         0.00000E+00
    0.16945E-06         0.15692E-08         0.00000E+00
    0.16941E-06         0.14678E-08         0.00000E+00
    0.16940E-06         0.13161E-08         0.00000E+00
    0.16941E-06         0.11138E-08         0.00000E+00
    0.16944E-06         0.87347E-09         0.00000E+00
    0.16948E-06         0.62819E-09         0.00000E+00
    0.16952E-06         0.41064E-09         0.00000E+00
    0.16955E-06         0.23241E-09         0.00000E+00
    0.16958E-06         0.97270E-10         0.00000E+00
    0.16959E-06         0.41305E-10         0.00000E+00
    0.18483E-06        -0.18850E-09         0.00000E+00
    0.18482E-06        -0.35441E-09         0.00000E+00
    0.18479E-06        -0.65639E-09         0.00000E+00
    0.18473E-06        -0.90317E-09         0.00000E+00
    0.18466E-06        -0.11029E-08         0.00000E+00
    0.18457E-06        -0.12622E-08         0.00000E+00
    0.18447E-06        -0.13869E-08         0.00000E+00
    0.18435E-06        -0.14817E-08         0.00000E+00
    0.18423E-06        -0.15508E-08         0.00000E+00
    0.18410E-06        -0.15976E-08         0.00000E+00
    0.18396E-06        -0.16249E-08         0.00000E+00
    0.18382E-06        -0.16351E-08         0.00000E+00
    0.18368E-06        -0.16298E-08         0.00000E+00
    0.18354E-06        -0.16101E-08         0.00000E+00
    0.18340E-06        -0.15772E-08         0.00000E+00
    0.18326E-06        -0.15316E-08         0.00000E+00
    0.18312E-06        -0.14737E-08         0.00000E+00
    0.18298E-06        -0.14036E-08         0.00000E+00
    0.18284E-06        -0.13216E-08         0.00000E+00
    0.18271E-06        -0.12273E-08         0.00000E+00
    0.18257E-06        -0.11206E-08         0.00000E+00
    0.18244E-06        -0.10011E-08         0.00000E+00
    0.18231E-06        -0.86847E-09         0.00000E+00
    0.18218E-06        -0.72243E-09         0.00000E+00
    0.18205E-06        -0.56297E-09         0.00000E+00
    0.18192E-06        -0.39017E-09         0.00000E+00
    0.18178E-06        -0.20320E-09         0.00000E+00
    0.18165E-06         0.30978E-12         0.00000E+00
    0.18151E-06         0.22441E-09         0.00000E+00
    0.18138E-06         0.46760E-09         0.00000E+00
    0.18124E-06         0.71701E-09         0.00000E+00
    0.18111E-06         0.96054E-09         0.00000E+00
    0.18098E-06         0.11926E-08         0.00000E+00
    0.18086E-06         0.14081E-08         0.00000E+00
    0.18074E-06         0.16009E-08         0.00000E+00
    0.18064E-06         0.17642E-08         0.00000E+00
    0.18054E-06         0.18913E-08         0.00000E+00
    0.18045E-06         0.19761E-08         0.00000E+00
    0.18037E-06         0.20123E-08         0.00000E+00
    0.18031E-06         0.19939E-08         0.00000E+00
    0.18025E-06         0.19143E-08         0.00000E+00
    0.18021E-06         0.17672E-08         0.00000E+00
    0.18018E-06         0.15454E-08         0.00000E+00
    0.18017E-06         0.12630E-08         0.00000E+00
    0.18018E-06         0.96844E-09         0.00000E+00
    0.18020E-06         0.70303E-09         0.00000E+00
    0.18021E-06         0.47871E-09         0.00000E+00
    0.18023E-06         0.29571E-09         0.00000E+00
    0.18024E-06         0.15557E-09         0.00000E+00
    0.18025E-06         0.59612E-10         0.00000E+00
    0.18025E-06         0.22563E-10         0.00000E+00
    0.19476E-06        -0.10519E-09         0.00000E+00
    0.19474E-06        -0.19682E-09         0.00000E+00
    0.19469E-06        -0.36048E-09         0.00000E+00
    0.19460E-06        -0.48779E-09         0.00000E+00
    0.19449E-06        -0.58474E-09         0.00000E+00
    0.19436E-06        -0.65744E-09         0.00000E+00
    0.19421E-06        -0.71152E-09         0.00000E+00
    0.19405E-06        -0.75141E-09         0.00000E+00
    0.19388E-06        -0.78002E-09         0.00000E+00
    0.19371E-06        -0.79914E-09         0.00000E+00
    0.19354E-06        -0.80972E-09         0.00000E+00
    0.19337E-06        -0.81220E-09         0.00000E+00
    0.19320E-06        -0.80666E-09         0.00000E+00
    0.19303E-06        -0.79277E-09         0.00000E+00
    0.19287E-06        -0.76993E-09         0.00000E+00
    0.19271E-06        -0.73744E-09         0.00000E+00
    0.19256E-06        -0.69454E-09         0.00000E+00
    0.19241E-06        -0.64052E-09         0.00000E+00
    0.19227E-06        -0.57465E-09         0.00000E+00
    0.19213E-06        -0.49621E-09         0.00000E+00
    0.19199E-06        -0.40442E-09         0.00000E+00
    0.19186E-06        -0.29830E-09         0.00000E+00
    0.19174E-06        -0.17653E-09         0.00000E+00
    0.19161E-06        -0.37058E-10         0.00000E+00
    0.19149E-06         0.12175E-09         0.00000E+00
    0.19137E-06         0.29900E-09         0.00000E+00
    0.19126E-06         0.49050E-09         0.00000E+00
    0.19115E-06         0.69144E-09         0.00000E+00
    0.19104E-06         0.89911E-09         0.00000E+00
    0.19094E-06         0.11110E-08         0.00000E+00
    0.19085E-06         0.13228E-08         0.00000E+00
    0.19077E-06         0.15287E-08         0.00000E+00
    0.19069E-06         0.17224E-08         0.00000E+00
    0.19063E-06         0.18985E-08         0.00000E+00
    0.19057E-06         0.20514E-08         0.00000E+00
    0.19052E-06         0.21756E-08         0.00000E+00
    0.19048E-06         0.22649E-08         0.00000E+00
    0.19044E-06         0.23127E-08         0.00000E+00
    0.19041E-06         0.23112E-08         0.00000E+00
    0.19038E-06         0.22519E-08         0.00000E+00
    0.19036E-06         0.21242E-08         0.00000E+00
    0.19034E-06         0.19166E-08         0.00000E+00
    0.19032E-06         0.16297E-08         0.00000E+00
    0.19030E-06         0.13042E-08         0.00000E+00
    0.19028E-06         0.99373E-09         0.00000E+00
    0.19027E-06         0.71692E-09         0.00000E+00
    0.19026E-06         0.47750E-09         0.00000E+00
    0.19026E-06         0.28367E-09         0.00000E+00
    0.19026E-06         0.13955E-09         0.00000E+00
    0.19026E-06         0.47706E-10         0.00000E+00
    0.19026E-06         0.15295E-10         0.00000E+00
    0.20188E-06         0.92083E-12         0.00000E+00
    0.20185E-06         0.15120E-10         0.00000E+00
    0.20177E-06         0.50983E-10         0.00000E+00
    0.20165E-06         0.92778E-10         0.00000E+00
    0.20152E-06         0.12651E-09         0.00000E+00
    0.20137E-06         0.14588E-09         0.00000E+00
    0.20121E-06         0.15121E-09         0.00000E+00
    0.20105E-06         0.14588E-09         0.00000E+00
    0.20089E-06         0.13296E-09         0.00000E+00
    0.20074E-06         0.11452E-09         0.00000E+00
    0.20059E-06         0.91860E-10         0.00000E+00
    0.20045E-06         0.67330E-10         0.00000E+00
    0.20032E-06         0.44653E-10         0.00000E+00
    0.20019E-06         0.27288E-10         0.00000E+00
    0.20007E-06         0.17901E-10         0.00000E+00
    0.19996E-06         0.18450E-10         0.00000E+00
    0.19985E-06         0.30430E-10         0.00000E+00
    0.19975E-06         0.55004E-10         0.00000E+00
    0.19965E-06         0.93085E-10         0.00000E+00
    0.19956E-06         0.14542E-09         0.00000E+00
    0.19948E-06         0.21260E-09         0.00000E+00
    0.19940E-06         0.29509E-09         0.00000E+00
    0.19932E-06         0.39307E-09         0.00000E+00
    0.19926E-06         0.50622E-09         0.00000E+00
    0.19920E-06         0.63386E-09         0.00000E+00
    0.19915E-06         0.77499E-09         0.00000E+00
    0.19911E-06         0.92736E-09         0.00000E+00
    0.19908E-06         0.10875E-08         0.00000E+00
    0.19906E-06         0.12518E-08         0.00000E+00
    0.19905E-06         0.14169E-08         0.00000E+00
    0.19906E-06         0.15795E-08         0.00000E+00
    0.19907E-06         0.17362E-08         0.00000E+00
    0.19909E-06         0.18834E-08         0.00000E+00
    0.19913E-06         0.20169E-08         0.00000E+00
    0.19917E-06         0.21325E-08         0.00000E+00
    0.19922E-06         0.22256E-08         0.00000E+00
    0.19928E-06         0.22909E-08         0.00000E+00
    0.19934E-06         0.23230E-08         0.00000E+00
    0.19940E-06         0.23153E-08         0.00000E+00
    0.19946E-06         0.22605E-08         0.00000E+00
    0.19951E-06         0.21501E-08         0.00000E+00
    0.19955E-06         0.19750E-08         0.00000E+00
    0.19958E-06         0.17324E-08         0.00000E+00
    0.19958E-06         0.14315E-08         0.00000E+00
    0.19958E-06         0.11034E-08         0.00000E+00
    0.19957E-06         0.79575E-09         0.00000E+00
    0.19957E-06         0.53110E-09         0.00000E+00
    0.19957E-06         0.31121E-09         0.00000E+00
    0.19958E-06         0.14588E-09         0.00000E+00
    0.19959E-06         0.45041E-10         0.00000E+00
    0.19959E-06         0.11389E-10         0.00000E+00
    0.20422E-06         0.20894E-09         0.00000E+00
    0.20422E-06         0.36283E-09         0.00000E+00
    0.20423E-06         0.61102E-09         0.00000E+00
    0.20423E-06         0.75986E-09         0.00000E+00
    0.20425E-06         0.84237E-09         0.00000E+00
    0.20426E-06         0.87975E-09         0.00000E+00
    0.20428E-06         0.88049E-09         0.00000E+00
    0.20429E-06         0.84568E-09         0.00000E+00
    0.20430E-06         0.78112E-09         0.00000E+00
    0.20432E-06         0.69982E-09         0.00000E+00
    0.20433E-06         0.61720E-09         0.00000E+00
    0.20434E-06         0.54333E-09         0.00000E+00
    0.20434E-06         0.48130E-09         0.00000E+00
    0.20434E-06         0.43148E-09         0.00000E+00
    0.20435E-06         0.39369E-09         0.00000E+00
    0.20435E-06         0.36802E-09         0.00000E+00
    0.20435E-06         0.35449E-09         0.00000E+00
    0.20435E-06         0.35306E-09         0.00000E+00
    0.20436E-06         0.36368E-09         0.00000E+00
    0.20437E-06         0.38628E-09         0.00000E+00
    0.20439E-06         0.42069E-09         0.00000E+00
    0.20441E-06         0.46657E-09         0.00000E+00
    0.20445E-06         0.52338E-09         0.00000E+00
    0.20449E-06         0.59040E-09         0.00000E+00
    0.20455E-06         0.66663E-09         0.00000E+00
    0.20462E-06         0.75076E-09         0.00000E+00
    0.20471E-06         0.84130E-09         0.00000E+00
    0.20481E-06         0.93669E-09         0.00000E+00
    0.20492E-06         0.10352E-08         0.00000E+00
    0.20506E-06         0.11348E-08         0.00000E+00
    0.20521E-06         0.12337E-08         0.00000E+00
    0.20537E-06         0.13299E-08         0.00000E+00
    0.20555E-06         0.14213E-08         0.00000E+00
    0.20575E-06         0.15056E-08         0.00000E+00
    0.20596E-06         0.15803E-08         0.00000E+00
    0.20618E-06         0.16429E-08         0.00000E+00
    0.20640E-06         0.16903E-08         0.00000E+00
    0.20663E-06         0.17196E-08         0.00000E+00
    0.20687E-06         0.17272E-08         0.00000E+00
    0.20710E-06         0.17092E-08         0.00000E+00
    0.20732E-06         0.16611E-08         0.00000E+00
    0.20753E-06         0.15777E-08         0.00000E+00
    0.20771E-06         0.14506E-08         0.00000E+00
    0.20787E-06         0.12720E-08         0.00000E+00
    0.20800E-06         0.10437E-08         0.00000E+00
    0.20809E-06         0.77338E-09         0.00000E+00
    0.20816E-06         0.49003E-09         0.00000E+00
    0.20820E-06         0.24480E-09         0.00000E+00
    0.20822E-06         0.71043E-10         0.00000E+00
    0.20823E-06        -0.55422E-11         0.00000E+00
    0.20823E-06        -0.15023E-10         0.00000E+00
    0.20387E-06         0.00000E+00         0.00000E+00
    0.20391E-06         0.00000E+00         0.00000E+00
    0.20402E-06         0.00000E+00         0.00000E+00
    0.20416E-06         0.00000E+00         0.00000E+00
    0.20432E-06         0.00000E+00         0.00000E+00
    0.20450E-06         0.00000E+00         0.00000E+00
    0.20467E-06         0.00000E+00         0.00000E+00
    0.20485E-06         0.00000E+00         0.00000E+00
    0.20501E-06         0.00000E+00         0.00000E+00
    0.20516E-06        -0.55879E-20         0.00000E+00
    0.20529E-06         0.00000E+00         0.00000E+00
    0.20541E-06         0.55879E-20         0.00000E+00
    0.20551E-06         0.00000E+00         0.00000E+00
    0.20560E-06         0.00000E+00         0.00000E+00
    0.20568E-06         0.00000E+00         0.00000E+00
    0.20576E-06         0.00000E+00         0.00000E+00
    0.20583E-06         0.00000E+00         0.00000E+00
    0.20590E-06         0.55879E-20         0.00000E+00
    0.20597E-06         0.00000E+00         0.00000E+00
    0.20604E-06        -0.55879E-20         0.00000E+00
    0.20612E-06         0.00000E+00         0.00000E+00
    0.20621E-06         0.00000E+00         0.00000E+00
    0.20631E-06         0.00000E+00         0.00000E+00
    0.20642E-06         0.00000E+00         0.00000E+00
    0.20655E-06         0.00000E+00         0.00000E+00
    0.20669E-06         0.00000E+00         0.00000E+00
    0.20685E-06         0.00000E+00         0.00000E+00
    0.20702E-06         0.00000E+00         0.00000E+00
    0.20722E-06         0.00000E+00         0.00000E+00
    0.20744E-06         0.00000E+00         0.00000E+00
    0.20768E-06         0.00000E+00         0.00000E+00
    0.20793E-06         0.00000E+00         0.00000E+00
    0.20821E-06         0.00000E+00         0.00000E+00
    0.20850E-06         0.00000E+00         0.00000E+00
    0.20881E-06         0.00000E+00         0.00000E+00
    0.20913E-06         0.00000E+00         0.00000E+00
    0.20947E-06         0.00000E+00         0.00000E+00
    0.20981E-06         0.00000E+00         0.00000E+00
    0.21015E-06         0.00000E+00         0.00000E+00
    0.21050E-06        -0.65193E-20         0.00000E+00
    0.21084E-06        -0.55879E-20         0.00000E+00
    0.21116E-06         0.55879E-20         0.00000E+00
    0.21147E-06         0.55879E-20         0.00000E+00
    0.21174E-06         0.00000E+00         0.00000E+00
    0.21198E-06         0.00000E+00         0.00000E+00
    0.21216E-06         0.00000E+00         0.00000E+00
    0.21229E-06         0.00000E+00         0.00000E+00
    0.21236E-06         0.65193E-20         0.00000E+00
    0.21239E-06         0.93132E-21         0.00000E+00
    0.21239E-06         0.00000E+00         0.00000E+00
    0.21238E-06         0.13039E-19         0.00000E+00
CELL_DATA       5000
TENSORS stressef double 
    0.15119E+08        -0.96851E+05         0.00000E+00
   -0.96851E+05         0.19404E+08         0.00000E+00
    0.00000E+00         0.00000E+00         0.10628E+08
 
    0.14991E+08        -0.97341E+05         0.00000E+00
   -0.97341E+05         0.19379E+08         0.00000E+00
    0.00000E+00         0.00000E+00         0.94321E+07
 
    0.14677E+08        -0.14662E+06         0.00000E+00
   -0.14662E+06         0.19337E+08         0.00000E+00
    0.00000E+00         0.00000E+00         0.83989E+07
 
    0.14252E+08        -0.21908E+06         0.00000E+00
   -0.21908E+06         0.19253E+08         0.00000E+00
    0.00000E+00         0.00000E+00         0.75700E+07
 
    0.13769E+08        -0.31068E+06         0.00000E+00
   -0.31068E+06         0.19126E+08         0.00000E+00
    0.00000E+00         0.00000E+00         0.69347E+07
 
    0.13242E+08        -0.37273E+06         0.00000E+00
   -0.37273E+06         0.18989E+08         0.00000E+00
    0.00000E+00         0.00000E+00         0.65657E+07
 
    0.12756E+08        -0.40905E+06         0.00000E+00
   -0.40905E+06         0.18838E+08         0.00000E+00
    0.00000E+00         0.00000E+00         0.62321E+07
 
    0.12302E+08        -0.42748E+06         0.00000E+00
   -0.42748E+06         0.18678E+08         0.00000E+00
    0.00000E+00         0.00000E+00         0.59100E+07
 
    0.11890E+08        -0.43413E+06         0.00000E+00
   -0.43413E+06         0.18514E+08         0.00000E+00
    0.00000E+00         0.00000E+00         0.55929E+07
 
    0.11515E+08        -0.43384E+06         0.00000E+00
   -0.43384E+06         0.18347E+08         0.00000E+00
    0.00000E+00         0.00000E+00         0.52821E+07
 
    0.11171E+08        -0.42840E+06         0.00000E+00
   -0.42840E+06         0.18181E+08         0.00000E+00
    0.00000E+00         0.00000E+00         0.49790E+07
 
    0.10854E+08        -0.41841E+06         0.00000E+00
   -0.41841E+06         0.18017E+08         0.00000E+00
    0.00000E+00         0.00000E+00         0.46842E+07
 
    0.10557E+08        -0.40536E+06         0.00000E+00
   -0.40536E+06         0.17857E+08         0.00000E+00
    0.00000E+00         0.00000E+00         0.43989E+07
 
    0.10277E+08        -0.39297E+06         0.00000E+00
   -0.39297E+06         0.17702E+08         0.00000E+00
    0.00000E+00         0.00000E+00         0.41238E+07
 
    0.10018E+08        -0.37799E+06         0.00000E+00
   -0.37799E+06         0.17552E+08         0.00000E+00
    0.00000E+00         0.00000E+00         0.38592E+07
 
    0.97722E+07        -0.36177E+06         0.00000E+00
   -0.36177E+06         0.17407E+08         0.00000E+00
    0.00000E+00         0.00000E+00         0.36054E+07
 
    0.95379E+07        -0.34436E+06         0.00000E+00
   -0.34436E+06         0.17269E+08         0.00000E+00
    0.00000E+00         0.00000E+00         0.33633E+07
 
    0.93143E+07        -0.32575E+06         0.00000E+00
   -0.32575E+06         0.17139E+08         0.00000E+00
    0.00000E+00         0.00000E+00         0.31335E+07
 
    0.90985E+07        -0.30639E+06         0.00000E+00
   -0.30639E+06         0.17015E+08         0.00000E+00
    0.00000E+00         0.00000E+00         0.29162E+07
 
    0.88910E+07        -0.28612E+06         0.00000E+00
   -0.28612E+06         0.16899E+08         0.00000E+00
    0.00000E+00         0.00000E+00         0.27114E+07
 
    0.86938E+07        -0.26659E+06         0.00000E+00
   -0.26659E+06         0.16790E+08         0.00000E+00
    0.00000E+00         0.00000E+00         0.25202E+07
 
    0.84907E+07        -0.24698E+06         0.00000E+00
   -0.24698E+06         0.16690E+08         0.00000E+00
    0.00000E+00         0.00000E+00         0.23419E+07
 
    0.82877E+07        -0.22647E+06         0.00000E+00
   -0.22647E+06         0.16598E+08         0.00000E+00
    0.00000E+00         0.00000E+00         0.21764E+07
 
    0.80901E+07        -0.20538E+06         0.00000E+00
   -0.20538E+06         0.16514E+08         0.00000E+00
    0.00000E+00         0.00000E+00         0.20249E+07
 
    0.78951E+07        -0.18405E+06         0.00000E+00
   -0.18405E+06         0.16438E+08         0.00000E+00
    0.00000E+00         0.00000E+00         0.18877E+07
 
    0.77010E+07        -0.16245E+06         0.00000E+00
   -0.16245E+06         0.16371E+08         0.00000E+00
    0.00000E+00         0.00000E+00         0.17653E+07
 
    0.75008E+07        -0.14075E+06         0.00000E+00
   -0.14075E+06         0.16312E+08         0.00000E+00
    0.00000E+00         0.00000E+00         0.16578E+07
 
    0.73046E+07        -0.11922E+06         0.00000E+00
   -0.11922E+06         0.16262E+08         0.00000E+00
    0.00000E+00         0.00000E+00         0.15655E+07
 
    0.71126E+07        -0.98235E+05         0.00000E+00
   -0.98235E+05         0.16219E+08         0.00000E+00
    0.00000E+00         0.00000E+00         0.14886E+07
 
    0.69248E+07        -0.77991E+05         0.00000E+00
   -0.77991E+05         0.16184E+08         0.00000E+00
    0.00000E+00         0.00000E+00         0.14273E+07
 
    0.67411E+07        -0.58713E+05         0.00000E+00
   -0.58713E+05         0.16157E+08         0.00000E+00
    0.00000E+00         0.00000E+00         0.13815E+07
 
    0.65621E+07        -0.40588E+05         0.00000E+00
   -0.40588E+05         0.16138E+08         0.00000E+00
    0.00000E+00         0.00000E+00         0.13510E+07
 
    0.63886E+07        -0.23605E+05         0.00000E+00
   -0.23605E+05         0.16125E+08         0.00000E+00
    0.00000E+00         0.00000E+00         0.13355E+07
 
    0.62208E+07        -0.76972E+04         0.00000E+00
   -0.76972E+04         0.16119E+08         0.00000E+00
    0.00000E+00         0.00000E+00         0.13344E+07
 
    0.60590E+07         0.73324E+04         0.00000E+00
    0.73324E+04         0.16118E+08         0.00000E+00
    0.00000E+00         0.00000E+00         0.13473E+07
 
    0.59031E+07         0.21721E+05         0.00000E+00
    0.21721E+05         0.16124E+08         0.00000E+00
    0.00000E+00         0.00000E+00         0.13740E+07
 
    0.57528E+07         0.35846E+05         0.00000E+00
    0.35846E+05         0.16135E+08         0.00000E+00
    0.00000E+00         0.00000E+00         0.14145E+07
 
    0.56076E+07         0.50263E+05         0.00000E+00
    0.50263E+05         0.16151E+08         0.00000E+00
    0.00000E+00         0.00000E+00         0.14692E+07
 
    0.54670E+07         0.65177E+05         0.00000E+00
    0.65177E+05         0.16174E+08         0.00000E+00
    0.00000E+00         0.00000E+00         0.15390E+07
 
    0.53306E+07         0.80788E+05         0.00000E+00
    0.80788E+05         0.16202E+08         0.00000E+00
    0.00000E+00         0.00000E+00         0.16249E+07
 
    0.51984E+07         0.97565E+05         0.00000E+00
    0.97565E+05         0.16236E+08         0.00000E+00
    0.00000E+00         0.00000E+00         0.17289E+07
 
    0.50704E+07         0.11573E+06         0.00000E+00
    0.11573E+06         0.16277E+08         0.00000E+00
    0.00000E+00         0.00000E+00         0.18533E+07
 
    0.49470E+07         0.13572E+06         0.00000E+00
    0.13572E+06         0.16326E+08         0.00000E+00
    0.00000E+00         0.00000E+00         0.20009E+07
 
    0.48289E+07         0.15803E+06         0.00000E+00
    0.15803E+06         0.16384E+08         0.00000E+00
    0.00000E+00         0.00000E+00         0.21752E+07
 
    0.47178E+07         0.18353E+06         0.00000E+00
    0.18353E+06         0.16451E+08         0.00000E+00
    0.00000E+00         0.00000E+00         0.23804E+07
 
    0.46148E+07         0.21461E+06         0.00000E+00
    0.21461E+06         0.16530E+08         0.00000E+00
    0.00000E+00         0.00000E+00         0.26225E+07
 
    0.44969E+07         0.25381E+06         0.00000E+00
    0.25381E+06         0.16622E+08         0.00000E+00
    0.00000E+00         0.00000E+00         0.29259E+07
 
    0.44016E+07         0.30302E+06         0.00000E+00
    0.30302E+06         0.16729E+08         0.00000E+00
    0.00000E+00         0.00000E+00         0.32839E+07
 
    0.43422E+07         0.36523E+06         0.00000E+00
    0.36523E+06         0.16853E+08         0.00000E+00
    0.00000E+00         0.00000E+00         0.36972E+07
 
    0.43336E+07         0.44908E+06         0.00000E+00
    0.44908E+06         0.16990E+08         0.00000E+00
    0.00000E+00         0.00000E+00         0.41484E+07
 
    0.13220E+08         0.68340E+05         0.00000E+00
    0.68340E+05         0.17709E+08         0.00000E+00
    0.00000E+00         0.00000E+00         0.49295E+07
 
    0.12928E+08        -0.20972E+06         0.00000E+00
   -0.20972E+06         0.17686E+08         0.00000E+00
    0.00000E+00         0.00000E+00         0.47891E+07
 
    0.12586E+08        -0.44802E+06         0.00000E+00
   -0.44802E+06         0.17625E+08         0.00000E+00
    0.00000E+00         0.00000E+00         0.46141E+07
 
    0.12211E+08        -0.64555E+06         0.00000E+00
   -0.64555E+06         0.17566E+08         0.00000E+00
    0.00000E+00         0.00000E+00         0.44497E+07
 
    0.11819E+08        -0.79064E+06         0.00000E+00
   -0.79064E+06         0.17520E+08         0.00000E+00
    0.00000E+00         0.00000E+00         0.43053E+07
 
    0.11445E+08        -0.89648E+06         0.00000E+00
   -0.89648E+06         0.17456E+08         0.00000E+00
    0.00000E+00         0.00000E+00         0.41443E+07
 
    0.11075E+08        -0.97209E+06         0.00000E+00
   -0.97209E+06         0.17389E+08         0.00000E+00
    0.00000E+00         0.00000E+00         0.39812E+07
 
    0.10722E+08        -0.10210E+07         0.00000E+00
   -0.10210E+07         0.17317E+08         0.00000E+00
    0.00000E+00         0.00000E+00         0.38137E+07
 
    0.10385E+08        -0.10480E+07         0.00000E+00
   -0.10480E+07         0.17241E+08         0.00000E+00
    0.00000E+00         0.00000E+00         0.36434E+07
 
    0.10062E+08        -0.10577E+07         0.00000E+00
   -0.10577E+07         0.17163E+08         0.00000E+00
    0.00000E+00         0.00000E+00         0.34713E+07
 
    0.97624E+07        -0.10537E+07         0.00000E+00
   -0.10537E+07         0.17083E+08         0.00000E+00
    0.00000E+00         0.00000E+00         0.32994E+07
 
    0.94780E+07        -0.10398E+07         0.00000E+00
   -0.10398E+07         0.17002E+08         0.00000E+00
    0.00000E+00         0.00000E+00         0.31285E+07
 
    0.92057E+07        -0.10172E+07         0.00000E+00
   -0.10172E+07         0.16922E+08         0.00000E+00
    0.00000E+00         0.00000E+00         0.29597E+07
 
    0.89465E+07        -0.98702E+06         0.00000E+00
   -0.98702E+06         0.16842E+08         0.00000E+00
    0.00000E+00         0.00000E+00         0.27931E+07
 
    0.87049E+07        -0.95258E+06         0.00000E+00
   -0.95258E+06         0.16764E+08         0.00000E+00
    0.00000E+00         0.00000E+00         0.26333E+07
 
    0.84729E+07        -0.91417E+06         0.00000E+00
   -0.91417E+06         0.16689E+08         0.00000E+00
    0.00000E+00         0.00000E+00         0.24786E+07
 
    0.82487E+07        -0.87266E+06         0.00000E+00
   -0.87266E+06         0.16615E+08         0.00000E+00
    0.00000E+00         0.00000E+00         0.23297E+07
 
    0.80335E+07        -0.82909E+06         0.00000E+00
   -0.82909E+06         0.16545E+08         0.00000E+00
    0.00000E+00         0.00000E+00         0.21872E+07
 
    0.78247E+07        -0.78325E+06         0.00000E+00
   -0.78325E+06         0.16477E+08         0.00000E+00
    0.00000E+00         0.00000E+00         0.20515E+07
 
    0.76208E+07        -0.73604E+06         0.00000E+00
   -0.73604E+06         0.16413E+08         0.00000E+00
    0.00000E+00         0.00000E+00         0.19235E+07
 
    0.74216E+07        -0.68766E+06         0.00000E+00
   -0.68766E+06         0.16352E+08         0.00000E+00
    0.00000E+00         0.00000E+00         0.18023E+07
 
    0.72245E+07        -0.63863E+06         0.00000E+00
   -0.63863E+06         0.16292E+08         0.00000E+00
    0.00000E+00         0.00000E+00         0.16868E+07
 
    0.70275E+07        -0.58828E+06         0.00000E+00
   -0.58828E+06         0.16236E+08         0.00000E+00
    0.00000E+00         0.00000E+00         0.15790E+07
 
    0.68323E+07        -0.53706E+06         0.00000E+00
   -0.53706E+06         0.16184E+08         0.00000E+00
    0.00000E+00         0.00000E+00         0.14791E+07
 
    0.66381E+07        -0.48533E+06         0.00000E+00
   -0.48533E+06         0.16134E+08         0.00000E+00
    0.00000E+00         0.00000E+00         0.13872E+07
 
    0.64439E+07        -0.43329E+06         0.00000E+00
   -0.43329E+06         0.16088E+08         0.00000E+00
    0.00000E+00         0.00000E+00         0.13036E+07
 
    0.62494E+07        -0.38056E+06         0.00000E+00
   -0.38056E+06         0.16045E+08         0.00000E+00
    0.00000E+00         0.00000E+00         0.12287E+07
 
    0.60551E+07        -0.32677E+06         0.00000E+00
   -0.32677E+06         0.16006E+08         0.00000E+00
    0.00000E+00         0.00000E+00         0.11643E+07
 
    0.58617E+07        -0.27254E+06         0.00000E+00
   -0.27254E+06         0.15971E+08         0.00000E+00
    0.00000E+00         0.00000E+00         0.11113E+07
 
    0.56696E+07        -0.21859E+06         0.00000E+00
   -0.21859E+06         0.15941E+08         0.00000E+00
    0.00000E+00         0.00000E+00         0.10708E+07
 
    0.54788E+07        -0.16551E+06         0.00000E+00
   -0.16551E+06         0.15916E+08         0.00000E+00
    0.00000E+00         0.00000E+00         0.10438E+07
 
    0.52909E+07        -0.11398E+06         0.00000E+00
   -0.11398E+06         0.15897E+08         0.00000E+00
    0.00000E+00         0.00000E+00         0.10311E+07
 
    0.51071E+07        -0.64675E+05         0.00000E+00
   -0.64675E+05         0.15883E+08         0.00000E+00
    0.00000E+00         0.00000E+00         0.10332E+07
 
    0.49287E+07        -0.18007E+05         0.00000E+00
   -0.18007E+05         0.15874E+08         0.00000E+00
    0.00000E+00         0.00000E+00         0.10501E+07
 
    0.47573E+07         0.25968E+05         0.00000E+00
    0.25968E+05         0.15870E+08         0.00000E+00
    0.00000E+00         0.00000E+00         0.10814E+07
 
    0.45939E+07         0.67817E+05         0.00000E+00
    0.67817E+05         0.15871E+08         0.00000E+00
    0.00000E+00         0.00000E+00         0.11262E+07
 
    0.44389E+07         0.10832E+06         0.00000E+00
    0.10832E+06         0.15877E+08         0.00000E+00
    0.00000E+00         0.00000E+00         0.11839E+07
 
    0.42922E+07         0.14825E+06         0.00000E+00
    0.14825E+06         0.15887E+08         0.00000E+00
    0.00000E+00         0.00000E+00         0.12541E+07
 
    0.41531E+07         0.18911E+06         0.00000E+00
    0.18911E+06         0.15901E+08         0.00000E+00
    0.00000E+00         0.00000E+00         0.13368E+07
 
    0.40216E+07         0.23238E+06         0.00000E+00
    0.23238E+06         0.15919E+08         0.00000E+00
    0.00000E+00         0.00000E+00         0.14334E+07
 
    0.38983E+07         0.27892E+06         0.00000E+00
    0.27892E+06         0.15941E+08         0.00000E+00
    0.00000E+00         0.00000E+00         0.15447E+07
 
    0.37834E+07         0.33012E+06         0.00000E+00
    0.33012E+06         0.15969E+08         0.00000E+00
    0.00000E+00         0.00000E+00         0.16729E+07
 
    0.36783E+07         0.38691E+06         0.00000E+00
    0.38691E+06         0.16003E+08         0.00000E+00
    0.00000E+00         0.00000E+00         0.18211E+07
 
    0.35860E+07         0.45067E+06         0.00000E+00
    0.45067E+06         0.16044E+08         0.00000E+00
    0.00000E+00         0.00000E+00         0.19923E+07
 
    0.35109E+07         0.52311E+06         0.00000E+00
    0.52311E+06         0.16093E+08         0.00000E+00
    0.00000E+00         0.00000E+00         0.21891E+07
 
    0.34585E+07         0.60572E+06         0.00000E+00
    0.60572E+06         0.16153E+08         0.00000E+00
    0.00000E+00         0.00000E+00         0.24139E+07
 
    0.34247E+07         0.70477E+06         0.00000E+00
    0.70477E+06         0.16222E+08         0.00000E+00
    0.00000E+00         0.00000E+00         0.26734E+07
 
    0.34306E+07         0.82629E+06         0.00000E+00
    0.82629E+06         0.16301E+08         0.00000E+00
    0.00000E+00         0.00000E+00         0.29595E+07
 
    0.34957E+07         0.97286E+06         0.00000E+00
    0.97286E+06         0.16394E+08         0.00000E+00
    0.00000E+00         0.00000E+00         0.32693E+07
 
    0.36626E+07         0.11437E+07         0.00000E+00
    0.11437E+07         0.16512E+08         0.00000E+00
    0.00000E+00         0.00000E+00         0.36024E+07
 
    0.10652E+08        -0.28942E+06         0.00000E+00
   -0.28942E+06         0.16301E+08         0.00000E+00
    0.00000E+00         0.00000E+00         0.23039E+07
 
    0.10435E+08        -0.51525E+06         0.00000E+00
   -0.51525E+06         0.16266E+08         0.00000E+00
    0.00000E+00         0.00000E+00         0.22129E+07
 
    0.10235E+08        -0.70838E+06         0.00000E+00
   -0.70838E+06         0.16246E+08         0.00000E+00
    0.00000E+00         0.00000E+00         0.21604E+07
 
    0.10031E+08        -0.86699E+06         0.00000E+00
   -0.86699E+06         0.16233E+08         0.00000E+00
    0.00000E+00         0.00000E+00         0.21221E+07
 
    0.98182E+07        -0.99767E+06         0.00000E+00
   -0.99767E+06         0.16221E+08         0.00000E+00
    0.00000E+00         0.00000E+00         0.20845E+07
 
    0.95915E+07        -0.11015E+07         0.00000E+00
   -0.11015E+07         0.16214E+08         0.00000E+00
    0.00000E+00         0.00000E+00         0.20503E+07
 
    0.93583E+07        -0.11798E+07         0.00000E+00
   -0.11798E+07         0.16207E+08         0.00000E+00
    0.00000E+00         0.00000E+00         0.20128E+07
 
    0.91202E+07        -0.12360E+07         0.00000E+00
   -0.12360E+07         0.16199E+08         0.00000E+00
    0.00000E+00         0.00000E+00         0.19709E+07
 
    0.88804E+07        -0.12725E+07         0.00000E+00
   -0.12725E+07         0.16189E+08         0.00000E+00
    0.00000E+00         0.00000E+00         0.19235E+07
 
    0.86417E+07        -0.12917E+07         0.00000E+00
   -0.12917E+07         0.16177E+08         0.00000E+00
    0.00000E+00         0.00000E+00         0.18700E+07
 
    0.84062E+07        -0.12967E+07         0.00000E+00
   -0.12967E+07         0.16162E+08         0.00000E+00
    0.00000E+00         0.00000E+00         0.18119E+07
 
    0.81750E+07        -0.12894E+07         0.00000E+00
   -0.12894E+07         0.16145E+08         0.00000E+00
    0.00000E+00         0.00000E+00         0.17491E+07
 
    0.79484E+07        -0.12726E+07         0.00000E+00
   -0.12726E+07         0.16124E+08         0.00000E+00
    0.00000E+00         0.00000E+00         0.16818E+07
 
    0.77266E+07        -0.12471E+07         0.00000E+00
   -0.12471E+07         0.16101E+08         0.00000E+00
    0.00000E+00         0.00000E+00         0.16116E+07
 
    0.75104E+07        -0.12144E+07         0.00000E+00
   -0.12144E+07         0.16075E+08         0.00000E+00
    0.00000E+00         0.00000E+00         0.15382E+07
 
    0.72999E+07        -0.11757E+07         0.00000E+00
   -0.11757E+07         0.16048E+08         0.00000E+00
    0.00000E+00         0.00000E+00         0.14633E+07
 
    0.70946E+07        -0.11321E+07         0.00000E+00
   -0.11321E+07         0.16019E+08         0.00000E+00
    0.00000E+00         0.00000E+00         0.13877E+07
 
    0.68937E+07        -0.10844E+07         0.00000E+00
   -0.10844E+07         0.15989E+08         0.00000E+00
    0.00000E+00         0.00000E+00         0.13121E+07
 
    0.66968E+07        -0.10341E+07         0.00000E+00
   -0.10341E+07         0.15957E+08         0.00000E+00
    0.00000E+00         0.00000E+00         0.12368E+07
 
    0.65030E+07        -0.98133E+06         0.00000E+00
   -0.98133E+06         0.15925E+08         0.00000E+00
    0.00000E+00         0.00000E+00         0.11625E+07
 
    0.63116E+07        -0.92644E+06         0.00000E+00
   -0.92644E+06         0.15892E+08         0.00000E+00
    0.00000E+00         0.00000E+00         0.10904E+07
 
    0.61220E+07        -0.86940E+06         0.00000E+00
   -0.86940E+06         0.15860E+08         0.00000E+00
    0.00000E+00         0.00000E+00         0.10214E+07
 
    0.59335E+07        -0.81006E+06         0.00000E+00
   -0.81006E+06         0.15828E+08         0.00000E+00
    0.00000E+00         0.00000E+00         0.95585E+06
 
    0.57457E+07        -0.74847E+06         0.00000E+00
   -0.74847E+06         0.15796E+08         0.00000E+00
    0.00000E+00         0.00000E+00         0.89409E+06
 
    0.55585E+07        -0.68477E+06         0.00000E+00
   -0.68477E+06         0.15766E+08         0.00000E+00
    0.00000E+00         0.00000E+00         0.83696E+06
 
    0.53712E+07        -0.61885E+06         0.00000E+00
   -0.61885E+06         0.15736E+08         0.00000E+00
    0.00000E+00         0.00000E+00         0.78532E+06
 
    0.51837E+07        -0.55062E+06         0.00000E+00
   -0.55062E+06         0.15707E+08         0.00000E+00
    0.00000E+00         0.00000E+00         0.74010E+06
 
    0.49954E+07        -0.48013E+06         0.00000E+00
   -0.48013E+06         0.15680E+08         0.00000E+00
    0.00000E+00         0.00000E+00         0.70180E+06
 
    0.48061E+07        -0.40747E+06         0.00000E+00
   -0.40747E+06         0.15654E+08         0.00000E+00
    0.00000E+00         0.00000E+00         0.67134E+06
 
    0.46153E+07        -0.33286E+06         0.00000E+00
   -0.33286E+06         0.15631E+08         0.00000E+00
    0.00000E+00         0.00000E+00         0.65004E+06
 
    0.44228E+07        -0.25684E+06         0.00000E+00
   -0.25684E+06         0.15609E+08         0.00000E+00
    0.00000E+00         0.00000E+00         0.63929E+06
 
    0.42295E+07        -0.18001E+06         0.00000E+00
   -0.18001E+06         0.15590E+08         0.00000E+00
    0.00000E+00         0.00000E+00         0.64091E+06
 
    0.40365E+07        -0.10330E+06         0.00000E+00
   -0.10330E+06         0.15574E+08         0.00000E+00
    0.00000E+00         0.00000E+00         0.65687E+06
 
    0.38458E+07        -0.27996E+05         0.00000E+00
   -0.27996E+05         0.15563E+08         0.00000E+00
    0.00000E+00         0.00000E+00         0.68905E+06
 
    0.36606E+07         0.44645E+05         0.00000E+00
    0.44645E+05         0.15557E+08         0.00000E+00
    0.00000E+00         0.00000E+00         0.73883E+06
 
    0.34847E+07         0.11336E+06         0.00000E+00
    0.11336E+06         0.15556E+08         0.00000E+00
    0.00000E+00         0.00000E+00         0.80607E+06
 
    0.33214E+07         0.17845E+06         0.00000E+00
    0.17845E+06         0.15560E+08         0.00000E+00
    0.00000E+00         0.00000E+00         0.88829E+06
 
    0.31734E+07         0.24216E+06         0.00000E+00
    0.24216E+06         0.15569E+08         0.00000E+00
    0.00000E+00         0.00000E+00         0.98414E+06
 
    0.30411E+07         0.30561E+06         0.00000E+00
    0.30561E+06         0.15583E+08         0.00000E+00
    0.00000E+00         0.00000E+00         0.10931E+07
 
    0.29240E+07         0.37056E+06         0.00000E+00
    0.37056E+06         0.15600E+08         0.00000E+00
    0.00000E+00         0.00000E+00         0.12122E+07
 
    0.28239E+07         0.44050E+06         0.00000E+00
    0.44050E+06         0.15622E+08         0.00000E+00
    0.00000E+00         0.00000E+00         0.13421E+07
 
    0.27411E+07         0.51738E+06         0.00000E+00
    0.51738E+06         0.15647E+08         0.00000E+00
    0.00000E+00         0.00000E+00         0.14838E+07
 
    0.26766E+07         0.60406E+06         0.00000E+00
    0.60406E+06         0.15678E+08         0.00000E+00
    0.00000E+00         0.00000E+00         0.16382E+07
 
    0.26332E+07         0.70204E+06         0.00000E+00
    0.70204E+06         0.15713E+08         0.00000E+00
    0.00000E+00         0.00000E+00         0.18075E+07
 
    0.26144E+07         0.81208E+06         0.00000E+00
    0.81208E+06         0.15755E+08         0.00000E+00
    0.00000E+00         0.00000E+00         0.19924E+07
 
    0.26263E+07         0.93543E+06         0.00000E+00
    0.93543E+06         0.15804E+08         0.00000E+00
    0.00000E+00         0.00000E+00         0.21933E+07
 
    0.26778E+07         0.10708E+07         0.00000E+00
    0.10708E+07         0.15862E+08         0.00000E+00
    0.00000E+00         0.00000E+00         0.24099E+07
 
    0.27767E+07         0.12196E+07         0.00000E+00
    0.12196E+07         0.15929E+08         0.00000E+00
    0.00000E+00         0.00000E+00         0.26343E+07
 
    0.29190E+07         0.13808E+07         0.00000E+00
    0.13808E+07         0.15999E+08         0.00000E+00
    0.00000E+00         0.00000E+00         0.28561E+07
 
    0.30810E+07         0.15449E+07         0.00000E+00
    0.15449E+07         0.16063E+08         0.00000E+00
    0.00000E+00         0.00000E+00         0.30638E+07
 
    0.77785E+07        -0.24344E+06         0.00000E+00
   -0.24344E+06         0.15282E+08         0.00000E+00
    0.00000E+00         0.00000E+00         0.31507E+06
 
    0.79420E+07        -0.49360E+06         0.00000E+00
   -0.49360E+06         0.15327E+08         0.00000E+00
    0.00000E+00         0.00000E+00         0.34382E+06
 
    0.79957E+07        -0.68811E+06         0.00000E+00
   -0.68811E+06         0.15364E+08         0.00000E+00
    0.00000E+00         0.00000E+00         0.37973E+06
 
    0.79750E+07        -0.84464E+06         0.00000E+00
   -0.84464E+06         0.15384E+08         0.00000E+00
    0.00000E+00         0.00000E+00         0.44099E+06
 
    0.79096E+07        -0.97254E+06         0.00000E+00
   -0.97254E+06         0.15404E+08         0.00000E+00
    0.00000E+00         0.00000E+00         0.49344E+06
 
    0.78129E+07        -0.10765E+07         0.00000E+00
   -0.10765E+07         0.15423E+08         0.00000E+00
    0.00000E+00         0.00000E+00         0.53551E+06
 
    0.76924E+07        -0.11598E+07         0.00000E+00
   -0.11598E+07         0.15441E+08         0.00000E+00
    0.00000E+00         0.00000E+00         0.56889E+06
 
    0.75542E+07        -0.12245E+07         0.00000E+00
   -0.12245E+07         0.15457E+08         0.00000E+00
    0.00000E+00         0.00000E+00         0.59375E+06
 
    0.74027E+07        -0.12724E+07         0.00000E+00
   -0.12724E+07         0.15470E+08         0.00000E+00
    0.00000E+00         0.00000E+00         0.61056E+06
 
    0.72414E+07        -0.13051E+07         0.00000E+00
   -0.13051E+07         0.15482E+08         0.00000E+00
    0.00000E+00         0.00000E+00         0.61980E+06
 
    0.70728E+07        -0.13240E+07         0.00000E+00
   -0.13240E+07         0.15491E+08         0.00000E+00
    0.00000E+00         0.00000E+00         0.62171E+06
 
    0.68989E+07        -0.13308E+07         0.00000E+00
   -0.13308E+07         0.15497E+08         0.00000E+00
    0.00000E+00         0.00000E+00         0.61717E+06
 
    0.67216E+07        -0.13264E+07         0.00000E+00
   -0.13264E+07         0.15501E+08         0.00000E+00
    0.00000E+00         0.00000E+00         0.60715E+06
 
    0.65414E+07        -0.13120E+07         0.00000E+00
   -0.13120E+07         0.15503E+08         0.00000E+00
    0.00000E+00         0.00000E+00         0.59222E+06
 
    0.63598E+07        -0.12894E+07         0.00000E+00
   -0.12894E+07         0.15505E+08         0.00000E+00
    0.00000E+00         0.00000E+00         0.57641E+06
 
    0.61782E+07        -0.12607E+07         0.00000E+00
   -0.12607E+07         0.15506E+08         0.00000E+00
    0.00000E+00         0.00000E+00         0.55972E+06
 
    0.59978E+07        -0.12267E+07         0.00000E+00
   -0.12267E+07         0.15503E+08         0.00000E+00
    0.00000E+00         0.00000E+00         0.53907E+06
 
    0.58184E+07        -0.11876E+07         0.00000E+00
   -0.11876E+07         0.15498E+08         0.00000E+00
    0.00000E+00         0.00000E+00         0.51537E+06
 
    0.56401E+07        -0.11439E+07         0.00000E+00
   -0.11439E+07         0.15490E+08         0.00000E+00
    0.00000E+00         0.00000E+00         0.48968E+06
 
    0.54630E+07        -0.10958E+07         0.00000E+00
   -0.10958E+07         0.15481E+08         0.00000E+00
    0.00000E+00         0.00000E+00         0.46286E+06
 
    0.52869E+07        -0.10437E+07         0.00000E+00
   -0.10437E+07         0.15470E+08         0.00000E+00
    0.00000E+00         0.00000E+00         0.43559E+06
 
    0.51118E+07        -0.98796E+06         0.00000E+00
   -0.98796E+06         0.15458E+08         0.00000E+00
    0.00000E+00         0.00000E+00         0.40849E+06
 
    0.49374E+07        -0.92882E+06         0.00000E+00
   -0.92882E+06         0.15445E+08         0.00000E+00
    0.00000E+00         0.00000E+00         0.38225E+06
 
    0.47634E+07        -0.86638E+06         0.00000E+00
   -0.86638E+06         0.15431E+08         0.00000E+00
    0.00000E+00         0.00000E+00         0.35743E+06
 
    0.45897E+07        -0.80064E+06         0.00000E+00
   -0.80064E+06         0.15416E+08         0.00000E+00
    0.00000E+00         0.00000E+00         0.33453E+06
 
    0.44159E+07        -0.73173E+06         0.00000E+00
   -0.73173E+06         0.15400E+08         0.00000E+00
    0.00000E+00         0.00000E+00         0.31400E+06
 
    0.42417E+07        -0.65970E+06         0.00000E+00
   -0.65970E+06         0.15384E+08         0.00000E+00
    0.00000E+00         0.00000E+00         0.29629E+06
 
    0.40667E+07        -0.58452E+06         0.00000E+00
   -0.58452E+06         0.15367E+08         0.00000E+00
    0.00000E+00         0.00000E+00         0.28204E+06
 
    0.38904E+07        -0.50606E+06         0.00000E+00
   -0.50606E+06         0.15349E+08         0.00000E+00
    0.00000E+00         0.00000E+00         0.27196E+06
 
    0.37122E+07        -0.42418E+06         0.00000E+00
   -0.42418E+06         0.15331E+08         0.00000E+00
    0.00000E+00         0.00000E+00         0.26687E+06
 
    0.35315E+07        -0.33859E+06         0.00000E+00
   -0.33859E+06         0.15313E+08         0.00000E+00
    0.00000E+00         0.00000E+00         0.26797E+06
 
    0.33479E+07        -0.24905E+06         0.00000E+00
   -0.24905E+06         0.15294E+08         0.00000E+00
    0.00000E+00         0.00000E+00         0.27679E+06
 
    0.31612E+07        -0.15543E+06         0.00000E+00
   -0.15543E+06         0.15276E+08         0.00000E+00
    0.00000E+00         0.00000E+00         0.29540E+06
 
    0.29717E+07        -0.57798E+05         0.00000E+00
   -0.57798E+05         0.15259E+08         0.00000E+00
    0.00000E+00         0.00000E+00         0.32652E+06
 
    0.27813E+07         0.42990E+05         0.00000E+00
    0.42990E+05         0.15244E+08         0.00000E+00
    0.00000E+00         0.00000E+00         0.37327E+06
 
    0.25946E+07         0.14520E+06         0.00000E+00
    0.14520E+06         0.15232E+08         0.00000E+00
    0.00000E+00         0.00000E+00         0.43989E+06
 
    0.24204E+07         0.24633E+06         0.00000E+00
    0.24633E+06         0.15230E+08         0.00000E+00
    0.00000E+00         0.00000E+00         0.53394E+06
 
    0.22651E+07         0.34223E+06         0.00000E+00
    0.34223E+06         0.15236E+08         0.00000E+00
    0.00000E+00         0.00000E+00         0.65107E+06
 
    0.21327E+07         0.43430E+06         0.00000E+00
    0.43430E+06         0.15247E+08         0.00000E+00
    0.00000E+00         0.00000E+00         0.78157E+06
 
    0.20313E+07         0.52639E+06         0.00000E+00
    0.52639E+06         0.15268E+08         0.00000E+00
    0.00000E+00         0.00000E+00         0.92959E+06
 
    0.19583E+07         0.61964E+06         0.00000E+00
    0.61964E+06         0.15295E+08         0.00000E+00
    0.00000E+00         0.00000E+00         0.10871E+07
 
    0.19131E+07         0.71820E+06         0.00000E+00
    0.71820E+06         0.15326E+08         0.00000E+00
    0.00000E+00         0.00000E+00         0.12504E+07
 
    0.18967E+07         0.82343E+06         0.00000E+00
    0.82343E+06         0.15362E+08         0.00000E+00
    0.00000E+00         0.00000E+00         0.14167E+07
 
    0.19074E+07         0.93840E+06         0.00000E+00
    0.93840E+06         0.15399E+08         0.00000E+00
    0.00000E+00         0.00000E+00         0.15812E+07
 
    0.19467E+07         0.10668E+07         0.00000E+00
    0.10668E+07         0.15439E+08         0.00000E+00
    0.00000E+00         0.00000E+00         0.17475E+07
 
    0.20132E+07         0.12073E+07         0.00000E+00
    0.12073E+07         0.15481E+08         0.00000E+00
    0.00000E+00         0.00000E+00         0.19169E+07
 
    0.21064E+07         0.13595E+07         0.00000E+00
    0.13595E+07         0.15524E+08         0.00000E+00
    0.00000E+00         0.00000E+00         0.20882E+07
 
    0.22308E+07         0.15140E+07         0.00000E+00
    0.15140E+07         0.15570E+08         0.00000E+00
    0.00000E+00         0.00000E+00         0.22565E+07
 
    0.23865E+07         0.16635E+07         0.00000E+00
    0.16635E+07         0.15619E+08         0.00000E+00
    0.00000E+00         0.00000E+00         0.24176E+07
 
    0.25648E+07         0.18136E+07         0.00000E+00
    0.18136E+07         0.15670E+08         0.00000E+00
    0.00000E+00         0.00000E+00         0.25760E+07
 
    0.55093E+07         0.18082E+05         0.00000E+00
    0.18082E+05         0.13854E+08         0.00000E+00
    0.00000E+00         0.00000E+00         0.00000E+00
 
    0.57415E+07        -0.15587E+06         0.00000E+00
   -0.15587E+06         0.13885E+08         0.00000E+00
    0.00000E+00         0.00000E+00         0.00000E+00
 
    0.59006E+07        -0.33409E+06         0.00000E+00
   -0.33409E+06         0.13944E+08         0.00000E+00
    0.00000E+00         0.00000E+00         0.00000E+00
 
    0.59980E+07        -0.50151E+06         0.00000E+00
   -0.50151E+06         0.14028E+08         0.00000E+00
    0.00000E+00         0.00000E+00         0.00000E+00
 
    0.60454E+07        -0.65034E+06         0.00000E+00
   -0.65034E+06         0.14114E+08         0.00000E+00
    0.00000E+00         0.00000E+00         0.00000E+00
 
    0.60531E+07        -0.77970E+06         0.00000E+00
   -0.77970E+06         0.14199E+08         0.00000E+00
    0.00000E+00         0.00000E+00         0.00000E+00
 
    0.60290E+07        -0.89004E+06         0.00000E+00
   -0.89004E+06         0.14280E+08         0.00000E+00
    0.00000E+00         0.00000E+00         0.00000E+00
 
    0.59794E+07        -0.98244E+06         0.00000E+00
   -0.98244E+06         0.14357E+08         0.00000E+00
    0.00000E+00         0.00000E+00         0.00000E+00
 
    0.59089E+07        -0.10582E+07         0.00000E+00
   -0.10582E+07         0.14429E+08         0.00000E+00
    0.00000E+00         0.00000E+00         0.00000E+00
 
    0.58212E+07        -0.11185E+07         0.00000E+00
   -0.11185E+07         0.14495E+08         0.00000E+00
    0.00000E+00         0.00000E+00         0.00000E+00
 
    0.57196E+07        -0.11647E+07         0.00000E+00
   -0.11647E+07         0.14554E+08         0.00000E+00
    0.00000E+00         0.00000E+00         0.00000E+00
 
    0.56065E+07        -0.11981E+07         0.00000E+00
   -0.11981E+07         0.14608E+08         0.00000E+00
    0.00000E+00         0.00000E+00         0.00000E+00
 
    0.54840E+07        -0.12198E+07         0.00000E+00
   -0.12198E+07         0.14656E+08         0.00000E+00
    0.00000E+00         0.00000E+00         0.00000E+00
 
    0.53538E+07        -0.12310E+07         0.00000E+00
   -0.12310E+07         0.14697E+08         0.00000E+00
    0.00000E+00         0.00000E+00         0.00000E+00
 
    0.52173E+07        -0.12320E+07         0.00000E+00
   -0.12320E+07         0.14732E+08         0.00000E+00
    0.00000E+00         0.00000E+00         0.49585E+04
 
    0.50753E+07        -0.12227E+07         0.00000E+00
   -0.12227E+07         0.14760E+08         0.00000E+00
    0.00000E+00         0.00000E+00         0.13491E+05
 
    0.49290E+07        -0.12042E+07         0.00000E+00
   -0.12042E+07         0.14785E+08         0.00000E+00
    0.00000E+00         0.00000E+00         0.19009E+05
 
    0.47797E+07        -0.11778E+07         0.00000E+00
   -0.11778E+07         0.14807E+08         0.00000E+00
    0.00000E+00         0.00000E+00         0.22387E+05
 
    0.46284E+07        -0.11446E+07         0.00000E+00
   -0.11446E+07         0.14826E+08         0.00000E+00
    0.00000E+00         0.00000E+00         0.24196E+05
 
    0.44755E+07        -0.11054E+07         0.00000E+00
   -0.11054E+07         0.14842E+08         0.00000E+00
    0.00000E+00         0.00000E+00         0.24875E+05
 
    0.43215E+07        -0.10608E+07         0.00000E+00
   -0.10608E+07         0.14856E+08         0.00000E+00
    0.00000E+00         0.00000E+00         0.24793E+05
 
    0.41668E+07        -0.10114E+07         0.00000E+00
   -0.10114E+07         0.14867E+08         0.00000E+00
    0.00000E+00         0.00000E+00         0.24254E+05
 
    0.40114E+07        -0.95746E+06         0.00000E+00
   -0.95746E+06         0.14877E+08         0.00000E+00
    0.00000E+00         0.00000E+00         0.23499E+05
 
    0.38556E+07        -0.89940E+06         0.00000E+00
   -0.89940E+06         0.14886E+08         0.00000E+00
    0.00000E+00         0.00000E+00         0.22755E+05
 
    0.36994E+07        -0.83744E+06         0.00000E+00
   -0.83744E+06         0.14894E+08         0.00000E+00
    0.00000E+00         0.00000E+00         0.22201E+05
 
    0.35429E+07        -0.77173E+06         0.00000E+00
   -0.77173E+06         0.14901E+08         0.00000E+00
    0.00000E+00         0.00000E+00         0.21998E+05
 
    0.33862E+07        -0.70232E+06         0.00000E+00
   -0.70232E+06         0.14907E+08         0.00000E+00
    0.00000E+00         0.00000E+00         0.22323E+05
 
    0.32290E+07        -0.62921E+06         0.00000E+00
   -0.62921E+06         0.14912E+08         0.00000E+00
    0.00000E+00         0.00000E+00         0.23333E+05
 
    0.30715E+07        -0.55229E+06         0.00000E+00
   -0.55229E+06         0.14917E+08         0.00000E+00
    0.00000E+00         0.00000E+00         0.25209E+05
 
    0.29136E+07        -0.47134E+06         0.00000E+00
   -0.47134E+06         0.14923E+08         0.00000E+00
    0.00000E+00         0.00000E+00         0.28171E+05
 
    0.27549E+07        -0.38598E+06         0.00000E+00
   -0.38598E+06         0.14928E+08         0.00000E+00
    0.00000E+00         0.00000E+00         0.32471E+05
 
    0.25954E+07        -0.29567E+06         0.00000E+00
   -0.29567E+06         0.14933E+08         0.00000E+00
    0.00000E+00         0.00000E+00         0.38444E+05
 
    0.24344E+07        -0.19968E+06         0.00000E+00
   -0.19968E+06         0.14939E+08         0.00000E+00
    0.00000E+00         0.00000E+00         0.46593E+05
 
    0.22712E+07        -0.97015E+05         0.00000E+00
   -0.97015E+05         0.14946E+08         0.00000E+00
    0.00000E+00         0.00000E+00         0.57697E+05
 
    0.21041E+07         0.13632E+05         0.00000E+00
    0.13632E+05         0.14953E+08         0.00000E+00
    0.00000E+00         0.00000E+00         0.72951E+05
 
    0.19337E+07         0.13380E+06         0.00000E+00
    0.13380E+06         0.14958E+08         0.00000E+00
    0.00000E+00         0.00000E+00         0.99444E+05
 
    0.17742E+07         0.26369E+06         0.00000E+00
    0.26369E+06         0.14942E+08         0.00000E+00
    0.00000E+00         0.00000E+00         0.16491E+06
 
    0.16151E+07         0.40423E+06         0.00000E+00
    0.40423E+06         0.14926E+08         0.00000E+00
    0.00000E+00         0.00000E+00         0.24645E+06
 
    0.14844E+07         0.54897E+06         0.00000E+00
    0.54897E+06         0.14928E+08         0.00000E+00
    0.00000E+00         0.00000E+00         0.37885E+06
 
    0.13722E+07         0.68854E+06         0.00000E+00
    0.68854E+06         0.14936E+08         0.00000E+00
    0.00000E+00         0.00000E+00         0.52935E+06
 
    0.12993E+07         0.82120E+06         0.00000E+00
    0.82120E+06         0.14957E+08         0.00000E+00
    0.00000E+00         0.00000E+00         0.70447E+06
 
    0.12687E+07         0.94476E+06         0.00000E+00
    0.94476E+06         0.14990E+08         0.00000E+00
    0.00000E+00         0.00000E+00         0.89116E+06
 
    0.12757E+07         0.10643E+07         0.00000E+00
    0.10643E+07         0.15027E+08         0.00000E+00
    0.00000E+00         0.00000E+00         0.10710E+07
 
    0.13273E+07         0.11867E+07         0.00000E+00
    0.11867E+07         0.15073E+08         0.00000E+00
    0.00000E+00         0.00000E+00         0.12505E+07
 
    0.14077E+07         0.13124E+07         0.00000E+00
    0.13124E+07         0.15120E+08         0.00000E+00
    0.00000E+00         0.00000E+00         0.14195E+07
 
    0.15122E+07         0.14437E+07         0.00000E+00
    0.14437E+07         0.15165E+08         0.00000E+00
    0.00000E+00         0.00000E+00         0.15760E+07
 
    0.16325E+07         0.15804E+07         0.00000E+00
    0.15804E+07         0.15206E+08         0.00000E+00
    0.00000E+00         0.00000E+00         0.17229E+07
 
    0.17628E+07         0.17241E+07         0.00000E+00
    0.17241E+07         0.15242E+08         0.00000E+00
    0.00000E+00         0.00000E+00         0.18601E+07
 
    0.19130E+07         0.18779E+07         0.00000E+00
    0.18779E+07         0.15273E+08         0.00000E+00
    0.00000E+00         0.00000E+00         0.19915E+07
 
    0.20882E+07         0.20274E+07         0.00000E+00
    0.20274E+07         0.15307E+08         0.00000E+00
    0.00000E+00         0.00000E+00         0.21195E+07
 
    0.39072E+07        -0.44096E+05         0.00000E+00
   -0.44096E+05         0.12798E+08         0.00000E+00
    0.00000E+00         0.00000E+00         0.00000E+00
 
    0.40298E+07        -0.11611E+06         0.00000E+00
   -0.11611E+06         0.12790E+08         0.00000E+00
    0.00000E+00         0.00000E+00         0.00000E+00
 
    0.41481E+07        -0.20249E+06         0.00000E+00
   -0.20249E+06         0.12790E+08         0.00000E+00
    0.00000E+00         0.00000E+00         0.00000E+00
 
    0.42508E+07        -0.29788E+06         0.00000E+00
   -0.29788E+06         0.12800E+08         0.00000E+00
    0.00000E+00         0.00000E+00         0.00000E+00
 
    0.43320E+07        -0.39702E+06         0.00000E+00
   -0.39702E+06         0.12823E+08         0.00000E+00
    0.00000E+00         0.00000E+00         0.00000E+00
 
    0.43895E+07        -0.49460E+06         0.00000E+00
   -0.49460E+06         0.12856E+08         0.00000E+00
    0.00000E+00         0.00000E+00         0.00000E+00
 
    0.44234E+07        -0.58697E+06         0.00000E+00
   -0.58697E+06         0.12899E+08         0.00000E+00
    0.00000E+00         0.00000E+00         0.00000E+00
 
    0.44352E+07        -0.67172E+06         0.00000E+00
   -0.67172E+06         0.12948E+08         0.00000E+00
    0.00000E+00         0.00000E+00         0.00000E+00
 
    0.44268E+07        -0.74735E+06         0.00000E+00
   -0.74735E+06         0.13001E+08         0.00000E+00
    0.00000E+00         0.00000E+00         0.00000E+00
 
    0.44003E+07        -0.81301E+06         0.00000E+00
   -0.81301E+06         0.13058E+08         0.00000E+00
    0.00000E+00         0.00000E+00         0.00000E+00
 
    0.43577E+07        -0.86828E+06         0.00000E+00
   -0.86828E+06         0.13118E+08         0.00000E+00
    0.00000E+00         0.00000E+00         0.00000E+00
 
    0.43008E+07        -0.91307E+06         0.00000E+00
   -0.91307E+06         0.13178E+08         0.00000E+00
    0.00000E+00         0.00000E+00         0.00000E+00
 
    0.42316E+07        -0.94739E+06         0.00000E+00
   -0.94739E+06         0.13239E+08         0.00000E+00
    0.00000E+00         0.00000E+00         0.00000E+00
 
    0.41518E+07        -0.97142E+06         0.00000E+00
   -0.97142E+06         0.13301E+08         0.00000E+00
    0.00000E+00         0.00000E+00         0.00000E+00
 
    0.40628E+07        -0.98561E+06         0.00000E+00
   -0.98561E+06         0.13361E+08         0.00000E+00
    0.00000E+00         0.00000E+00         0.00000E+00
 
    0.39661E+07        -0.99078E+06         0.00000E+00
   -0.99078E+06         0.13420E+08         0.00000E+00
    0.00000E+00         0.00000E+00         0.00000E+00
 
    0.38622E+07        -0.98742E+06         0.00000E+00
   -0.98742E+06         0.13478E+08         0.00000E+00
    0.00000E+00         0.00000E+00         0.00000E+00
 
    0.37521E+07        -0.97570E+06         0.00000E+00
   -0.97570E+06         0.13535E+08         0.00000E+00
    0.00000E+00         0.00000E+00         0.00000E+00
 
    0.36367E+07        -0.95594E+06         0.00000E+00
   -0.95594E+06         0.13590E+08         0.00000E+00
    0.00000E+00         0.00000E+00         0.00000E+00
 
    0.35168E+07        -0.92860E+06         0.00000E+00
   -0.92860E+06         0.13643E+08         0.00000E+00
    0.00000E+00         0.00000E+00         0.00000E+00
 
    0.33932E+07        -0.89408E+06         0.00000E+00
   -0.89408E+06         0.13695E+08         0.00000E+00
    0.00000E+00         0.00000E+00         0.00000E+00
 
    0.32666E+07        -0.85282E+06         0.00000E+00
   -0.85282E+06         0.13746E+08         0.00000E+00
    0.00000E+00         0.00000E+00         0.00000E+00
 
    0.31376E+07        -0.80520E+06         0.00000E+00
   -0.80520E+06         0.13795E+08         0.00000E+00
    0.00000E+00         0.00000E+00         0.00000E+00
 
    0.30066E+07        -0.75157E+06         0.00000E+00
   -0.75157E+06         0.13844E+08         0.00000E+00
    0.00000E+00         0.00000E+00         0.00000E+00
 
    0.28741E+07        -0.69221E+06         0.00000E+00
   -0.69221E+06         0.13891E+08         0.00000E+00
    0.00000E+00         0.00000E+00         0.00000E+00
 
    0.27405E+07        -0.62739E+06         0.00000E+00
   -0.62739E+06         0.13939E+08         0.00000E+00
    0.00000E+00         0.00000E+00         0.00000E+00
 
    0.26061E+07        -0.55731E+06         0.00000E+00
   -0.55731E+06         0.13985E+08         0.00000E+00
    0.00000E+00         0.00000E+00         0.00000E+00
 
    0.24713E+07        -0.48213E+06         0.00000E+00
   -0.48213E+06         0.14032E+08         0.00000E+00
    0.00000E+00         0.00000E+00         0.00000E+00
 
    0.23365E+07        -0.40197E+06         0.00000E+00
   -0.40197E+06         0.14079E+08         0.00000E+00
    0.00000E+00         0.00000E+00         0.00000E+00
 
    0.22018E+07        -0.31697E+06         0.00000E+00
   -0.31697E+06         0.14125E+08         0.00000E+00
    0.00000E+00         0.00000E+00         0.00000E+00
 
    0.20678E+07        -0.22721E+06         0.00000E+00
   -0.22721E+06         0.14172E+08         0.00000E+00
    0.00000E+00         0.00000E+00         0.00000E+00
 
    0.19346E+07        -0.13280E+06         0.00000E+00
   -0.13280E+06         0.14218E+08         0.00000E+00
    0.00000E+00         0.00000E+00         0.00000E+00
 
    0.18025E+07        -0.33903E+05         0.00000E+00
   -0.33903E+05         0.14264E+08         0.00000E+00
    0.00000E+00         0.00000E+00         0.00000E+00
 
    0.16719E+07         0.69285E+05         0.00000E+00
    0.69285E+05         0.14310E+08         0.00000E+00
    0.00000E+00         0.00000E+00         0.00000E+00
 
    0.15428E+07         0.17647E+06         0.00000E+00
    0.17647E+06         0.14354E+08         0.00000E+00
    0.00000E+00         0.00000E+00         0.00000E+00
 
    0.14151E+07         0.28752E+06         0.00000E+00
    0.28752E+06         0.14399E+08         0.00000E+00
    0.00000E+00         0.00000E+00         0.00000E+00
 
    0.12874E+07         0.40339E+06         0.00000E+00
    0.40339E+06         0.14466E+08         0.00000E+00
    0.00000E+00         0.00000E+00         0.00000E+00
 
    0.11550E+07         0.52350E+06         0.00000E+00
    0.52350E+06         0.14531E+08         0.00000E+00
    0.00000E+00         0.00000E+00         0.10475E+04
 
    0.10483E+07         0.65520E+06         0.00000E+00
    0.65520E+06         0.14588E+08         0.00000E+00
    0.00000E+00         0.00000E+00         0.49884E+05
 
    0.93702E+06         0.80550E+06         0.00000E+00
    0.80550E+06         0.14643E+08         0.00000E+00
    0.00000E+00         0.00000E+00         0.10287E+06
 
    0.86721E+06         0.96664E+06         0.00000E+00
    0.96664E+06         0.14650E+08         0.00000E+00
    0.00000E+00         0.00000E+00         0.21727E+06
 
    0.81601E+06         0.11365E+07         0.00000E+00
    0.11365E+07         0.14647E+08         0.00000E+00
    0.00000E+00         0.00000E+00         0.35142E+06
 
    0.82289E+06         0.13055E+07         0.00000E+00
    0.13055E+07         0.14672E+08         0.00000E+00
    0.00000E+00         0.00000E+00         0.54279E+06
 
    0.85103E+06         0.14555E+07         0.00000E+00
    0.14555E+07         0.14702E+08         0.00000E+00
    0.00000E+00         0.00000E+00         0.73481E+06
 
    0.92535E+06         0.15887E+07         0.00000E+00
    0.15887E+07         0.14748E+08         0.00000E+00
    0.00000E+00         0.00000E+00         0.93434E+06
 
    0.10337E+07         0.17061E+07         0.00000E+00
    0.17061E+07         0.14801E+08         0.00000E+00
    0.00000E+00         0.00000E+00         0.11200E+07
 
    0.11677E+07         0.18164E+07         0.00000E+00
    0.18164E+07         0.14854E+08         0.00000E+00
    0.00000E+00         0.00000E+00         0.12815E+07
 
    0.13307E+07         0.19325E+07         0.00000E+00
    0.19325E+07         0.14907E+08         0.00000E+00
    0.00000E+00         0.00000E+00         0.14308E+07
 
    0.14966E+07         0.20500E+07         0.00000E+00
    0.20500E+07         0.14952E+08         0.00000E+00
    0.00000E+00         0.00000E+00         0.15620E+07
 
    0.16585E+07         0.21792E+07         0.00000E+00
    0.21792E+07         0.14984E+08         0.00000E+00
    0.00000E+00         0.00000E+00         0.16816E+07
 
    0.24842E+07        -0.32948E+05         0.00000E+00
   -0.32948E+05         0.11731E+08         0.00000E+00
    0.00000E+00         0.00000E+00         0.00000E+00
 
    0.26047E+07        -0.10164E+06         0.00000E+00
   -0.10164E+06         0.11737E+08         0.00000E+00
    0.00000E+00         0.00000E+00         0.00000E+00
 
    0.27121E+07        -0.16640E+06         0.00000E+00
   -0.16640E+06         0.11745E+08         0.00000E+00
    0.00000E+00         0.00000E+00         0.00000E+00
 
    0.28075E+07        -0.22933E+06         0.00000E+00
   -0.22933E+06         0.11757E+08         0.00000E+00
    0.00000E+00         0.00000E+00         0.00000E+00
 
    0.28904E+07        -0.29096E+06         0.00000E+00
   -0.29096E+06         0.11773E+08         0.00000E+00
    0.00000E+00         0.00000E+00         0.00000E+00
 
    0.29600E+07        -0.35118E+06         0.00000E+00
   -0.35118E+06         0.11795E+08         0.00000E+00
    0.00000E+00         0.00000E+00         0.00000E+00
 
    0.30153E+07        -0.40916E+06         0.00000E+00
   -0.40916E+06         0.11823E+08         0.00000E+00
    0.00000E+00         0.00000E+00         0.00000E+00
 
    0.30559E+07        -0.46385E+06         0.00000E+00
   -0.46385E+06         0.11857E+08         0.00000E+00
    0.00000E+00         0.00000E+00         0.00000E+00
 
    0.30818E+07        -0.51417E+06         0.00000E+00
   -0.51417E+06         0.11897E+08         0.00000E+00
    0.00000E+00         0.00000E+00         0.00000E+00
 
    0.30935E+07        -0.55920E+06         0.00000E+00
   -0.55920E+06         0.11941E+08         0.00000E+00
    0.00000E+00         0.00000E+00         0.00000E+00
 
    0.30917E+07        -0.59817E+06         0.00000E+00
   -0.59817E+06         0.11990E+08         0.00000E+00
    0.00000E+00         0.00000E+00         0.00000E+00
 
    0.30771E+07        -0.63051E+06         0.00000E+00
   -0.63051E+06         0.12043E+08         0.00000E+00
    0.00000E+00         0.00000E+00         0.00000E+00
 
    0.30506E+07        -0.65582E+06         0.00000E+00
   -0.65582E+06         0.12099E+08         0.00000E+00
    0.00000E+00         0.00000E+00         0.00000E+00
 
    0.30133E+07        -0.67390E+06         0.00000E+00
   -0.67390E+06         0.12158E+08         0.00000E+00
    0.00000E+00         0.00000E+00         0.00000E+00
 
    0.29660E+07        -0.68462E+06         0.00000E+00
   -0.68462E+06         0.12219E+08         0.00000E+00
    0.00000E+00         0.00000E+00         0.00000E+00
 
    0.29096E+07        -0.68784E+06         0.00000E+00
   -0.68784E+06         0.12282E+08         0.00000E+00
    0.00000E+00         0.00000E+00         0.00000E+00
 
    0.28450E+07        -0.68357E+06         0.00000E+00
   -0.68357E+06         0.12346E+08         0.00000E+00
    0.00000E+00         0.00000E+00         0.00000E+00
 
    0.27732E+07        -0.67196E+06         0.00000E+00
   -0.67196E+06         0.12411E+08         0.00000E+00
    0.00000E+00         0.00000E+00         0.00000E+00
 
    0.26949E+07        -0.65310E+06         0.00000E+00
   -0.65310E+06         0.12477E+08         0.00000E+00
    0.00000E+00         0.00000E+00         0.00000E+00
 
    0.26107E+07        -0.62709E+06         0.00000E+00
   -0.62709E+06         0.12543E+08         0.00000E+00
    0.00000E+00         0.00000E+00         0.00000E+00
 
    0.25215E+07        -0.59408E+06         0.00000E+00
   -0.59408E+06         0.12610E+08         0.00000E+00
    0.00000E+00         0.00000E+00         0.00000E+00
 
    0.24279E+07        -0.55423E+06         0.00000E+00
   -0.55423E+06         0.12678E+08         0.00000E+00
    0.00000E+00         0.00000E+00         0.00000E+00
 
    0.23306E+07        -0.50772E+06         0.00000E+00
   -0.50772E+06         0.12745E+08         0.00000E+00
    0.00000E+00         0.00000E+00         0.00000E+00
 
    0.22301E+07        -0.45474E+06         0.00000E+00
   -0.45474E+06         0.12813E+08         0.00000E+00
    0.00000E+00         0.00000E+00         0.00000E+00
 
    0.21270E+07        -0.39547E+06         0.00000E+00
   -0.39547E+06         0.12881E+08         0.00000E+00
    0.00000E+00         0.00000E+00         0.00000E+00
 
    0.20219E+07        -0.33010E+06         0.00000E+00
   -0.33010E+06         0.12949E+08         0.00000E+00
    0.00000E+00         0.00000E+00         0.00000E+00
 
    0.19151E+07        -0.25880E+06         0.00000E+00
   -0.25880E+06         0.13018E+08         0.00000E+00
    0.00000E+00         0.00000E+00         0.00000E+00
 
    0.18073E+07        -0.18173E+06         0.00000E+00
   -0.18173E+06         0.13086E+08         0.00000E+00
    0.00000E+00         0.00000E+00         0.00000E+00
 
    0.16988E+07        -0.99047E+05         0.00000E+00
   -0.99047E+05         0.13155E+08         0.00000E+00
    0.00000E+00         0.00000E+00         0.00000E+00
 
    0.15901E+07        -0.10879E+05         0.00000E+00
   -0.10879E+05         0.13225E+08         0.00000E+00
    0.00000E+00         0.00000E+00         0.00000E+00
 
    0.14817E+07         0.82674E+05         0.00000E+00
    0.82674E+05         0.13294E+08         0.00000E+00
    0.00000E+00         0.00000E+00         0.00000E+00
 
    0.13739E+07         0.18156E+06         0.00000E+00
    0.18156E+06         0.13365E+08         0.00000E+00
    0.00000E+00         0.00000E+00         0.00000E+00
 
    0.12673E+07         0.28579E+06         0.00000E+00
    0.28579E+06         0.13436E+08         0.00000E+00
    0.00000E+00         0.00000E+00         0.00000E+00
 
    0.11624E+07         0.39551E+06         0.00000E+00
    0.39551E+06         0.13509E+08         0.00000E+00
    0.00000E+00         0.00000E+00         0.00000E+00
 
    0.10603E+07         0.51104E+06         0.00000E+00
    0.51104E+06         0.13583E+08         0.00000E+00
    0.00000E+00         0.00000E+00         0.00000E+00
 
    0.96207E+06         0.63275E+06         0.00000E+00
    0.63275E+06         0.13659E+08         0.00000E+00
    0.00000E+00         0.00000E+00         0.00000E+00
 
    0.86954E+06         0.76013E+06         0.00000E+00
    0.76013E+06         0.13730E+08         0.00000E+00
    0.00000E+00         0.00000E+00         0.00000E+00
 
    0.78563E+06         0.89385E+06         0.00000E+00
    0.89385E+06         0.13802E+08         0.00000E+00
    0.00000E+00         0.00000E+00         0.00000E+00
 
    0.71181E+06         0.10280E+07         0.00000E+00
    0.10280E+07         0.13865E+08         0.00000E+00
    0.00000E+00         0.00000E+00         0.00000E+00
 
    0.64438E+06         0.11568E+07         0.00000E+00
    0.11568E+07         0.13926E+08         0.00000E+00
    0.00000E+00         0.00000E+00         0.00000E+00
 
    0.57831E+06         0.12863E+07         0.00000E+00
    0.12863E+07         0.14034E+08         0.00000E+00
    0.00000E+00         0.00000E+00         0.00000E+00
 
    0.50342E+06         0.14135E+07         0.00000E+00
    0.14135E+07         0.14147E+08         0.00000E+00
    0.00000E+00         0.00000E+00         0.67688E+03
 
    0.48065E+06         0.15471E+07         0.00000E+00
    0.15471E+07         0.14246E+08         0.00000E+00
    0.00000E+00         0.00000E+00         0.73848E+05
 
    0.45805E+06         0.16983E+07         0.00000E+00
    0.16983E+07         0.14332E+08         0.00000E+00
    0.00000E+00         0.00000E+00         0.15065E+06
 
    0.50521E+06         0.18461E+07         0.00000E+00
    0.18461E+07         0.14345E+08         0.00000E+00
    0.00000E+00         0.00000E+00         0.30351E+06
 
    0.57162E+06         0.19933E+07         0.00000E+00
    0.19933E+07         0.14361E+08         0.00000E+00
    0.00000E+00         0.00000E+00         0.46365E+06
 
    0.69762E+06         0.21286E+07         0.00000E+00
    0.21286E+07         0.14409E+08         0.00000E+00
    0.00000E+00         0.00000E+00         0.67164E+06
 
    0.83458E+06         0.22318E+07         0.00000E+00
    0.22318E+07         0.14467E+08         0.00000E+00
    0.00000E+00         0.00000E+00         0.86541E+06
 
    0.10099E+07         0.23139E+07         0.00000E+00
    0.23139E+07         0.14542E+08         0.00000E+00
    0.00000E+00         0.00000E+00         0.10569E+07
 
    0.12012E+07         0.23830E+07         0.00000E+00
    0.23830E+07         0.14619E+08         0.00000E+00
    0.00000E+00         0.00000E+00         0.12237E+07
 
    0.12294E+07        -0.26970E+05         0.00000E+00
   -0.26970E+05         0.10764E+08         0.00000E+00
    0.00000E+00         0.00000E+00         0.00000E+00
 
    0.13584E+07        -0.71894E+05         0.00000E+00
   -0.71894E+05         0.10768E+08         0.00000E+00
    0.00000E+00         0.00000E+00         0.00000E+00
 
    0.14761E+07        -0.11534E+06         0.00000E+00
   -0.11534E+06         0.10776E+08         0.00000E+00
    0.00000E+00         0.00000E+00         0.00000E+00
 
    0.15818E+07        -0.15653E+06         0.00000E+00
   -0.15653E+06         0.10790E+08         0.00000E+00
    0.00000E+00         0.00000E+00         0.00000E+00
 
    0.16755E+07        -0.19521E+06         0.00000E+00
   -0.19521E+06         0.10808E+08         0.00000E+00
    0.00000E+00         0.00000E+00         0.00000E+00
 
    0.17573E+07        -0.23119E+06         0.00000E+00
   -0.23119E+06         0.10831E+08         0.00000E+00
    0.00000E+00         0.00000E+00         0.00000E+00
 
    0.18274E+07        -0.26430E+06         0.00000E+00
   -0.26430E+06         0.10857E+08         0.00000E+00
    0.00000E+00         0.00000E+00         0.00000E+00
 
    0.18857E+07        -0.29428E+06         0.00000E+00
   -0.29428E+06         0.10889E+08         0.00000E+00
    0.00000E+00         0.00000E+00         0.00000E+00
 
    0.19326E+07        -0.32080E+06         0.00000E+00
   -0.32080E+06         0.10925E+08         0.00000E+00
    0.00000E+00         0.00000E+00         0.00000E+00
 
    0.19681E+07        -0.34349E+06         0.00000E+00
   -0.34349E+06         0.10965E+08         0.00000E+00
    0.00000E+00         0.00000E+00         0.00000E+00
 
    0.19925E+07        -0.36195E+06         0.00000E+00
   -0.36195E+06         0.11009E+08         0.00000E+00
    0.00000E+00         0.00000E+00         0.00000E+00
 
    0.20063E+07        -0.37579E+06         0.00000E+00
   -0.37579E+06         0.11057E+08         0.00000E+00
    0.00000E+00         0.00000E+00         0.00000E+00
 
    0.20099E+07        -0.38465E+06         0.00000E+00
   -0.38465E+06         0.11108E+08         0.00000E+00
    0.00000E+00         0.00000E+00         0.00000E+00
 
    0.20039E+07        -0.38823E+06         0.00000E+00
   -0.38823E+06         0.11163E+08         0.00000E+00
    0.00000E+00         0.00000E+00         0.00000E+00
 
    0.19887E+07        -0.38623E+06         0.00000E+00
   -0.38623E+06         0.11220E+08         0.00000E+00
    0.00000E+00         0.00000E+00         0.00000E+00
 
    0.19651E+07        -0.37848E+06         0.00000E+00
   -0.37848E+06         0.11281E+08         0.00000E+00
    0.00000E+00         0.00000E+00         0.00000E+00
 
    0.19335E+07        -0.36480E+06         0.00000E+00
   -0.36480E+06         0.11343E+08         0.00000E+00
    0.00000E+00         0.00000E+00         0.00000E+00
 
    0.18948E+07        -0.34506E+06         0.00000E+00
   -0.34506E+06         0.11408E+08         0.00000E+00
    0.00000E+00         0.00000E+00         0.00000E+00
 
    0.18494E+07        -0.31918E+06         0.00000E+00
   -0.31918E+06         0.11475E+08         0.00000E+00
    0.00000E+00         0.00000E+00         0.00000E+00
 
    0.17981E+07        -0.28712E+06         0.00000E+00
   -0.28712E+06         0.11543E+08         0.00000E+00
    0.00000E+00         0.00000E+00         0.00000E+00
 
    0.17413E+07        -0.24886E+06         0.00000E+00
   -0.24886E+06         0.11612E+08         0.00000E+00
    0.00000E+00         0.00000E+00         0.00000E+00
 
    0.16798E+07        -0.20440E+06         0.00000E+00
   -0.20440E+06         0.11683E+08         0.00000E+00
    0.00000E+00         0.00000E+00         0.00000E+00
 
    0.16140E+07        -0.15376E+06         0.00000E+00
   -0.15376E+06         0.11755E+08         0.00000E+00
    0.00000E+00         0.00000E+00         0.00000E+00
 
    0.15446E+07        -0.96977E+05         0.00000E+00
   -0.96977E+05         0.11827E+08         0.00000E+00
    0.00000E+00         0.00000E+00         0.00000E+00
 
    0.14720E+07        -0.34102E+05         0.00000E+00
   -0.34102E+05         0.11901E+08         0.00000E+00
    0.00000E+00         0.00000E+00         0.00000E+00
 
    0.13969E+07         0.34811E+05         0.00000E+00
    0.34811E+05         0.11975E+08         0.00000E+00
    0.00000E+00         0.00000E+00         0.00000E+00
 
    0.13197E+07         0.10970E+06         0.00000E+00
    0.10970E+06         0.12050E+08         0.00000E+00
    0.00000E+00         0.00000E+00         0.00000E+00
 
    0.12409E+07         0.19051E+06         0.00000E+00
    0.19051E+06         0.12125E+08         0.00000E+00
    0.00000E+00         0.00000E+00         0.00000E+00
 
    0.11611E+07         0.27718E+06         0.00000E+00
    0.27718E+06         0.12201E+08         0.00000E+00
    0.00000E+00         0.00000E+00         0.00000E+00
 
    0.10807E+07         0.36964E+06         0.00000E+00
    0.36964E+06         0.12278E+08         0.00000E+00
    0.00000E+00         0.00000E+00         0.00000E+00
 
    0.10004E+07         0.46785E+06         0.00000E+00
    0.46785E+06         0.12355E+08         0.00000E+00
    0.00000E+00         0.00000E+00         0.00000E+00
 
    0.92060E+06         0.57174E+06         0.00000E+00
    0.57174E+06         0.12433E+08         0.00000E+00
    0.00000E+00         0.00000E+00         0.00000E+00
 
    0.84197E+06         0.68123E+06         0.00000E+00
    0.68123E+06         0.12511E+08         0.00000E+00
    0.00000E+00         0.00000E+00         0.00000E+00
 
    0.76514E+06         0.79619E+06         0.00000E+00
    0.79619E+06         0.12590E+08         0.00000E+00
    0.00000E+00         0.00000E+00         0.00000E+00
 
    0.69075E+06         0.91639E+06         0.00000E+00
    0.91639E+06         0.12668E+08         0.00000E+00
    0.00000E+00         0.00000E+00         0.00000E+00
 
    0.61934E+06         0.10414E+07         0.00000E+00
    0.10414E+07         0.12748E+08         0.00000E+00
    0.00000E+00         0.00000E+00         0.00000E+00
 
    0.55147E+06         0.11712E+07         0.00000E+00
    0.11712E+07         0.12828E+08         0.00000E+00
    0.00000E+00         0.00000E+00         0.00000E+00
 
    0.48738E+06         0.13050E+07         0.00000E+00
    0.13050E+07         0.12908E+08         0.00000E+00
    0.00000E+00         0.00000E+00         0.00000E+00
 
    0.42755E+06         0.14436E+07         0.00000E+00
    0.14436E+07         0.12992E+08         0.00000E+00
    0.00000E+00         0.00000E+00         0.00000E+00
 
    0.37404E+06         0.15882E+07         0.00000E+00
    0.15882E+07         0.13077E+08         0.00000E+00
    0.00000E+00         0.00000E+00         0.00000E+00
 
    0.32904E+06         0.17361E+07         0.00000E+00
    0.17361E+07         0.13153E+08         0.00000E+00
    0.00000E+00         0.00000E+00         0.00000E+00
 
    0.29595E+06         0.18876E+07         0.00000E+00
    0.18876E+07         0.13230E+08         0.00000E+00
    0.00000E+00         0.00000E+00         0.00000E+00
 
    0.27451E+06         0.20307E+07         0.00000E+00
    0.20307E+07         0.13293E+08         0.00000E+00
    0.00000E+00         0.00000E+00         0.00000E+00
 
    0.25494E+06         0.21576E+07         0.00000E+00
    0.21576E+07         0.13363E+08         0.00000E+00
    0.00000E+00         0.00000E+00         0.00000E+00
 
    0.22858E+06         0.22835E+07         0.00000E+00
    0.22835E+07         0.13512E+08         0.00000E+00
    0.00000E+00         0.00000E+00         0.00000E+00
 
    0.19694E+06         0.23986E+07         0.00000E+00
    0.23986E+07         0.13659E+08         0.00000E+00
    0.00000E+00         0.00000E+00         0.14589E+05
 
    0.22484E+06         0.25143E+07         0.00000E+00
    0.25143E+07         0.13794E+08         0.00000E+00
    0.00000E+00         0.00000E+00         0.10367E+06
 
    0.26575E+06         0.26372E+07         0.00000E+00
    0.26372E+07         0.13909E+08         0.00000E+00
    0.00000E+00         0.00000E+00         0.20130E+06
 
    0.39930E+06         0.27385E+07         0.00000E+00
    0.27385E+07         0.13948E+08         0.00000E+00
    0.00000E+00         0.00000E+00         0.37849E+06
 
    0.58303E+06         0.28262E+07         0.00000E+00
    0.28262E+07         0.14016E+08         0.00000E+00
    0.00000E+00         0.00000E+00         0.58075E+06
 
    0.15977E+06        -0.14499E+05         0.00000E+00
   -0.14499E+05         0.98732E+07         0.00000E+00
    0.00000E+00         0.00000E+00         0.00000E+00
 
    0.30045E+06        -0.38303E+05         0.00000E+00
   -0.38303E+05         0.98784E+07         0.00000E+00
    0.00000E+00         0.00000E+00         0.00000E+00
 
    0.42910E+06        -0.59829E+05         0.00000E+00
   -0.59829E+05         0.98878E+07         0.00000E+00
    0.00000E+00         0.00000E+00         0.00000E+00
 
    0.54622E+06        -0.79271E+05         0.00000E+00
   -0.79271E+05         0.99017E+07         0.00000E+00
    0.00000E+00         0.00000E+00         0.00000E+00
 
    0.65208E+06        -0.96542E+05         0.00000E+00
   -0.96542E+05         0.99197E+07         0.00000E+00
    0.00000E+00         0.00000E+00         0.00000E+00
 
    0.74693E+06        -0.11149E+06         0.00000E+00
   -0.11149E+06         0.99420E+07         0.00000E+00
    0.00000E+00         0.00000E+00         0.00000E+00
 
    0.83104E+06        -0.12391E+06         0.00000E+00
   -0.12391E+06         0.99682E+07         0.00000E+00
    0.00000E+00         0.00000E+00         0.00000E+00
 
    0.90468E+06        -0.13361E+06         0.00000E+00
   -0.13361E+06         0.99984E+07         0.00000E+00
    0.00000E+00         0.00000E+00         0.00000E+00
 
    0.96817E+06        -0.14035E+06         0.00000E+00
   -0.14035E+06         0.10032E+08         0.00000E+00
    0.00000E+00         0.00000E+00         0.00000E+00
 
    0.10218E+07        -0.14390E+06         0.00000E+00
   -0.14390E+06         0.10070E+08         0.00000E+00
    0.00000E+00         0.00000E+00         0.00000E+00
 
    0.10659E+07        -0.14403E+06         0.00000E+00
   -0.14403E+06         0.10111E+08         0.00000E+00
    0.00000E+00         0.00000E+00         0.00000E+00
 
    0.11008E+07        -0.14048E+06         0.00000E+00
   -0.14048E+06         0.10155E+08         0.00000E+00
    0.00000E+00         0.00000E+00         0.00000E+00
 
    0.11270E+07        -0.13301E+06         0.00000E+00
   -0.13301E+06         0.10202E+08         0.00000E+00
    0.00000E+00         0.00000E+00         0.00000E+00
 
    0.11447E+07        -0.12140E+06         0.00000E+00
   -0.12140E+06         0.10253E+08         0.00000E+00
    0.00000E+00         0.00000E+00         0.00000E+00
 
    0.11545E+07        -0.10541E+06         0.00000E+00
   -0.10541E+06         0.10306E+08         0.00000E+00
    0.00000E+00         0.00000E+00         0.00000E+00
 
    0.11567E+07        -0.84834E+05         0.00000E+00
   -0.84834E+05         0.10361E+08         0.00000E+00
    0.00000E+00         0.00000E+00         0.00000E+00
 
    0.11519E+07        -0.59493E+05         0.00000E+00
   -0.59493E+05         0.10419E+08         0.00000E+00
    0.00000E+00         0.00000E+00         0.00000E+00
 
    0.11405E+07        -0.29223E+05         0.00000E+00
   -0.29223E+05         0.10479E+08         0.00000E+00
    0.00000E+00         0.00000E+00         0.00000E+00
 
    0.11230E+07         0.61187E+04         0.00000E+00
    0.61187E+04         0.10541E+08         0.00000E+00
    0.00000E+00         0.00000E+00         0.00000E+00
 
    0.10998E+07         0.46652E+05         0.00000E+00
    0.46652E+05         0.10605E+08         0.00000E+00
    0.00000E+00         0.00000E+00         0.00000E+00
 
    0.10716E+07         0.92475E+05         0.00000E+00
    0.92475E+05         0.10670E+08         0.00000E+00
    0.00000E+00         0.00000E+00         0.00000E+00
 
    0.10387E+07         0.14367E+06         0.00000E+00
    0.14367E+06         0.10737E+08         0.00000E+00
    0.00000E+00         0.00000E+00         0.00000E+00
 
    0.10018E+07         0.20029E+06         0.00000E+00
    0.20029E+06         0.10804E+08         0.00000E+00
    0.00000E+00         0.00000E+00         0.00000E+00
 
    0.96118E+06         0.26238E+06         0.00000E+00
    0.26238E+06         0.10873E+08         0.00000E+00
    0.00000E+00         0.00000E+00         0.00000E+00
 
    0.91746E+06         0.32998E+06         0.00000E+00
    0.32998E+06         0.10942E+08         0.00000E+00
    0.00000E+00         0.00000E+00         0.00000E+00
 
    0.87109E+06         0.40310E+06         0.00000E+00
    0.40310E+06         0.11013E+08         0.00000E+00
    0.00000E+00         0.00000E+00         0.00000E+00
 
    0.82256E+06         0.48175E+06         0.00000E+00
    0.48175E+06         0.11083E+08         0.00000E+00
    0.00000E+00         0.00000E+00         0.00000E+00
 
    0.77236E+06         0.56592E+06         0.00000E+00
    0.56592E+06         0.11154E+08         0.00000E+00
    0.00000E+00         0.00000E+00         0.00000E+00
 
    0.72096E+06         0.65559E+06         0.00000E+00
    0.65559E+06         0.11225E+08         0.00000E+00
    0.00000E+00         0.00000E+00         0.00000E+00
 
    0.66884E+06         0.75073E+06         0.00000E+00
    0.75073E+06         0.11297E+08         0.00000E+00
    0.00000E+00         0.00000E+00         0.00000E+00
 
    0.61649E+06         0.85130E+06         0.00000E+00
    0.85130E+06         0.11368E+08         0.00000E+00
    0.00000E+00         0.00000E+00         0.00000E+00
 
    0.56439E+06         0.95722E+06         0.00000E+00
    0.95722E+06         0.11440E+08         0.00000E+00
    0.00000E+00         0.00000E+00         0.00000E+00
 
    0.51300E+06         0.10684E+07         0.00000E+00
    0.10684E+07         0.11511E+08         0.00000E+00
    0.00000E+00         0.00000E+00         0.00000E+00
 
    0.46278E+06         0.11848E+07         0.00000E+00
    0.11848E+07         0.11581E+08         0.00000E+00
    0.00000E+00         0.00000E+00         0.00000E+00
 
    0.41418E+06         0.13062E+07         0.00000E+00
    0.13062E+07         0.11652E+08         0.00000E+00
    0.00000E+00         0.00000E+00         0.00000E+00
 
    0.36766E+06         0.14325E+07         0.00000E+00
    0.14325E+07         0.11722E+08         0.00000E+00
    0.00000E+00         0.00000E+00         0.00000E+00
 
    0.32369E+06         0.15636E+07         0.00000E+00
    0.15636E+07         0.11791E+08         0.00000E+00
    0.00000E+00         0.00000E+00         0.00000E+00
 
    0.28278E+06         0.16995E+07         0.00000E+00
    0.16995E+07         0.11860E+08         0.00000E+00
    0.00000E+00         0.00000E+00         0.00000E+00
 
    0.24542E+06         0.18395E+07         0.00000E+00
    0.18395E+07         0.11928E+08         0.00000E+00
    0.00000E+00         0.00000E+00         0.00000E+00
 
    0.21162E+06         0.19829E+07         0.00000E+00
    0.19829E+07         0.11994E+08         0.00000E+00
    0.00000E+00         0.00000E+00         0.00000E+00
 
    0.18129E+06         0.21299E+07         0.00000E+00
    0.21299E+07         0.12063E+08         0.00000E+00
    0.00000E+00         0.00000E+00         0.00000E+00
 
    0.15393E+06         0.22797E+07         0.00000E+00
    0.22797E+07         0.12130E+08         0.00000E+00
    0.00000E+00         0.00000E+00         0.00000E+00
 
    0.12965E+06         0.24345E+07         0.00000E+00
    0.24345E+07         0.12200E+08         0.00000E+00
    0.00000E+00         0.00000E+00         0.00000E+00
 
    0.11120E+06         0.25966E+07         0.00000E+00
    0.25966E+07         0.12272E+08         0.00000E+00
    0.00000E+00         0.00000E+00         0.00000E+00
 
    0.10060E+06         0.27606E+07         0.00000E+00
    0.27606E+07         0.12327E+08         0.00000E+00
    0.00000E+00         0.00000E+00         0.00000E+00
 
    0.99940E+05         0.29269E+07         0.00000E+00
    0.29269E+07         0.12383E+08         0.00000E+00
    0.00000E+00         0.00000E+00         0.00000E+00
 
    0.10461E+06         0.30795E+07         0.00000E+00
    0.30795E+07         0.12425E+08         0.00000E+00
    0.00000E+00         0.00000E+00         0.00000E+00
 
    0.99490E+05         0.32170E+07         0.00000E+00
    0.32170E+07         0.12494E+08         0.00000E+00
    0.00000E+00         0.00000E+00         0.00000E+00
 
    0.73912E+05         0.33614E+07         0.00000E+00
    0.33614E+07         0.12653E+08         0.00000E+00
    0.00000E+00         0.00000E+00         0.00000E+00
 
    0.71952E+05         0.34951E+07         0.00000E+00
    0.34951E+07         0.12810E+08         0.00000E+00
    0.00000E+00         0.00000E+00         0.44665E+05
 
   -0.71953E+06        -0.18566E+04         0.00000E+00
   -0.18566E+04         0.90599E+07         0.00000E+00
    0.00000E+00         0.00000E+00         0.00000E+00
 
   -0.57135E+06        -0.32498E+04         0.00000E+00
   -0.32498E+04         0.90646E+07         0.00000E+00
    0.00000E+00         0.00000E+00         0.00000E+00
 
   -0.43450E+06        -0.36160E+04         0.00000E+00
   -0.36160E+04         0.90736E+07         0.00000E+00
    0.00000E+00         0.00000E+00         0.00000E+00
 
   -0.30859E+06        -0.26807E+04         0.00000E+00
   -0.26807E+04         0.90868E+07         0.00000E+00
    0.00000E+00         0.00000E+00         0.00000E+00
 
   -0.19320E+06        -0.25318E+03         0.00000E+00
   -0.25318E+03         0.91038E+07         0.00000E+00
    0.00000E+00         0.00000E+00         0.00000E+00
 
   -0.87966E+05         0.38567E+04         0.00000E+00
    0.38567E+04         0.91246E+07         0.00000E+00
    0.00000E+00         0.00000E+00         0.00000E+00
 
    0.74821E+04         0.98426E+04         0.00000E+00
    0.98426E+04         0.91489E+07         0.00000E+00
    0.00000E+00         0.00000E+00         0.00000E+00
 
    0.93486E+05         0.17907E+05         0.00000E+00
    0.17907E+05         0.91766E+07         0.00000E+00
    0.00000E+00         0.00000E+00         0.00000E+00
 
    0.17039E+06         0.28258E+05         0.00000E+00
    0.28258E+05         0.92076E+07         0.00000E+00
    0.00000E+00         0.00000E+00         0.00000E+00
 
    0.23852E+06         0.41105E+05         0.00000E+00
    0.41105E+05         0.92416E+07         0.00000E+00
    0.00000E+00         0.00000E+00         0.00000E+00
 
    0.29823E+06         0.56656E+05         0.00000E+00
    0.56656E+05         0.92786E+07         0.00000E+00
    0.00000E+00         0.00000E+00         0.00000E+00
 
    0.34986E+06         0.75118E+05         0.00000E+00
    0.75118E+05         0.93184E+07         0.00000E+00
    0.00000E+00         0.00000E+00         0.00000E+00
 
    0.39377E+06         0.96691E+05         0.00000E+00
    0.96691E+05         0.93609E+07         0.00000E+00
    0.00000E+00         0.00000E+00         0.00000E+00
 
    0.43032E+06         0.12157E+06         0.00000E+00
    0.12157E+06         0.94058E+07         0.00000E+00
    0.00000E+00         0.00000E+00         0.00000E+00
 
    0.45988E+06         0.14995E+06         0.00000E+00
    0.14995E+06         0.94529E+07         0.00000E+00
    0.00000E+00         0.00000E+00         0.00000E+00
 
    0.48283E+06         0.18200E+06         0.00000E+00
    0.18200E+06         0.95023E+07         0.00000E+00
    0.00000E+00         0.00000E+00         0.00000E+00
 
    0.49956E+06         0.21790E+06         0.00000E+00
    0.21790E+06         0.95535E+07         0.00000E+00
    0.00000E+00         0.00000E+00         0.00000E+00
 
    0.51045E+06         0.25779E+06         0.00000E+00
    0.25779E+06         0.96065E+07         0.00000E+00
    0.00000E+00         0.00000E+00         0.00000E+00
 
    0.51593E+06         0.30182E+06         0.00000E+00
    0.30182E+06         0.96611E+07         0.00000E+00
    0.00000E+00         0.00000E+00         0.00000E+00
 
    0.51639E+06         0.35011E+06         0.00000E+00
    0.35011E+06         0.97171E+07         0.00000E+00
    0.00000E+00         0.00000E+00         0.00000E+00
 
    0.51224E+06         0.40278E+06         0.00000E+00
    0.40278E+06         0.97743E+07         0.00000E+00
    0.00000E+00         0.00000E+00         0.00000E+00
 
    0.50392E+06         0.45992E+06         0.00000E+00
    0.45992E+06         0.98326E+07         0.00000E+00
    0.00000E+00         0.00000E+00         0.00000E+00
 
    0.49183E+06         0.52162E+06         0.00000E+00
    0.52162E+06         0.98916E+07         0.00000E+00
    0.00000E+00         0.00000E+00         0.00000E+00
 
    0.47639E+06         0.58794E+06         0.00000E+00
    0.58794E+06         0.99514E+07         0.00000E+00
    0.00000E+00         0.00000E+00         0.00000E+00
 
    0.45804E+06         0.65894E+06         0.00000E+00
    0.65894E+06         0.10012E+08         0.00000E+00
    0.00000E+00         0.00000E+00         0.00000E+00
 
    0.43718E+06         0.73464E+06         0.00000E+00
    0.73464E+06         0.10072E+08         0.00000E+00
    0.00000E+00         0.00000E+00         0.00000E+00
 
    0.41424E+06         0.81507E+06         0.00000E+00
    0.81507E+06         0.10133E+08         0.00000E+00
    0.00000E+00         0.00000E+00         0.00000E+00
 
    0.38964E+06         0.90023E+06         0.00000E+00
    0.90023E+06         0.10193E+08         0.00000E+00
    0.00000E+00         0.00000E+00         0.00000E+00
 
    0.36378E+06         0.99011E+06         0.00000E+00
    0.99011E+06         0.10254E+08         0.00000E+00
    0.00000E+00         0.00000E+00         0.00000E+00
 
    0.33708E+06         0.10847E+07         0.00000E+00
    0.10847E+07         0.10313E+08         0.00000E+00
    0.00000E+00         0.00000E+00         0.00000E+00
 
    0.30993E+06         0.11839E+07         0.00000E+00
    0.11839E+07         0.10373E+08         0.00000E+00
    0.00000E+00         0.00000E+00         0.00000E+00
 
    0.28272E+06         0.12877E+07         0.00000E+00
    0.12877E+07         0.10431E+08         0.00000E+00
    0.00000E+00         0.00000E+00         0.00000E+00
 
    0.25583E+06         0.13960E+07         0.00000E+00
    0.13960E+07         0.10489E+08         0.00000E+00
    0.00000E+00         0.00000E+00         0.00000E+00
 
    0.22964E+06         0.15087E+07         0.00000E+00
    0.15087E+07         0.10545E+08         0.00000E+00
    0.00000E+00         0.00000E+00         0.00000E+00
 
    0.20450E+06         0.16257E+07         0.00000E+00
    0.16257E+07         0.10600E+08         0.00000E+00
    0.00000E+00         0.00000E+00         0.00000E+00
 
    0.18072E+06         0.17469E+07         0.00000E+00
    0.17469E+07         0.10653E+08         0.00000E+00
    0.00000E+00         0.00000E+00         0.00000E+00
 
    0.15862E+06         0.18719E+07         0.00000E+00
    0.18719E+07         0.10705E+08         0.00000E+00
    0.00000E+00         0.00000E+00         0.00000E+00
 
    0.13843E+06         0.20007E+07         0.00000E+00
    0.20007E+07         0.10755E+08         0.00000E+00
    0.00000E+00         0.00000E+00         0.00000E+00
 
    0.12032E+06         0.21331E+07         0.00000E+00
    0.21331E+07         0.10803E+08         0.00000E+00
    0.00000E+00         0.00000E+00         0.00000E+00
 
    0.10453E+06         0.22688E+07         0.00000E+00
    0.22688E+07         0.10848E+08         0.00000E+00
    0.00000E+00         0.00000E+00         0.00000E+00
 
    0.91254E+05         0.24076E+07         0.00000E+00
    0.24076E+07         0.10891E+08         0.00000E+00
    0.00000E+00         0.00000E+00         0.00000E+00
 
    0.80683E+05         0.25493E+07         0.00000E+00
    0.25493E+07         0.10931E+08         0.00000E+00
    0.00000E+00         0.00000E+00         0.00000E+00
 
    0.72830E+05         0.26930E+07         0.00000E+00
    0.26930E+07         0.10967E+08         0.00000E+00
    0.00000E+00         0.00000E+00         0.00000E+00
 
    0.66764E+05         0.28373E+07         0.00000E+00
    0.28373E+07         0.10999E+08         0.00000E+00
    0.00000E+00         0.00000E+00         0.00000E+00
 
    0.61445E+05         0.29829E+07         0.00000E+00
    0.29829E+07         0.11031E+08         0.00000E+00
    0.00000E+00         0.00000E+00         0.00000E+00
 
    0.55403E+05         0.31287E+07         0.00000E+00
    0.31287E+07         0.11059E+08         0.00000E+00
    0.00000E+00         0.00000E+00         0.00000E+00
 
    0.48060E+05         0.32778E+07         0.00000E+00
    0.32778E+07         0.11087E+08         0.00000E+00
    0.00000E+00         0.00000E+00         0.00000E+00
 
    0.40912E+05         0.34305E+07         0.00000E+00
    0.34305E+07         0.11107E+08         0.00000E+00
    0.00000E+00         0.00000E+00         0.00000E+00
 
    0.32300E+05         0.35790E+07         0.00000E+00
    0.35790E+07         0.11103E+08         0.00000E+00
    0.00000E+00         0.00000E+00         0.00000E+00
 
    0.13496E+05         0.37164E+07         0.00000E+00
    0.37164E+07         0.11086E+08         0.00000E+00
    0.00000E+00         0.00000E+00         0.00000E+00
 
   -0.14166E+07         0.99644E+04         0.00000E+00
    0.99644E+04         0.83183E+07         0.00000E+00
    0.00000E+00         0.00000E+00         0.00000E+00
 
   -0.12662E+07         0.29014E+05         0.00000E+00
    0.29014E+05         0.83225E+07         0.00000E+00
    0.00000E+00         0.00000E+00         0.00000E+00
 
   -0.11260E+07         0.48170E+05         0.00000E+00
    0.48170E+05         0.83304E+07         0.00000E+00
    0.00000E+00         0.00000E+00         0.00000E+00
 
   -0.99556E+06         0.67685E+05         0.00000E+00
    0.67685E+05         0.83419E+07         0.00000E+00
    0.00000E+00         0.00000E+00         0.00000E+00
 
   -0.87455E+06         0.87822E+05         0.00000E+00
    0.87822E+05         0.83569E+07         0.00000E+00
    0.00000E+00         0.00000E+00         0.00000E+00
 
   -0.76262E+06         0.10883E+06         0.00000E+00
    0.10883E+06         0.83750E+07         0.00000E+00
    0.00000E+00         0.00000E+00         0.00000E+00
 
   -0.65943E+06         0.13095E+06         0.00000E+00
    0.13095E+06         0.83963E+07         0.00000E+00
    0.00000E+00         0.00000E+00         0.00000E+00
 
   -0.56463E+06         0.15440E+06         0.00000E+00
    0.15440E+06         0.84204E+07         0.00000E+00
    0.00000E+00         0.00000E+00         0.00000E+00
 
   -0.47790E+06         0.17940E+06         0.00000E+00
    0.17940E+06         0.84473E+07         0.00000E+00
    0.00000E+00         0.00000E+00         0.00000E+00
 
   -0.39892E+06         0.20617E+06         0.00000E+00
    0.20617E+06         0.84768E+07         0.00000E+00
    0.00000E+00         0.00000E+00         0.00000E+00
 
   -0.32736E+06         0.23490E+06         0.00000E+00
    0.23490E+06         0.85088E+07         0.00000E+00
    0.00000E+00         0.00000E+00         0.00000E+00
 
   -0.26290E+06         0.26579E+06         0.00000E+00
    0.26579E+06         0.85430E+07         0.00000E+00
    0.00000E+00         0.00000E+00         0.00000E+00
 
   -0.20522E+06         0.29903E+06         0.00000E+00
    0.29903E+06         0.85794E+07         0.00000E+00
    0.00000E+00         0.00000E+00         0.00000E+00
 
   -0.15399E+06         0.33480E+06         0.00000E+00
    0.33480E+06         0.86177E+07         0.00000E+00
    0.00000E+00         0.00000E+00         0.00000E+00
 
   -0.10888E+06         0.37326E+06         0.00000E+00
    0.37326E+06         0.86580E+07         0.00000E+00
    0.00000E+00         0.00000E+00         0.00000E+00
 
   -0.69563E+05         0.41458E+06         0.00000E+00
    0.41458E+06         0.86998E+07         0.00000E+00
    0.00000E+00         0.00000E+00         0.00000E+00
 
   -0.35700E+05         0.45891E+06         0.00000E+00
    0.45891E+06         0.87432E+07         0.00000E+00
    0.00000E+00         0.00000E+00         0.00000E+00
 
   -0.69534E+04         0.50638E+06         0.00000E+00
    0.50638E+06         0.87879E+07         0.00000E+00
    0.00000E+00         0.00000E+00         0.00000E+00
 
    0.17018E+05         0.55712E+06         0.00000E+00
    0.55712E+06         0.88338E+07         0.00000E+00
    0.00000E+00         0.00000E+00         0.00000E+00
 
    0.36558E+05         0.61125E+06         0.00000E+00
    0.61125E+06         0.88807E+07         0.00000E+00
    0.00000E+00         0.00000E+00         0.00000E+00
 
    0.52015E+05         0.66887E+06         0.00000E+00
    0.66887E+06         0.89284E+07         0.00000E+00
    0.00000E+00         0.00000E+00         0.00000E+00
 
    0.63737E+05         0.73006E+06         0.00000E+00
    0.73006E+06         0.89768E+07         0.00000E+00
    0.00000E+00         0.00000E+00         0.00000E+00
 
    0.72074E+05         0.79490E+06         0.00000E+00
    0.79490E+06         0.90257E+07         0.00000E+00
    0.00000E+00         0.00000E+00         0.00000E+00
 
    0.77374E+05         0.86344E+06         0.00000E+00
    0.86344E+06         0.90748E+07         0.00000E+00
    0.00000E+00         0.00000E+00         0.00000E+00
 
    0.79986E+05         0.93574E+06         0.00000E+00
    0.93574E+06         0.91241E+07         0.00000E+00
    0.00000E+00         0.00000E+00         0.00000E+00
 
    0.80255E+05         0.10118E+07         0.00000E+00
    0.10118E+07         0.91733E+07         0.00000E+00
    0.00000E+00         0.00000E+00         0.00000E+00
 
    0.78525E+05         0.10917E+07         0.00000E+00
    0.10917E+07         0.92222E+07         0.00000E+00
    0.00000E+00         0.00000E+00         0.00000E+00
 
    0.75133E+05         0.11754E+07         0.00000E+00
    0.11754E+07         0.92707E+07         0.00000E+00
    0.00000E+00         0.00000E+00         0.00000E+00
 
    0.70408E+05         0.12628E+07         0.00000E+00
    0.12628E+07         0.93186E+07         0.00000E+00
    0.00000E+00         0.00000E+00         0.00000E+00
 
    0.64673E+05         0.13540E+07         0.00000E+00
    0.13540E+07         0.93657E+07         0.00000E+00
    0.00000E+00         0.00000E+00         0.00000E+00
 
    0.58240E+05         0.14488E+07         0.00000E+00
    0.14488E+07         0.94117E+07         0.00000E+00
    0.00000E+00         0.00000E+00         0.00000E+00
 
    0.51409E+05         0.15473E+07         0.00000E+00
    0.15473E+07         0.94566E+07         0.00000E+00
    0.00000E+00         0.00000E+00         0.00000E+00
 
    0.44460E+05         0.16493E+07         0.00000E+00
    0.16493E+07         0.95002E+07         0.00000E+00
    0.00000E+00         0.00000E+00         0.00000E+00
 
    0.37659E+05         0.17546E+07         0.00000E+00
    0.17546E+07         0.95421E+07         0.00000E+00
    0.00000E+00         0.00000E+00         0.00000E+00
 
    0.31244E+05         0.18633E+07         0.00000E+00
    0.18633E+07         0.95824E+07         0.00000E+00
    0.00000E+00         0.00000E+00         0.00000E+00
 
    0.25428E+05         0.19750E+07         0.00000E+00
    0.19750E+07         0.96207E+07         0.00000E+00
    0.00000E+00         0.00000E+00         0.00000E+00
 
    0.20389E+05         0.20897E+07         0.00000E+00
    0.20897E+07         0.96569E+07         0.00000E+00
    0.00000E+00         0.00000E+00         0.00000E+00
 
    0.16273E+05         0.22072E+07         0.00000E+00
    0.22072E+07         0.96909E+07         0.00000E+00
    0.00000E+00         0.00000E+00         0.00000E+00
 
    0.13188E+05         0.23271E+07         0.00000E+00
    0.23271E+07         0.97225E+07         0.00000E+00
    0.00000E+00         0.00000E+00         0.00000E+00
 
    0.11159E+05         0.24494E+07         0.00000E+00
    0.24494E+07         0.97514E+07         0.00000E+00
    0.00000E+00         0.00000E+00         0.00000E+00
 
    0.10141E+05         0.25736E+07         0.00000E+00
    0.25736E+07         0.97778E+07         0.00000E+00
    0.00000E+00         0.00000E+00         0.00000E+00
 
    0.99717E+04         0.26995E+07         0.00000E+00
    0.26995E+07         0.98013E+07         0.00000E+00
    0.00000E+00         0.00000E+00         0.00000E+00
 
    0.10383E+05         0.28269E+07         0.00000E+00
    0.28269E+07         0.98221E+07         0.00000E+00
    0.00000E+00         0.00000E+00         0.00000E+00
 
    0.11208E+05         0.29558E+07         0.00000E+00
    0.29558E+07         0.98404E+07         0.00000E+00
    0.00000E+00         0.00000E+00         0.00000E+00
 
    0.12155E+05         0.30857E+07         0.00000E+00
    0.30857E+07         0.98552E+07         0.00000E+00
    0.00000E+00         0.00000E+00         0.00000E+00
 
    0.12901E+05         0.32169E+07         0.00000E+00
    0.32169E+07         0.98678E+07         0.00000E+00
    0.00000E+00         0.00000E+00         0.00000E+00
 
    0.12830E+05         0.33485E+07         0.00000E+00
    0.33485E+07         0.98769E+07         0.00000E+00
    0.00000E+00         0.00000E+00         0.00000E+00
 
    0.10608E+05         0.34803E+07         0.00000E+00
    0.34803E+07         0.98843E+07         0.00000E+00
    0.00000E+00         0.00000E+00         0.00000E+00
 
    0.58734E+04         0.36151E+07         0.00000E+00
    0.36151E+07         0.98947E+07         0.00000E+00
    0.00000E+00         0.00000E+00         0.00000E+00
 
    0.14915E+04         0.37571E+07         0.00000E+00
    0.37571E+07         0.99068E+07         0.00000E+00
    0.00000E+00         0.00000E+00         0.00000E+00
 
   -0.19489E+07         0.20001E+05         0.00000E+00
    0.20001E+05         0.76435E+07         0.00000E+00
    0.00000E+00         0.00000E+00         0.00000E+00
 
   -0.18010E+07         0.56699E+05         0.00000E+00
    0.56699E+05         0.76469E+07         0.00000E+00
    0.00000E+00         0.00000E+00         0.00000E+00
 
   -0.16619E+07         0.92644E+05         0.00000E+00
    0.92644E+05         0.76534E+07         0.00000E+00
    0.00000E+00         0.00000E+00         0.00000E+00
 
   -0.15312E+07         0.12815E+06         0.00000E+00
    0.12815E+06         0.76629E+07         0.00000E+00
    0.00000E+00         0.00000E+00         0.00000E+00
 
   -0.14086E+07         0.16349E+06         0.00000E+00
    0.16349E+06         0.76752E+07         0.00000E+00
    0.00000E+00         0.00000E+00         0.00000E+00
 
   -0.12939E+07         0.19895E+06         0.00000E+00
    0.19895E+06         0.76901E+07         0.00000E+00
    0.00000E+00         0.00000E+00         0.00000E+00
 
   -0.11867E+07         0.23478E+06         0.00000E+00
    0.23478E+06         0.77076E+07         0.00000E+00
    0.00000E+00         0.00000E+00         0.00000E+00
 
   -0.10868E+07         0.27121E+06         0.00000E+00
    0.27121E+06         0.77275E+07         0.00000E+00
    0.00000E+00         0.00000E+00         0.00000E+00
 
   -0.99388E+06         0.30848E+06         0.00000E+00
    0.30848E+06         0.77497E+07         0.00000E+00
    0.00000E+00         0.00000E+00         0.00000E+00
 
   -0.90770E+06         0.34679E+06         0.00000E+00
    0.34679E+06         0.77740E+07         0.00000E+00
    0.00000E+00         0.00000E+00         0.00000E+00
 
   -0.82797E+06         0.38635E+06         0.00000E+00
    0.38635E+06         0.78003E+07         0.00000E+00
    0.00000E+00         0.00000E+00         0.00000E+00
 
   -0.75440E+06         0.42735E+06         0.00000E+00
    0.42735E+06         0.78284E+07         0.00000E+00
    0.00000E+00         0.00000E+00         0.00000E+00
 
   -0.68673E+06         0.46996E+06         0.00000E+00
    0.46996E+06         0.78582E+07         0.00000E+00
    0.00000E+00         0.00000E+00         0.00000E+00
 
   -0.62466E+06         0.51437E+06         0.00000E+00
    0.51437E+06         0.78895E+07         0.00000E+00
    0.00000E+00         0.00000E+00         0.00000E+00
 
   -0.56792E+06         0.56072E+06         0.00000E+00
    0.56072E+06         0.79223E+07         0.00000E+00
    0.00000E+00         0.00000E+00         0.00000E+00
 
   -0.51622E+06         0.60916E+06         0.00000E+00
    0.60916E+06         0.79563E+07         0.00000E+00
    0.00000E+00         0.00000E+00         0.00000E+00
 
   -0.46929E+06         0.65983E+06         0.00000E+00
    0.65983E+06         0.79915E+07         0.00000E+00
    0.00000E+00         0.00000E+00         0.00000E+00
 
   -0.42684E+06         0.71285E+06         0.00000E+00
    0.71285E+06         0.80276E+07         0.00000E+00
    0.00000E+00         0.00000E+00         0.00000E+00
 
   -0.38859E+06         0.76834E+06         0.00000E+00
    0.76834E+06         0.80646E+07         0.00000E+00
    0.00000E+00         0.00000E+00         0.00000E+00
 
   -0.35425E+06         0.82639E+06         0.00000E+00
    0.82639E+06         0.81022E+07         0.00000E+00
    0.00000E+00         0.00000E+00         0.00000E+00
 
   -0.32353E+06         0.88710E+06         0.00000E+00
    0.88710E+06         0.81404E+07         0.00000E+00
    0.00000E+00         0.00000E+00         0.00000E+00
 
   -0.29616E+06         0.95054E+06         0.00000E+00
    0.95054E+06         0.81789E+07         0.00000E+00
    0.00000E+00         0.00000E+00         0.00000E+00
 
   -0.27184E+06         0.10168E+07         0.00000E+00
    0.10168E+07         0.82176E+07         0.00000E+00
    0.00000E+00         0.00000E+00         0.00000E+00
 
   -0.25030E+06         0.10859E+07         0.00000E+00
    0.10859E+07         0.82563E+07         0.00000E+00
    0.00000E+00         0.00000E+00         0.00000E+00
 
   -0.23125E+06         0.11578E+07         0.00000E+00
    0.11578E+07         0.82950E+07         0.00000E+00
    0.00000E+00         0.00000E+00         0.00000E+00
 
   -0.21443E+06         0.12327E+07         0.00000E+00
    0.12327E+07         0.83333E+07         0.00000E+00
    0.00000E+00         0.00000E+00         0.00000E+00
 
   -0.19956E+06         0.13105E+07         0.00000E+00
    0.13105E+07         0.83712E+07         0.00000E+00
    0.00000E+00         0.00000E+00         0.00000E+00
 
   -0.18638E+06         0.13912E+07         0.00000E+00
    0.13912E+07         0.84085E+07         0.00000E+00
    0.00000E+00         0.00000E+00         0.00000E+00
 
   -0.17465E+06         0.14748E+07         0.00000E+00
    0.14748E+07         0.84450E+07         0.00000E+00
    0.00000E+00         0.00000E+00         0.00000E+00
 
   -0.16411E+06         0.15612E+07         0.00000E+00
    0.15612E+07         0.84807E+07         0.00000E+00
    0.00000E+00         0.00000E+00         0.00000E+00
 
   -0.15454E+06         0.16504E+07         0.00000E+00
    0.16504E+07         0.85152E+07         0.00000E+00
    0.00000E+00         0.00000E+00         0.00000E+00
 
   -0.14572E+06         0.17424E+07         0.00000E+00
    0.17424E+07         0.85486E+07         0.00000E+00
    0.00000E+00         0.00000E+00         0.00000E+00
 
   -0.13744E+06         0.18371E+07         0.00000E+00
    0.18371E+07         0.85805E+07         0.00000E+00
    0.00000E+00         0.00000E+00         0.00000E+00
 
   -0.12954E+06         0.19343E+07         0.00000E+00
    0.19343E+07         0.86110E+07         0.00000E+00
    0.00000E+00         0.00000E+00         0.00000E+00
 
   -0.12185E+06         0.20340E+07         0.00000E+00
    0.20340E+07         0.86399E+07         0.00000E+00
    0.00000E+00         0.00000E+00         0.00000E+00
 
   -0.11423E+06         0.21361E+07         0.00000E+00
    0.21361E+07         0.86670E+07         0.00000E+00
    0.00000E+00         0.00000E+00         0.00000E+00
 
   -0.10658E+06         0.22404E+07         0.00000E+00
    0.22404E+07         0.86923E+07         0.00000E+00
    0.00000E+00         0.00000E+00         0.00000E+00
 
   -0.98824E+05         0.23468E+07         0.00000E+00
    0.23468E+07         0.87156E+07         0.00000E+00
    0.00000E+00         0.00000E+00         0.00000E+00
 
   -0.90914E+05         0.24552E+07         0.00000E+00
    0.24552E+07         0.87369E+07         0.00000E+00
    0.00000E+00         0.00000E+00         0.00000E+00
 
   -0.82842E+05         0.25655E+07         0.00000E+00
    0.25655E+07         0.87562E+07         0.00000E+00
    0.00000E+00         0.00000E+00         0.00000E+00
 
   -0.74630E+05         0.26775E+07         0.00000E+00
    0.26775E+07         0.87733E+07         0.00000E+00
    0.00000E+00         0.00000E+00         0.00000E+00
 
   -0.66322E+05         0.27912E+07         0.00000E+00
    0.27912E+07         0.87884E+07         0.00000E+00
    0.00000E+00         0.00000E+00         0.00000E+00
 
   -0.57972E+05         0.29064E+07         0.00000E+00
    0.29064E+07         0.88014E+07         0.00000E+00
    0.00000E+00         0.00000E+00         0.00000E+00
 
   -0.49699E+05         0.30232E+07         0.00000E+00
    0.30232E+07         0.88123E+07         0.00000E+00
    0.00000E+00         0.00000E+00         0.00000E+00
 
   -0.41607E+05         0.31415E+07         0.00000E+00
    0.31415E+07         0.88213E+07         0.00000E+00
    0.00000E+00         0.00000E+00         0.00000E+00
 
   -0.33796E+05         0.32615E+07         0.00000E+00
    0.32615E+07         0.88283E+07         0.00000E+00
    0.00000E+00         0.00000E+00         0.00000E+00
 
   -0.26268E+05         0.33833E+07         0.00000E+00
    0.33833E+07         0.88336E+07         0.00000E+00
    0.00000E+00         0.00000E+00         0.00000E+00
 
   -0.18703E+05         0.35073E+07         0.00000E+00
    0.35073E+07         0.88371E+07         0.00000E+00
    0.00000E+00         0.00000E+00         0.00000E+00
 
   -0.10860E+05         0.36332E+07         0.00000E+00
    0.36332E+07         0.88375E+07         0.00000E+00
    0.00000E+00         0.00000E+00         0.00000E+00
 
   -0.34350E+04         0.37596E+07         0.00000E+00
    0.37596E+07         0.88345E+07         0.00000E+00
    0.00000E+00         0.00000E+00         0.00000E+00
 
   -0.23381E+07         0.27984E+05         0.00000E+00
    0.27984E+05         0.70299E+07         0.00000E+00
    0.00000E+00         0.00000E+00         0.00000E+00
 
   -0.21965E+07         0.78987E+05         0.00000E+00
    0.78987E+05         0.70325E+07         0.00000E+00
    0.00000E+00         0.00000E+00         0.00000E+00
 
   -0.20620E+07         0.12863E+06         0.00000E+00
    0.12863E+06         0.70375E+07         0.00000E+00
    0.00000E+00         0.00000E+00         0.00000E+00
 
   -0.19346E+07         0.17721E+06         0.00000E+00
    0.17721E+06         0.70449E+07         0.00000E+00
    0.00000E+00         0.00000E+00         0.00000E+00
 
   -0.18139E+07         0.22501E+06         0.00000E+00
    0.22501E+06         0.70544E+07         0.00000E+00
    0.00000E+00         0.00000E+00         0.00000E+00
 
   -0.16997E+07         0.27231E+06         0.00000E+00
    0.27231E+06         0.70661E+07         0.00000E+00
    0.00000E+00         0.00000E+00         0.00000E+00
 
   -0.15920E+07         0.31934E+06         0.00000E+00
    0.31934E+06         0.70797E+07         0.00000E+00
    0.00000E+00         0.00000E+00         0.00000E+00
 
   -0.14903E+07         0.36636E+06         0.00000E+00
    0.36636E+06         0.70952E+07         0.00000E+00
    0.00000E+00         0.00000E+00         0.00000E+00
 
   -0.13946E+07         0.41357E+06         0.00000E+00
    0.41357E+06         0.71126E+07         0.00000E+00
    0.00000E+00         0.00000E+00         0.00000E+00
 
   -0.13047E+07         0.46120E+06         0.00000E+00
    0.46120E+06         0.71315E+07         0.00000E+00
    0.00000E+00         0.00000E+00         0.00000E+00
 
   -0.12202E+07         0.50943E+06         0.00000E+00
    0.50943E+06         0.71521E+07         0.00000E+00
    0.00000E+00         0.00000E+00         0.00000E+00
 
   -0.11409E+07         0.55844E+06         0.00000E+00
    0.55844E+06         0.71740E+07         0.00000E+00
    0.00000E+00         0.00000E+00         0.00000E+00
 
   -0.10667E+07         0.60842E+06         0.00000E+00
    0.60842E+06         0.71973E+07         0.00000E+00
    0.00000E+00         0.00000E+00         0.00000E+00
 
   -0.99736E+06         0.65951E+06         0.00000E+00
    0.65951E+06         0.72218E+07         0.00000E+00
    0.00000E+00         0.00000E+00         0.00000E+00
 
   -0.93259E+06         0.71188E+06         0.00000E+00
    0.71188E+06         0.72473E+07         0.00000E+00
    0.00000E+00         0.00000E+00         0.00000E+00
 
   -0.87217E+06         0.76564E+06         0.00000E+00
    0.76564E+06         0.72738E+07         0.00000E+00
    0.00000E+00         0.00000E+00         0.00000E+00
 
   -0.81589E+06         0.82094E+06         0.00000E+00
    0.82094E+06         0.73011E+07         0.00000E+00
    0.00000E+00         0.00000E+00         0.00000E+00
 
   -0.76351E+06         0.87789E+06         0.00000E+00
    0.87789E+06         0.73290E+07         0.00000E+00
    0.00000E+00         0.00000E+00         0.00000E+00
 
   -0.71480E+06         0.93658E+06         0.00000E+00
    0.93658E+06         0.73576E+07         0.00000E+00
    0.00000E+00         0.00000E+00         0.00000E+00
 
   -0.66955E+06         0.99712E+06         0.00000E+00
    0.99712E+06         0.73865E+07         0.00000E+00
    0.00000E+00         0.00000E+00         0.00000E+00
 
   -0.62751E+06         0.10596E+07         0.00000E+00
    0.10596E+07         0.74158E+07         0.00000E+00
    0.00000E+00         0.00000E+00         0.00000E+00
 
   -0.58846E+06         0.11240E+07         0.00000E+00
    0.11240E+07         0.74452E+07         0.00000E+00
    0.00000E+00         0.00000E+00         0.00000E+00
 
   -0.55218E+06         0.11906E+07         0.00000E+00
    0.11906E+07         0.74747E+07         0.00000E+00
    0.00000E+00         0.00000E+00         0.00000E+00
 
   -0.51844E+06         0.12592E+07         0.00000E+00
    0.12592E+07         0.75041E+07         0.00000E+00
    0.00000E+00         0.00000E+00         0.00000E+00
 
   -0.48703E+06         0.13299E+07         0.00000E+00
    0.13299E+07         0.75332E+07         0.00000E+00
    0.00000E+00         0.00000E+00         0.00000E+00
 
   -0.45774E+06         0.14028E+07         0.00000E+00
    0.14028E+07         0.75620E+07         0.00000E+00
    0.00000E+00         0.00000E+00         0.00000E+00
 
   -0.43036E+06         0.14779E+07         0.00000E+00
    0.14779E+07         0.75903E+07         0.00000E+00
    0.00000E+00         0.00000E+00         0.00000E+00
 
   -0.40468E+06         0.15552E+07         0.00000E+00
    0.15552E+07         0.76180E+07         0.00000E+00
    0.00000E+00         0.00000E+00         0.00000E+00
 
   -0.38052E+06         0.16346E+07         0.00000E+00
    0.16346E+07         0.76450E+07         0.00000E+00
    0.00000E+00         0.00000E+00         0.00000E+00
 
   -0.35770E+06         0.17162E+07         0.00000E+00
    0.17162E+07         0.76711E+07         0.00000E+00
    0.00000E+00         0.00000E+00         0.00000E+00
 
   -0.33603E+06         0.18000E+07         0.00000E+00
    0.18000E+07         0.76962E+07         0.00000E+00
    0.00000E+00         0.00000E+00         0.00000E+00
 
   -0.31537E+06         0.18858E+07         0.00000E+00
    0.18858E+07         0.77202E+07         0.00000E+00
    0.00000E+00         0.00000E+00         0.00000E+00
 
   -0.29555E+06         0.19737E+07         0.00000E+00
    0.19737E+07         0.77431E+07         0.00000E+00
    0.00000E+00         0.00000E+00         0.00000E+00
 
   -0.27645E+06         0.20635E+07         0.00000E+00
    0.20635E+07         0.77646E+07         0.00000E+00
    0.00000E+00         0.00000E+00         0.00000E+00
 
   -0.25795E+06         0.21553E+07         0.00000E+00
    0.21553E+07         0.77848E+07         0.00000E+00
    0.00000E+00         0.00000E+00         0.00000E+00
 
   -0.23994E+06         0.22490E+07         0.00000E+00
    0.22490E+07         0.78036E+07         0.00000E+00
    0.00000E+00         0.00000E+00         0.00000E+00
 
   -0.22233E+06         0.23446E+07         0.00000E+00
    0.23446E+07         0.78208E+07         0.00000E+00
    0.00000E+00         0.00000E+00         0.00000E+00
 
   -0.20505E+06         0.24419E+07         0.00000E+00
    0.24419E+07         0.78364E+07         0.00000E+00
    0.00000E+00         0.00000E+00         0.00000E+00
 
   -0.18804E+06         0.25409E+07         0.00000E+00
    0.25409E+07         0.78504E+07         0.00000E+00
    0.00000E+00         0.00000E+00         0.00000E+00
 
   -0.17125E+06         0.26415E+07         0.00000E+00
    0.26415E+07         0.78628E+07         0.00000E+00
    0.00000E+00         0.00000E+00         0.00000E+00
 
   -0.15464E+06         0.27438E+07         0.00000E+00
    0.27438E+07         0.78734E+07         0.00000E+00
    0.00000E+00         0.00000E+00         0.00000E+00
 
   -0.13819E+06         0.28477E+07         0.00000E+00
    0.28477E+07         0.78823E+07         0.00000E+00
    0.00000E+00         0.00000E+00         0.00000E+00
 
   -0.12187E+06         0.29531E+07         0.00000E+00
    0.29531E+07         0.78894E+07         0.00000E+00
    0.00000E+00         0.00000E+00         0.00000E+00
 
   -0.10564E+06         0.30602E+07         0.00000E+00
    0.30602E+07         0.78947E+07         0.00000E+00
    0.00000E+00         0.00000E+00         0.00000E+00
 
   -0.89486E+05         0.31687E+07         0.00000E+00
    0.31687E+07         0.78982E+07         0.00000E+00
    0.00000E+00         0.00000E+00         0.00000E+00
 
   -0.73339E+05         0.32789E+07         0.00000E+00
    0.32789E+07         0.78999E+07         0.00000E+00
    0.00000E+00         0.00000E+00         0.00000E+00
 
   -0.57152E+05         0.33906E+07         0.00000E+00
    0.33906E+07         0.78996E+07         0.00000E+00
    0.00000E+00         0.00000E+00         0.00000E+00
 
   -0.40955E+05         0.35038E+07         0.00000E+00
    0.35038E+07         0.78973E+07         0.00000E+00
    0.00000E+00         0.00000E+00         0.00000E+00
 
   -0.24771E+05         0.36185E+07         0.00000E+00
    0.36185E+07         0.78931E+07         0.00000E+00
    0.00000E+00         0.00000E+00         0.00000E+00
 
   -0.83397E+04         0.37353E+07         0.00000E+00
    0.37353E+07         0.78873E+07         0.00000E+00
    0.00000E+00         0.00000E+00         0.00000E+00
 
   -0.26071E+07         0.33958E+05         0.00000E+00
    0.33958E+05         0.64722E+07         0.00000E+00
    0.00000E+00         0.00000E+00         0.00000E+00
 
   -0.24742E+07         0.95947E+05         0.00000E+00
    0.95947E+05         0.64740E+07         0.00000E+00
    0.00000E+00         0.00000E+00         0.00000E+00
 
   -0.23470E+07         0.15618E+06         0.00000E+00
    0.15618E+06         0.64776E+07         0.00000E+00
    0.00000E+00         0.00000E+00         0.00000E+00
 
   -0.22254E+07         0.21494E+06         0.00000E+00
    0.21494E+06         0.64830E+07         0.00000E+00
    0.00000E+00         0.00000E+00         0.00000E+00
 
   -0.21092E+07         0.27247E+06         0.00000E+00
    0.27247E+06         0.64899E+07         0.00000E+00
    0.00000E+00         0.00000E+00         0.00000E+00
 
   -0.19984E+07         0.32904E+06         0.00000E+00
    0.32904E+06         0.64984E+07         0.00000E+00
    0.00000E+00         0.00000E+00         0.00000E+00
 
   -0.18928E+07         0.38487E+06         0.00000E+00
    0.38487E+06         0.65084E+07         0.00000E+00
    0.00000E+00         0.00000E+00         0.00000E+00
 
   -0.17923E+07         0.44019E+06         0.00000E+00
    0.44019E+06         0.65199E+07         0.00000E+00
    0.00000E+00         0.00000E+00         0.00000E+00
 
   -0.16966E+07         0.49519E+06         0.00000E+00
    0.49519E+06         0.65326E+07         0.00000E+00
    0.00000E+00         0.00000E+00         0.00000E+00
 
   -0.16057E+07         0.55009E+06         0.00000E+00
    0.55009E+06         0.65466E+07         0.00000E+00
    0.00000E+00         0.00000E+00         0.00000E+00
 
   -0.15194E+07         0.60505E+06         0.00000E+00
    0.60505E+06         0.65618E+07         0.00000E+00
    0.00000E+00         0.00000E+00         0.00000E+00
 
   -0.14375E+07         0.66026E+06         0.00000E+00
    0.66026E+06         0.65781E+07         0.00000E+00
    0.00000E+00         0.00000E+00         0.00000E+00
 
   -0.13598E+07         0.71587E+06         0.00000E+00
    0.71587E+06         0.65953E+07         0.00000E+00
    0.00000E+00         0.00000E+00         0.00000E+00
 
   -0.12862E+07         0.77204E+06         0.00000E+00
    0.77204E+06         0.66134E+07         0.00000E+00
    0.00000E+00         0.00000E+00         0.00000E+00
 
   -0.12165E+07         0.82889E+06         0.00000E+00
    0.82889E+06         0.66323E+07         0.00000E+00
    0.00000E+00         0.00000E+00         0.00000E+00
 
   -0.11506E+07         0.88657E+06         0.00000E+00
    0.88657E+06         0.66519E+07         0.00000E+00
    0.00000E+00         0.00000E+00         0.00000E+00
 
   -0.10882E+07         0.94518E+06         0.00000E+00
    0.94518E+06         0.66720E+07         0.00000E+00
    0.00000E+00         0.00000E+00         0.00000E+00
 
   -0.10291E+07         0.10048E+07         0.00000E+00
    0.10048E+07         0.66926E+07         0.00000E+00
    0.00000E+00         0.00000E+00         0.00000E+00
 
   -0.97328E+06         0.10657E+07         0.00000E+00
    0.10657E+07         0.67136E+07         0.00000E+00
    0.00000E+00         0.00000E+00         0.00000E+00
 
   -0.92044E+06         0.11277E+07         0.00000E+00
    0.11277E+07         0.67349E+07         0.00000E+00
    0.00000E+00         0.00000E+00         0.00000E+00
 
   -0.87044E+06         0.11910E+07         0.00000E+00
    0.11910E+07         0.67563E+07         0.00000E+00
    0.00000E+00         0.00000E+00         0.00000E+00
 
   -0.82311E+06         0.12558E+07         0.00000E+00
    0.12558E+07         0.67777E+07         0.00000E+00
    0.00000E+00         0.00000E+00         0.00000E+00
 
   -0.77825E+06         0.13220E+07         0.00000E+00
    0.13220E+07         0.67992E+07         0.00000E+00
    0.00000E+00         0.00000E+00         0.00000E+00
 
   -0.73571E+06         0.13896E+07         0.00000E+00
    0.13896E+07         0.68204E+07         0.00000E+00
    0.00000E+00         0.00000E+00         0.00000E+00
 
   -0.69532E+06         0.14588E+07         0.00000E+00
    0.14588E+07         0.68414E+07         0.00000E+00
    0.00000E+00         0.00000E+00         0.00000E+00
 
   -0.65690E+06         0.15296E+07         0.00000E+00
    0.15296E+07         0.68620E+07         0.00000E+00
    0.00000E+00         0.00000E+00         0.00000E+00
 
   -0.62031E+06         0.16020E+07         0.00000E+00
    0.16020E+07         0.68822E+07         0.00000E+00
    0.00000E+00         0.00000E+00         0.00000E+00
 
   -0.58539E+06         0.16759E+07         0.00000E+00
    0.16759E+07         0.69018E+07         0.00000E+00
    0.00000E+00         0.00000E+00         0.00000E+00
 
   -0.55198E+06         0.17515E+07         0.00000E+00
    0.17515E+07         0.69207E+07         0.00000E+00
    0.00000E+00         0.00000E+00         0.00000E+00
 
   -0.51994E+06         0.18287E+07         0.00000E+00
    0.18287E+07         0.69389E+07         0.00000E+00
    0.00000E+00         0.00000E+00         0.00000E+00
 
   -0.48915E+06         0.19075E+07         0.00000E+00
    0.19075E+07         0.69563E+07         0.00000E+00
    0.00000E+00         0.00000E+00         0.00000E+00
 
   -0.45947E+06         0.19879E+07         0.00000E+00
    0.19879E+07         0.69727E+07         0.00000E+00
    0.00000E+00         0.00000E+00         0.00000E+00
 
   -0.43077E+06         0.20700E+07         0.00000E+00
    0.20700E+07         0.69881E+07         0.00000E+00
    0.00000E+00         0.00000E+00         0.00000E+00
 
   -0.40296E+06         0.21535E+07         0.00000E+00
    0.21535E+07         0.70024E+07         0.00000E+00
    0.00000E+00         0.00000E+00         0.00000E+00
 
   -0.37593E+06         0.22387E+07         0.00000E+00
    0.22387E+07         0.70156E+07         0.00000E+00
    0.00000E+00         0.00000E+00         0.00000E+00
 
   -0.34957E+06         0.23253E+07         0.00000E+00
    0.23253E+07         0.70276E+07         0.00000E+00
    0.00000E+00         0.00000E+00         0.00000E+00
 
   -0.32381E+06         0.24135E+07         0.00000E+00
    0.24135E+07         0.70382E+07         0.00000E+00
    0.00000E+00         0.00000E+00         0.00000E+00
 
   -0.29857E+06         0.25032E+07         0.00000E+00
    0.25032E+07         0.70476E+07         0.00000E+00
    0.00000E+00         0.00000E+00         0.00000E+00
 
   -0.27376E+06         0.25943E+07         0.00000E+00
    0.25943E+07         0.70556E+07         0.00000E+00
    0.00000E+00         0.00000E+00         0.00000E+00
 
   -0.24932E+06         0.26868E+07         0.00000E+00
    0.26868E+07         0.70621E+07         0.00000E+00
    0.00000E+00         0.00000E+00         0.00000E+00
 
   -0.22518E+06         0.27808E+07         0.00000E+00
    0.27808E+07         0.70671E+07         0.00000E+00
    0.00000E+00         0.00000E+00         0.00000E+00
 
   -0.20130E+06         0.28762E+07         0.00000E+00
    0.28762E+07         0.70707E+07         0.00000E+00
    0.00000E+00         0.00000E+00         0.00000E+00
 
   -0.17760E+06         0.29730E+07         0.00000E+00
    0.29730E+07         0.70727E+07         0.00000E+00
    0.00000E+00         0.00000E+00         0.00000E+00
 
   -0.15403E+06         0.30711E+07         0.00000E+00
    0.30711E+07         0.70730E+07         0.00000E+00
    0.00000E+00         0.00000E+00         0.00000E+00
 
   -0.13053E+06         0.31707E+07         0.00000E+00
    0.31707E+07         0.70718E+07         0.00000E+00
    0.00000E+00         0.00000E+00         0.00000E+00
 
   -0.10706E+06         0.32716E+07         0.00000E+00
    0.32716E+07         0.70688E+07         0.00000E+00
    0.00000E+00         0.00000E+00         0.00000E+00
 
   -0.83561E+05         0.33739E+07         0.00000E+00
    0.33739E+07         0.70641E+07         0.00000E+00
    0.00000E+00         0.00000E+00         0.00000E+00
 
   -0.59949E+05         0.34776E+07         0.00000E+00
    0.34776E+07         0.70577E+07         0.00000E+00
    0.00000E+00         0.00000E+00         0.00000E+00
 
   -0.36131E+05         0.35827E+07         0.00000E+00
    0.35827E+07         0.70494E+07         0.00000E+00
    0.00000E+00         0.00000E+00         0.00000E+00
 
   -0.12080E+05         0.36891E+07         0.00000E+00
    0.36891E+07         0.70391E+07         0.00000E+00
    0.00000E+00         0.00000E+00         0.00000E+00
 
   -0.27778E+07         0.38151E+05         0.00000E+00
    0.38151E+05         0.59649E+07         0.00000E+00
    0.00000E+00         0.00000E+00         0.00000E+00
 
   -0.26550E+07         0.10810E+06         0.00000E+00
    0.10810E+06         0.59661E+07         0.00000E+00
    0.00000E+00         0.00000E+00         0.00000E+00
 
   -0.25366E+07         0.17609E+06         0.00000E+00
    0.17609E+06         0.59685E+07         0.00000E+00
    0.00000E+00         0.00000E+00         0.00000E+00
 
   -0.24225E+07         0.24235E+06         0.00000E+00
    0.24235E+06         0.59721E+07         0.00000E+00
    0.00000E+00         0.00000E+00         0.00000E+00
 
   -0.23127E+07         0.30712E+06         0.00000E+00
    0.30712E+06         0.59767E+07         0.00000E+00
    0.00000E+00         0.00000E+00         0.00000E+00
 
   -0.22072E+07         0.37060E+06         0.00000E+00
    0.37060E+06         0.59825E+07         0.00000E+00
    0.00000E+00         0.00000E+00         0.00000E+00
 
   -0.21058E+07         0.43302E+06         0.00000E+00
    0.43302E+06         0.59893E+07         0.00000E+00
    0.00000E+00         0.00000E+00         0.00000E+00
 
   -0.20084E+07         0.49456E+06         0.00000E+00
    0.49456E+06         0.59971E+07         0.00000E+00
    0.00000E+00         0.00000E+00         0.00000E+00
 
   -0.19150E+07         0.55542E+06         0.00000E+00
    0.55542E+06         0.60058E+07         0.00000E+00
    0.00000E+00         0.00000E+00         0.00000E+00
 
   -0.18255E+07         0.61577E+06         0.00000E+00
    0.61577E+06         0.60155E+07         0.00000E+00
    0.00000E+00         0.00000E+00         0.00000E+00
 
   -0.17397E+07         0.67578E+06         0.00000E+00
    0.67578E+06         0.60259E+07         0.00000E+00
    0.00000E+00         0.00000E+00         0.00000E+00
 
   -0.16575E+07         0.73560E+06         0.00000E+00
    0.73560E+06         0.60371E+07         0.00000E+00
    0.00000E+00         0.00000E+00         0.00000E+00
 
   -0.15789E+07         0.79539E+06         0.00000E+00
    0.79539E+06         0.60490E+07         0.00000E+00
    0.00000E+00         0.00000E+00         0.00000E+00
 
   -0.15036E+07         0.85527E+06         0.00000E+00
    0.85527E+06         0.60615E+07         0.00000E+00
    0.00000E+00         0.00000E+00         0.00000E+00
 
   -0.14316E+07         0.91539E+06         0.00000E+00
    0.91539E+06         0.60746E+07         0.00000E+00
    0.00000E+00         0.00000E+00         0.00000E+00
 
   -0.13628E+07         0.97585E+06         0.00000E+00
    0.97585E+06         0.60881E+07         0.00000E+00
    0.00000E+00         0.00000E+00         0.00000E+00
 
   -0.12969E+07         0.10368E+07         0.00000E+00
    0.10368E+07         0.61020E+07         0.00000E+00
    0.00000E+00         0.00000E+00         0.00000E+00
 
   -0.12339E+07         0.10982E+07         0.00000E+00
    0.10982E+07         0.61162E+07         0.00000E+00
    0.00000E+00         0.00000E+00         0.00000E+00
 
   -0.11736E+07         0.11604E+07         0.00000E+00
    0.11604E+07         0.61306E+07         0.00000E+00
    0.00000E+00         0.00000E+00         0.00000E+00
 
   -0.11160E+07         0.12233E+07         0.00000E+00
    0.12233E+07         0.61452E+07         0.00000E+00
    0.00000E+00         0.00000E+00         0.00000E+00
 
   -0.10607E+07         0.12870E+07         0.00000E+00
    0.12870E+07         0.61598E+07         0.00000E+00
    0.00000E+00         0.00000E+00         0.00000E+00
 
   -0.10079E+07         0.13515E+07         0.00000E+00
    0.13515E+07         0.61745E+07         0.00000E+00
    0.00000E+00         0.00000E+00         0.00000E+00
 
   -0.95719E+06         0.14171E+07         0.00000E+00
    0.14171E+07         0.61890E+07         0.00000E+00
    0.00000E+00         0.00000E+00         0.00000E+00
 
   -0.90857E+06         0.14836E+07         0.00000E+00
    0.14836E+07         0.62033E+07         0.00000E+00
    0.00000E+00         0.00000E+00         0.00000E+00
 
   -0.86188E+06         0.15512E+07         0.00000E+00
    0.15512E+07         0.62173E+07         0.00000E+00
    0.00000E+00         0.00000E+00         0.00000E+00
 
   -0.81701E+06         0.16199E+07         0.00000E+00
    0.16199E+07         0.62311E+07         0.00000E+00
    0.00000E+00         0.00000E+00         0.00000E+00
 
   -0.77381E+06         0.16897E+07         0.00000E+00
    0.16897E+07         0.62443E+07         0.00000E+00
    0.00000E+00         0.00000E+00         0.00000E+00
 
   -0.73218E+06         0.17606E+07         0.00000E+00
    0.17606E+07         0.62571E+07         0.00000E+00
    0.00000E+00         0.00000E+00         0.00000E+00
 
   -0.69199E+06         0.18327E+07         0.00000E+00
    0.18327E+07         0.62693E+07         0.00000E+00
    0.00000E+00         0.00000E+00         0.00000E+00
 
   -0.65313E+06         0.19061E+07         0.00000E+00
    0.19061E+07         0.62808E+07         0.00000E+00
    0.00000E+00         0.00000E+00         0.00000E+00
 
   -0.61548E+06         0.19806E+07         0.00000E+00
    0.19806E+07         0.62916E+07         0.00000E+00
    0.00000E+00         0.00000E+00         0.00000E+00
 
   -0.57896E+06         0.20563E+07         0.00000E+00
    0.20563E+07         0.63016E+07         0.00000E+00
    0.00000E+00         0.00000E+00         0.00000E+00
 
   -0.54344E+06         0.21333E+07         0.00000E+00
    0.21333E+07         0.63108E+07         0.00000E+00
    0.00000E+00         0.00000E+00         0.00000E+00
 
   -0.50884E+06         0.22115E+07         0.00000E+00
    0.22115E+07         0.63190E+07         0.00000E+00
    0.00000E+00         0.00000E+00         0.00000E+00
 
   -0.47506E+06         0.22909E+07         0.00000E+00
    0.22909E+07         0.63263E+07         0.00000E+00
    0.00000E+00         0.00000E+00         0.00000E+00
 
   -0.44202E+06         0.23715E+07         0.00000E+00
    0.23715E+07         0.63325E+07         0.00000E+00
    0.00000E+00         0.00000E+00         0.00000E+00
 
   -0.40963E+06         0.24533E+07         0.00000E+00
    0.24533E+07         0.63376E+07         0.00000E+00
    0.00000E+00         0.00000E+00         0.00000E+00
 
   -0.37781E+06         0.25364E+07         0.00000E+00
    0.25364E+07         0.63415E+07         0.00000E+00
    0.00000E+00         0.00000E+00         0.00000E+00
 
   -0.34650E+06         0.26206E+07         0.00000E+00
    0.26206E+07         0.63443E+07         0.00000E+00
    0.00000E+00         0.00000E+00         0.00000E+00
 
   -0.31560E+06         0.27061E+07         0.00000E+00
    0.27061E+07         0.63458E+07         0.00000E+00
    0.00000E+00         0.00000E+00         0.00000E+00
 
   -0.28506E+06         0.27927E+07         0.00000E+00
    0.27927E+07         0.63460E+07         0.00000E+00
    0.00000E+00         0.00000E+00         0.00000E+00
 
   -0.25481E+06         0.28805E+07         0.00000E+00
    0.28805E+07         0.63449E+07         0.00000E+00
    0.00000E+00         0.00000E+00         0.00000E+00
 
   -0.22477E+06         0.29695E+07         0.00000E+00
    0.29695E+07         0.63424E+07         0.00000E+00
    0.00000E+00         0.00000E+00         0.00000E+00
 
   -0.19489E+06         0.30597E+07         0.00000E+00
    0.30597E+07         0.63384E+07         0.00000E+00
    0.00000E+00         0.00000E+00         0.00000E+00
 
   -0.16511E+06         0.31510E+07         0.00000E+00
    0.31510E+07         0.63330E+07         0.00000E+00
    0.00000E+00         0.00000E+00         0.00000E+00
 
   -0.13534E+06         0.32435E+07         0.00000E+00
    0.32435E+07         0.63261E+07         0.00000E+00
    0.00000E+00         0.00000E+00         0.00000E+00
 
   -0.10553E+06         0.33372E+07         0.00000E+00
    0.33372E+07         0.63175E+07         0.00000E+00
    0.00000E+00         0.00000E+00         0.00000E+00
 
   -0.75621E+05         0.34320E+07         0.00000E+00
    0.34320E+07         0.63074E+07         0.00000E+00
    0.00000E+00         0.00000E+00         0.00000E+00
 
   -0.45545E+05         0.35280E+07         0.00000E+00
    0.35280E+07         0.62956E+07         0.00000E+00
    0.00000E+00         0.00000E+00         0.00000E+00
 
   -0.15230E+05         0.36251E+07         0.00000E+00
    0.36251E+07         0.62821E+07         0.00000E+00
    0.00000E+00         0.00000E+00         0.00000E+00
 
   -0.28697E+07         0.40861E+05         0.00000E+00
    0.40861E+05         0.55032E+07         0.00000E+00
    0.00000E+00         0.00000E+00         0.00000E+00
 
   -0.27575E+07         0.11619E+06         0.00000E+00
    0.11619E+06         0.55039E+07         0.00000E+00
    0.00000E+00         0.00000E+00         0.00000E+00
 
   -0.26486E+07         0.18947E+06         0.00000E+00
    0.18947E+06         0.55052E+07         0.00000E+00
    0.00000E+00         0.00000E+00         0.00000E+00
 
   -0.25430E+07         0.26092E+06         0.00000E+00
    0.26092E+06         0.55073E+07         0.00000E+00
    0.00000E+00         0.00000E+00         0.00000E+00
 
   -0.24407E+07         0.33072E+06         0.00000E+00
    0.33072E+06         0.55101E+07         0.00000E+00
    0.00000E+00         0.00000E+00         0.00000E+00
 
   -0.23417E+07         0.39906E+06         0.00000E+00
    0.39906E+06         0.55135E+07         0.00000E+00
    0.00000E+00         0.00000E+00         0.00000E+00
 
   -0.22459E+07         0.46613E+06         0.00000E+00
    0.46613E+06         0.55176E+07         0.00000E+00
    0.00000E+00         0.00000E+00         0.00000E+00
 
   -0.21532E+07         0.53209E+06         0.00000E+00
    0.53209E+06         0.55223E+07         0.00000E+00
    0.00000E+00         0.00000E+00         0.00000E+00
 
   -0.20637E+07         0.59711E+06         0.00000E+00
    0.59711E+06         0.55276E+07         0.00000E+00
    0.00000E+00         0.00000E+00         0.00000E+00
 
   -0.19772E+07         0.66133E+06         0.00000E+00
    0.66133E+06         0.55335E+07         0.00000E+00
    0.00000E+00         0.00000E+00         0.00000E+00
 
   -0.18938E+07         0.72492E+06         0.00000E+00
    0.72492E+06         0.55399E+07         0.00000E+00
    0.00000E+00         0.00000E+00         0.00000E+00
 
   -0.18132E+07         0.78801E+06         0.00000E+00
    0.78801E+06         0.55469E+07         0.00000E+00
    0.00000E+00         0.00000E+00         0.00000E+00
 
   -0.17355E+07         0.85073E+06         0.00000E+00
    0.85073E+06         0.55542E+07         0.00000E+00
    0.00000E+00         0.00000E+00         0.00000E+00
 
   -0.16605E+07         0.91320E+06         0.00000E+00
    0.91320E+06         0.55620E+07         0.00000E+00
    0.00000E+00         0.00000E+00         0.00000E+00
 
   -0.15882E+07         0.97555E+06         0.00000E+00
    0.97555E+06         0.55700E+07         0.00000E+00
    0.00000E+00         0.00000E+00         0.00000E+00
 
   -0.15185E+07         0.10379E+07         0.00000E+00
    0.10379E+07         0.55784E+07         0.00000E+00
    0.00000E+00         0.00000E+00         0.00000E+00
 
   -0.14513E+07         0.11003E+07         0.00000E+00
    0.11003E+07         0.55870E+07         0.00000E+00
    0.00000E+00         0.00000E+00         0.00000E+00
 
   -0.13865E+07         0.11629E+07         0.00000E+00
    0.11629E+07         0.55958E+07         0.00000E+00
    0.00000E+00         0.00000E+00         0.00000E+00
 
   -0.13240E+07         0.12258E+07         0.00000E+00
    0.12258E+07         0.56046E+07         0.00000E+00
    0.00000E+00         0.00000E+00         0.00000E+00
 
   -0.12636E+07         0.12890E+07         0.00000E+00
    0.12890E+07         0.56135E+07         0.00000E+00
    0.00000E+00         0.00000E+00         0.00000E+00
 
   -0.12054E+07         0.13526E+07         0.00000E+00
    0.13526E+07         0.56224E+07         0.00000E+00
    0.00000E+00         0.00000E+00         0.00000E+00
 
   -0.11492E+07         0.14167E+07         0.00000E+00
    0.14167E+07         0.56312E+07         0.00000E+00
    0.00000E+00         0.00000E+00         0.00000E+00
 
   -0.10949E+07         0.14814E+07         0.00000E+00
    0.14814E+07         0.56399E+07         0.00000E+00
    0.00000E+00         0.00000E+00         0.00000E+00
 
   -0.10423E+07         0.15467E+07         0.00000E+00
    0.15467E+07         0.56484E+07         0.00000E+00
    0.00000E+00         0.00000E+00         0.00000E+00
 
   -0.99148E+06         0.16127E+07         0.00000E+00
    0.16127E+07         0.56566E+07         0.00000E+00
    0.00000E+00         0.00000E+00         0.00000E+00
 
   -0.94225E+06         0.16794E+07         0.00000E+00
    0.16794E+07         0.56644E+07         0.00000E+00
    0.00000E+00         0.00000E+00         0.00000E+00
 
   -0.89452E+06         0.17468E+07         0.00000E+00
    0.17468E+07         0.56719E+07         0.00000E+00
    0.00000E+00         0.00000E+00         0.00000E+00
 
   -0.84820E+06         0.18151E+07         0.00000E+00
    0.18151E+07         0.56789E+07         0.00000E+00
    0.00000E+00         0.00000E+00         0.00000E+00
 
   -0.80319E+06         0.18841E+07         0.00000E+00
    0.18841E+07         0.56853E+07         0.00000E+00
    0.00000E+00         0.00000E+00         0.00000E+00
 
   -0.75940E+06         0.19540E+07         0.00000E+00
    0.19540E+07         0.56912E+07         0.00000E+00
    0.00000E+00         0.00000E+00         0.00000E+00
 
   -0.71674E+06         0.20247E+07         0.00000E+00
    0.20247E+07         0.56965E+07         0.00000E+00
    0.00000E+00         0.00000E+00         0.00000E+00
 
   -0.67513E+06         0.20964E+07         0.00000E+00
    0.20964E+07         0.57011E+07         0.00000E+00
    0.00000E+00         0.00000E+00         0.00000E+00
 
   -0.63448E+06         0.21689E+07         0.00000E+00
    0.21689E+07         0.57049E+07         0.00000E+00
    0.00000E+00         0.00000E+00         0.00000E+00
 
   -0.59470E+06         0.22424E+07         0.00000E+00
    0.22424E+07         0.57079E+07         0.00000E+00
    0.00000E+00         0.00000E+00         0.00000E+00
 
   -0.55572E+06         0.23168E+07         0.00000E+00
    0.23168E+07         0.57101E+07         0.00000E+00
    0.00000E+00         0.00000E+00         0.00000E+00
 
   -0.51746E+06         0.23921E+07         0.00000E+00
    0.23921E+07         0.57114E+07         0.00000E+00
    0.00000E+00         0.00000E+00         0.00000E+00
 
   -0.47984E+06         0.24684E+07         0.00000E+00
    0.24684E+07         0.57117E+07         0.00000E+00
    0.00000E+00         0.00000E+00         0.00000E+00
 
   -0.44278E+06         0.25456E+07         0.00000E+00
    0.25456E+07         0.57110E+07         0.00000E+00
    0.00000E+00         0.00000E+00         0.00000E+00
 
   -0.40623E+06         0.26238E+07         0.00000E+00
    0.26238E+07         0.57092E+07         0.00000E+00
    0.00000E+00         0.00000E+00         0.00000E+00
 
   -0.37010E+06         0.27029E+07         0.00000E+00
    0.27029E+07         0.57064E+07         0.00000E+00
    0.00000E+00         0.00000E+00         0.00000E+00
 
   -0.33432E+06         0.27830E+07         0.00000E+00
    0.27830E+07         0.57024E+07         0.00000E+00
    0.00000E+00         0.00000E+00         0.00000E+00
 
   -0.29884E+06         0.28640E+07         0.00000E+00
    0.28640E+07         0.56972E+07         0.00000E+00
    0.00000E+00         0.00000E+00         0.00000E+00
 
   -0.26359E+06         0.29460E+07         0.00000E+00
    0.29460E+07         0.56908E+07         0.00000E+00
    0.00000E+00         0.00000E+00         0.00000E+00
 
   -0.22850E+06         0.30290E+07         0.00000E+00
    0.30290E+07         0.56832E+07         0.00000E+00
    0.00000E+00         0.00000E+00         0.00000E+00
 
   -0.19350E+06         0.31129E+07         0.00000E+00
    0.31129E+07         0.56742E+07         0.00000E+00
    0.00000E+00         0.00000E+00         0.00000E+00
 
   -0.15854E+06         0.31977E+07         0.00000E+00
    0.31977E+07         0.56638E+07         0.00000E+00
    0.00000E+00         0.00000E+00         0.00000E+00
 
   -0.12355E+06         0.32835E+07         0.00000E+00
    0.32835E+07         0.56520E+07         0.00000E+00
    0.00000E+00         0.00000E+00         0.00000E+00
 
   -0.88470E+05         0.33702E+07         0.00000E+00
    0.33702E+07         0.56388E+07         0.00000E+00
    0.00000E+00         0.00000E+00         0.00000E+00
 
   -0.53235E+05         0.34579E+07         0.00000E+00
    0.34579E+07         0.56241E+07         0.00000E+00
    0.00000E+00         0.00000E+00         0.00000E+00
 
   -0.17786E+05         0.35465E+07         0.00000E+00
    0.35465E+07         0.56079E+07         0.00000E+00
    0.00000E+00         0.00000E+00         0.00000E+00
 
   -0.28993E+07         0.42379E+05         0.00000E+00
    0.42379E+05         0.50823E+07         0.00000E+00
    0.00000E+00         0.00000E+00         0.00000E+00
 
   -0.27978E+07         0.12095E+06         0.00000E+00
    0.12095E+06         0.50825E+07         0.00000E+00
    0.00000E+00         0.00000E+00         0.00000E+00
 
   -0.26987E+07         0.19749E+06         0.00000E+00
    0.19749E+06         0.50831E+07         0.00000E+00
    0.00000E+00         0.00000E+00         0.00000E+00
 
   -0.26020E+07         0.27218E+06         0.00000E+00
    0.27218E+06         0.50840E+07         0.00000E+00
    0.00000E+00         0.00000E+00         0.00000E+00
 
   -0.25077E+07         0.34518E+06         0.00000E+00
    0.34518E+06         0.50852E+07         0.00000E+00
    0.00000E+00         0.00000E+00         0.00000E+00
 
   -0.24159E+07         0.41664E+06         0.00000E+00
    0.41664E+06         0.50867E+07         0.00000E+00
    0.00000E+00         0.00000E+00         0.00000E+00
 
   -0.23265E+07         0.48671E+06         0.00000E+00
    0.48671E+06         0.50886E+07         0.00000E+00
    0.00000E+00         0.00000E+00         0.00000E+00
 
   -0.22395E+07         0.55554E+06         0.00000E+00
    0.55554E+06         0.50908E+07         0.00000E+00
    0.00000E+00         0.00000E+00         0.00000E+00
 
   -0.21549E+07         0.62327E+06         0.00000E+00
    0.62327E+06         0.50933E+07         0.00000E+00
    0.00000E+00         0.00000E+00         0.00000E+00
 
   -0.20726E+07         0.69003E+06         0.00000E+00
    0.69003E+06         0.50961E+07         0.00000E+00
    0.00000E+00         0.00000E+00         0.00000E+00
 
   -0.19927E+07         0.75595E+06         0.00000E+00
    0.75595E+06         0.50992E+07         0.00000E+00
    0.00000E+00         0.00000E+00         0.00000E+00
 
   -0.19151E+07         0.82115E+06         0.00000E+00
    0.82115E+06         0.51026E+07         0.00000E+00
    0.00000E+00         0.00000E+00         0.00000E+00
 
   -0.18397E+07         0.88575E+06         0.00000E+00
    0.88575E+06         0.51062E+07         0.00000E+00
    0.00000E+00         0.00000E+00         0.00000E+00
 
   -0.17665E+07         0.94986E+06         0.00000E+00
    0.94986E+06         0.51100E+07         0.00000E+00
    0.00000E+00         0.00000E+00         0.00000E+00
 
   -0.16954E+07         0.10136E+07         0.00000E+00
    0.10136E+07         0.51139E+07         0.00000E+00
    0.00000E+00         0.00000E+00         0.00000E+00
 
   -0.16265E+07         0.10770E+07         0.00000E+00
    0.10770E+07         0.51180E+07         0.00000E+00
    0.00000E+00         0.00000E+00         0.00000E+00
 
   -0.15595E+07         0.11402E+07         0.00000E+00
    0.11402E+07         0.51222E+07         0.00000E+00
    0.00000E+00         0.00000E+00         0.00000E+00
 
   -0.14945E+07         0.12034E+07         0.00000E+00
    0.12034E+07         0.51264E+07         0.00000E+00
    0.00000E+00         0.00000E+00         0.00000E+00
 
   -0.14314E+07         0.12665E+07         0.00000E+00
    0.12665E+07         0.51306E+07         0.00000E+00
    0.00000E+00         0.00000E+00         0.00000E+00
 
   -0.13701E+07         0.13296E+07         0.00000E+00
    0.13296E+07         0.51348E+07         0.00000E+00
    0.00000E+00         0.00000E+00         0.00000E+00
 
   -0.13106E+07         0.13929E+07         0.00000E+00
    0.13929E+07         0.51389E+07         0.00000E+00
    0.00000E+00         0.00000E+00         0.00000E+00
 
   -0.12527E+07         0.14563E+07         0.00000E+00
    0.14563E+07         0.51428E+07         0.00000E+00
    0.00000E+00         0.00000E+00         0.00000E+00
 
   -0.11965E+07         0.15200E+07         0.00000E+00
    0.15200E+07         0.51466E+07         0.00000E+00
    0.00000E+00         0.00000E+00         0.00000E+00
 
   -0.11417E+07         0.15840E+07         0.00000E+00
    0.15840E+07         0.51502E+07         0.00000E+00
    0.00000E+00         0.00000E+00         0.00000E+00
 
   -0.10884E+07         0.16484E+07         0.00000E+00
    0.16484E+07         0.51534E+07         0.00000E+00
    0.00000E+00         0.00000E+00         0.00000E+00
 
   -0.10365E+07         0.17132E+07         0.00000E+00
    0.17132E+07         0.51564E+07         0.00000E+00
    0.00000E+00         0.00000E+00         0.00000E+00
 
   -0.98590E+06         0.17784E+07         0.00000E+00
    0.17784E+07         0.51590E+07         0.00000E+00
    0.00000E+00         0.00000E+00         0.00000E+00
 
   -0.93652E+06         0.18441E+07         0.00000E+00
    0.18441E+07         0.51611E+07         0.00000E+00
    0.00000E+00         0.00000E+00         0.00000E+00
 
   -0.88828E+06         0.19103E+07         0.00000E+00
    0.19103E+07         0.51628E+07         0.00000E+00
    0.00000E+00         0.00000E+00         0.00000E+00
 
   -0.84113E+06         0.19771E+07         0.00000E+00
    0.19771E+07         0.51639E+07         0.00000E+00
    0.00000E+00         0.00000E+00         0.00000E+00
 
   -0.79498E+06         0.20445E+07         0.00000E+00
    0.20445E+07         0.51645E+07         0.00000E+00
    0.00000E+00         0.00000E+00         0.00000E+00
 
   -0.74976E+06         0.21125E+07         0.00000E+00
    0.21125E+07         0.51645E+07         0.00000E+00
    0.00000E+00         0.00000E+00         0.00000E+00
 
   -0.70541E+06         0.21811E+07         0.00000E+00
    0.21811E+07         0.51638E+07         0.00000E+00
    0.00000E+00         0.00000E+00         0.00000E+00
 
   -0.66185E+06         0.22504E+07         0.00000E+00
    0.22504E+07         0.51624E+07         0.00000E+00
    0.00000E+00         0.00000E+00         0.00000E+00
 
   -0.61901E+06         0.23203E+07         0.00000E+00
    0.23203E+07         0.51603E+07         0.00000E+00
    0.00000E+00         0.00000E+00         0.00000E+00
 
   -0.57683E+06         0.23910E+07         0.00000E+00
    0.23910E+07         0.51573E+07         0.00000E+00
    0.00000E+00         0.00000E+00         0.00000E+00
 
   -0.53524E+06         0.24623E+07         0.00000E+00
    0.24623E+07         0.51535E+07         0.00000E+00
    0.00000E+00         0.00000E+00         0.00000E+00
 
   -0.49418E+06         0.25343E+07         0.00000E+00
    0.25343E+07         0.51489E+07         0.00000E+00
    0.00000E+00         0.00000E+00         0.00000E+00
 
   -0.45358E+06         0.26071E+07         0.00000E+00
    0.26071E+07         0.51433E+07         0.00000E+00
    0.00000E+00         0.00000E+00         0.00000E+00
 
   -0.41337E+06         0.26806E+07         0.00000E+00
    0.26806E+07         0.51367E+07         0.00000E+00
    0.00000E+00         0.00000E+00         0.00000E+00
 
   -0.37350E+06         0.27548E+07         0.00000E+00
    0.27548E+07         0.51291E+07         0.00000E+00
    0.00000E+00         0.00000E+00         0.00000E+00
 
   -0.33390E+06         0.28298E+07         0.00000E+00
    0.28298E+07         0.51205E+07         0.00000E+00
    0.00000E+00         0.00000E+00         0.00000E+00
 
   -0.29452E+06         0.29054E+07         0.00000E+00
    0.29054E+07         0.51108E+07         0.00000E+00
    0.00000E+00         0.00000E+00         0.00000E+00
 
   -0.25529E+06         0.29819E+07         0.00000E+00
    0.29819E+07         0.51000E+07         0.00000E+00
    0.00000E+00         0.00000E+00         0.00000E+00
 
   -0.21615E+06         0.30591E+07         0.00000E+00
    0.30591E+07         0.50880E+07         0.00000E+00
    0.00000E+00         0.00000E+00         0.00000E+00
 
   -0.17705E+06         0.31370E+07         0.00000E+00
    0.31370E+07         0.50748E+07         0.00000E+00
    0.00000E+00         0.00000E+00         0.00000E+00
 
   -0.13792E+06         0.32157E+07         0.00000E+00
    0.32157E+07         0.50603E+07         0.00000E+00
    0.00000E+00         0.00000E+00         0.00000E+00
 
   -0.98714E+05         0.32951E+07         0.00000E+00
    0.32951E+07         0.50445E+07         0.00000E+00
    0.00000E+00         0.00000E+00         0.00000E+00
 
   -0.59368E+05         0.33752E+07         0.00000E+00
    0.33752E+07         0.50275E+07         0.00000E+00
    0.00000E+00         0.00000E+00         0.00000E+00
 
   -0.19827E+05         0.34561E+07         0.00000E+00
    0.34561E+07         0.50090E+07         0.00000E+00
    0.00000E+00         0.00000E+00         0.00000E+00
 
   -0.28809E+07         0.42971E+05         0.00000E+00
    0.42971E+05         0.46980E+07         0.00000E+00
    0.00000E+00         0.00000E+00         0.00000E+00
 
   -0.27897E+07         0.12308E+06         0.00000E+00
    0.12308E+06         0.46979E+07         0.00000E+00
    0.00000E+00         0.00000E+00         0.00000E+00
 
   -0.27001E+07         0.20124E+06         0.00000E+00
    0.20124E+06         0.46978E+07         0.00000E+00
    0.00000E+00         0.00000E+00         0.00000E+00
 
   -0.26123E+07         0.27760E+06         0.00000E+00
    0.27760E+06         0.46978E+07         0.00000E+00
    0.00000E+00         0.00000E+00         0.00000E+00
 
   -0.25261E+07         0.35228E+06         0.00000E+00
    0.35228E+06         0.46977E+07         0.00000E+00
    0.00000E+00         0.00000E+00         0.00000E+00
 
   -0.24418E+07         0.42542E+06         0.00000E+00
    0.42542E+06         0.46978E+07         0.00000E+00
    0.00000E+00         0.00000E+00         0.00000E+00
 
   -0.23591E+07         0.49714E+06         0.00000E+00
    0.49714E+06         0.46979E+07         0.00000E+00
    0.00000E+00         0.00000E+00         0.00000E+00
 
   -0.22783E+07         0.56756E+06         0.00000E+00
    0.56756E+06         0.46981E+07         0.00000E+00
    0.00000E+00         0.00000E+00         0.00000E+00
 
   -0.21992E+07         0.63679E+06         0.00000E+00
    0.63679E+06         0.46983E+07         0.00000E+00
    0.00000E+00         0.00000E+00         0.00000E+00
 
   -0.21219E+07         0.70496E+06         0.00000E+00
    0.70496E+06         0.46987E+07         0.00000E+00
    0.00000E+00         0.00000E+00         0.00000E+00
 
   -0.20463E+07         0.77216E+06         0.00000E+00
    0.77216E+06         0.46991E+07         0.00000E+00
    0.00000E+00         0.00000E+00         0.00000E+00
 
   -0.19725E+07         0.83850E+06         0.00000E+00
    0.83850E+06         0.46996E+07         0.00000E+00
    0.00000E+00         0.00000E+00         0.00000E+00
 
   -0.19004E+07         0.90408E+06         0.00000E+00
    0.90408E+06         0.47001E+07         0.00000E+00
    0.00000E+00         0.00000E+00         0.00000E+00
 
   -0.18300E+07         0.96900E+06         0.00000E+00
    0.96900E+06         0.47007E+07         0.00000E+00
    0.00000E+00         0.00000E+00         0.00000E+00
 
   -0.17613E+07         0.10334E+07         0.00000E+00
    0.10334E+07         0.47013E+07         0.00000E+00
    0.00000E+00         0.00000E+00         0.00000E+00
 
   -0.16942E+07         0.10972E+07         0.00000E+00
    0.10972E+07         0.47019E+07         0.00000E+00
    0.00000E+00         0.00000E+00         0.00000E+00
 
   -0.16287E+07         0.11607E+07         0.00000E+00
    0.11607E+07         0.47025E+07         0.00000E+00
    0.00000E+00         0.00000E+00         0.00000E+00
 
   -0.15648E+07         0.12238E+07         0.00000E+00
    0.12238E+07         0.47030E+07         0.00000E+00
    0.00000E+00         0.00000E+00         0.00000E+00
 
   -0.15024E+07         0.12867E+07         0.00000E+00
    0.12867E+07         0.47034E+07         0.00000E+00
    0.00000E+00         0.00000E+00         0.00000E+00
 
   -0.14414E+07         0.13495E+07         0.00000E+00
    0.13495E+07         0.47037E+07         0.00000E+00
    0.00000E+00         0.00000E+00         0.00000E+00
 
   -0.13819E+07         0.14121E+07         0.00000E+00
    0.14121E+07         0.47038E+07         0.00000E+00
    0.00000E+00         0.00000E+00         0.00000E+00
 
   -0.13237E+07         0.14746E+07         0.00000E+00
    0.14746E+07         0.47038E+07         0.00000E+00
    0.00000E+00         0.00000E+00         0.00000E+00
 
   -0.12668E+07         0.15372E+07         0.00000E+00
    0.15372E+07         0.47035E+07         0.00000E+00
    0.00000E+00         0.00000E+00         0.00000E+00
 
   -0.12112E+07         0.15998E+07         0.00000E+00
    0.15998E+07         0.47030E+07         0.00000E+00
    0.00000E+00         0.00000E+00         0.00000E+00
 
   -0.11568E+07         0.16626E+07         0.00000E+00
    0.16626E+07         0.47022E+07         0.00000E+00
    0.00000E+00         0.00000E+00         0.00000E+00
 
   -0.11035E+07         0.17255E+07         0.00000E+00
    0.17255E+07         0.47011E+07         0.00000E+00
    0.00000E+00         0.00000E+00         0.00000E+00
 
   -0.10514E+07         0.17886E+07         0.00000E+00
    0.17886E+07         0.46996E+07         0.00000E+00
    0.00000E+00         0.00000E+00         0.00000E+00
 
   -0.10002E+07         0.18520E+07         0.00000E+00
    0.18520E+07         0.46977E+07         0.00000E+00
    0.00000E+00         0.00000E+00         0.00000E+00
 
   -0.95008E+06         0.19156E+07         0.00000E+00
    0.19156E+07         0.46954E+07         0.00000E+00
    0.00000E+00         0.00000E+00         0.00000E+00
 
   -0.90084E+06         0.19796E+07         0.00000E+00
    0.19796E+07         0.46926E+07         0.00000E+00
    0.00000E+00         0.00000E+00         0.00000E+00
 
   -0.85246E+06         0.20439E+07         0.00000E+00
    0.20439E+07         0.46893E+07         0.00000E+00
    0.00000E+00         0.00000E+00         0.00000E+00
 
   -0.80489E+06         0.21085E+07         0.00000E+00
    0.21085E+07         0.46854E+07         0.00000E+00
    0.00000E+00         0.00000E+00         0.00000E+00
 
   -0.75805E+06         0.21736E+07         0.00000E+00
    0.21736E+07         0.46809E+07         0.00000E+00
    0.00000E+00         0.00000E+00         0.00000E+00
 
   -0.71191E+06         0.22391E+07         0.00000E+00
    0.22391E+07         0.46758E+07         0.00000E+00
    0.00000E+00         0.00000E+00         0.00000E+00
 
   -0.66639E+06         0.23051E+07         0.00000E+00
    0.23051E+07         0.46701E+07         0.00000E+00
    0.00000E+00         0.00000E+00         0.00000E+00
 
   -0.62145E+06         0.23715E+07         0.00000E+00
    0.23715E+07         0.46636E+07         0.00000E+00
    0.00000E+00         0.00000E+00         0.00000E+00
 
   -0.57702E+06         0.24384E+07         0.00000E+00
    0.24384E+07         0.46564E+07         0.00000E+00
    0.00000E+00         0.00000E+00         0.00000E+00
 
   -0.53306E+06         0.25058E+07         0.00000E+00
    0.25058E+07         0.46484E+07         0.00000E+00
    0.00000E+00         0.00000E+00         0.00000E+00
 
   -0.48949E+06         0.25737E+07         0.00000E+00
    0.25737E+07         0.46396E+07         0.00000E+00
    0.00000E+00         0.00000E+00         0.00000E+00
 
   -0.44628E+06         0.26421E+07         0.00000E+00
    0.26421E+07         0.46299E+07         0.00000E+00
    0.00000E+00         0.00000E+00         0.00000E+00
 
   -0.40335E+06         0.27111E+07         0.00000E+00
    0.27111E+07         0.46193E+07         0.00000E+00
    0.00000E+00         0.00000E+00         0.00000E+00
 
   -0.36067E+06         0.27806E+07         0.00000E+00
    0.27806E+07         0.46078E+07         0.00000E+00
    0.00000E+00         0.00000E+00         0.00000E+00
 
   -0.31817E+06         0.28506E+07         0.00000E+00
    0.28506E+07         0.45954E+07         0.00000E+00
    0.00000E+00         0.00000E+00         0.00000E+00
 
   -0.27581E+06         0.29212E+07         0.00000E+00
    0.29212E+07         0.45819E+07         0.00000E+00
    0.00000E+00         0.00000E+00         0.00000E+00
 
   -0.23352E+06         0.29923E+07         0.00000E+00
    0.29923E+07         0.45674E+07         0.00000E+00
    0.00000E+00         0.00000E+00         0.00000E+00
 
   -0.19125E+06         0.30640E+07         0.00000E+00
    0.30640E+07         0.45519E+07         0.00000E+00
    0.00000E+00         0.00000E+00         0.00000E+00
 
   -0.14896E+06         0.31362E+07         0.00000E+00
    0.31362E+07         0.45352E+07         0.00000E+00
    0.00000E+00         0.00000E+00         0.00000E+00
 
   -0.10659E+06         0.32090E+07         0.00000E+00
    0.32090E+07         0.45174E+07         0.00000E+00
    0.00000E+00         0.00000E+00         0.00000E+00
 
   -0.64084E+05         0.32824E+07         0.00000E+00
    0.32824E+07         0.44985E+07         0.00000E+00
    0.00000E+00         0.00000E+00         0.00000E+00
 
   -0.21396E+05         0.33562E+07         0.00000E+00
    0.33562E+07         0.44783E+07         0.00000E+00
    0.00000E+00         0.00000E+00         0.00000E+00
 
   -0.28258E+07         0.42856E+05         0.00000E+00
    0.42856E+05         0.43464E+07         0.00000E+00
    0.00000E+00         0.00000E+00         0.00000E+00
 
   -0.27444E+07         0.12317E+06         0.00000E+00
    0.12317E+06         0.43461E+07         0.00000E+00
    0.00000E+00         0.00000E+00         0.00000E+00
 
   -0.26639E+07         0.20166E+06         0.00000E+00
    0.20166E+06         0.43455E+07         0.00000E+00
    0.00000E+00         0.00000E+00         0.00000E+00
 
   -0.25846E+07         0.27844E+06         0.00000E+00
    0.27844E+06         0.43447E+07         0.00000E+00
    0.00000E+00         0.00000E+00         0.00000E+00
 
   -0.25065E+07         0.35361E+06         0.00000E+00
    0.35361E+06         0.43437E+07         0.00000E+00
    0.00000E+00         0.00000E+00         0.00000E+00
 
   -0.24295E+07         0.42727E+06         0.00000E+00
    0.42727E+06         0.43426E+07         0.00000E+00
    0.00000E+00         0.00000E+00         0.00000E+00
 
   -0.23537E+07         0.49953E+06         0.00000E+00
    0.49953E+06         0.43413E+07         0.00000E+00
    0.00000E+00         0.00000E+00         0.00000E+00
 
   -0.22792E+07         0.57049E+06         0.00000E+00
    0.57049E+06         0.43399E+07         0.00000E+00
    0.00000E+00         0.00000E+00         0.00000E+00
 
   -0.22059E+07         0.64024E+06         0.00000E+00
    0.64024E+06         0.43385E+07         0.00000E+00
    0.00000E+00         0.00000E+00         0.00000E+00
 
   -0.21339E+07         0.70887E+06         0.00000E+00
    0.70887E+06         0.43369E+07         0.00000E+00
    0.00000E+00         0.00000E+00         0.00000E+00
 
   -0.20631E+07         0.77648E+06         0.00000E+00
    0.77648E+06         0.43352E+07         0.00000E+00
    0.00000E+00         0.00000E+00         0.00000E+00
 
   -0.19937E+07         0.84315E+06         0.00000E+00
    0.84315E+06         0.43334E+07         0.00000E+00
    0.00000E+00         0.00000E+00         0.00000E+00
 
   -0.19255E+07         0.90897E+06         0.00000E+00
    0.90897E+06         0.43315E+07         0.00000E+00
    0.00000E+00         0.00000E+00         0.00000E+00
 
   -0.18586E+07         0.97402E+06         0.00000E+00
    0.97402E+06         0.43295E+07         0.00000E+00
    0.00000E+00         0.00000E+00         0.00000E+00
 
   -0.17929E+07         0.10384E+07         0.00000E+00
    0.10384E+07         0.43275E+07         0.00000E+00
    0.00000E+00         0.00000E+00         0.00000E+00
 
   -0.17285E+07         0.11021E+07         0.00000E+00
    0.11021E+07         0.43253E+07         0.00000E+00
    0.00000E+00         0.00000E+00         0.00000E+00
 
   -0.16653E+07         0.11653E+07         0.00000E+00
    0.11653E+07         0.43229E+07         0.00000E+00
    0.00000E+00         0.00000E+00         0.00000E+00
 
   -0.16033E+07         0.12281E+07         0.00000E+00
    0.12281E+07         0.43204E+07         0.00000E+00
    0.00000E+00         0.00000E+00         0.00000E+00
 
   -0.15425E+07         0.12904E+07         0.00000E+00
    0.12904E+07         0.43178E+07         0.00000E+00
    0.00000E+00         0.00000E+00         0.00000E+00
 
   -0.14828E+07         0.13524E+07         0.00000E+00
    0.13524E+07         0.43150E+07         0.00000E+00
    0.00000E+00         0.00000E+00         0.00000E+00
 
   -0.14243E+07         0.14141E+07         0.00000E+00
    0.14141E+07         0.43119E+07         0.00000E+00
    0.00000E+00         0.00000E+00         0.00000E+00
 
   -0.13668E+07         0.14755E+07         0.00000E+00
    0.14755E+07         0.43086E+07         0.00000E+00
    0.00000E+00         0.00000E+00         0.00000E+00
 
   -0.13104E+07         0.15368E+07         0.00000E+00
    0.15368E+07         0.43051E+07         0.00000E+00
    0.00000E+00         0.00000E+00         0.00000E+00
 
   -0.12549E+07         0.15980E+07         0.00000E+00
    0.15980E+07         0.43013E+07         0.00000E+00
    0.00000E+00         0.00000E+00         0.00000E+00
 
   -0.12004E+07         0.16591E+07         0.00000E+00
    0.16591E+07         0.42972E+07         0.00000E+00
    0.00000E+00         0.00000E+00         0.00000E+00
 
   -0.11469E+07         0.17201E+07         0.00000E+00
    0.17201E+07         0.42928E+07         0.00000E+00
    0.00000E+00         0.00000E+00         0.00000E+00
 
   -0.10942E+07         0.17812E+07         0.00000E+00
    0.17812E+07         0.42880E+07         0.00000E+00
    0.00000E+00         0.00000E+00         0.00000E+00
 
   -0.10424E+07         0.18423E+07         0.00000E+00
    0.18423E+07         0.42828E+07         0.00000E+00
    0.00000E+00         0.00000E+00         0.00000E+00
 
   -0.99140E+06         0.19035E+07         0.00000E+00
    0.19035E+07         0.42772E+07         0.00000E+00
    0.00000E+00         0.00000E+00         0.00000E+00
 
   -0.94113E+06         0.19648E+07         0.00000E+00
    0.19648E+07         0.42712E+07         0.00000E+00
    0.00000E+00         0.00000E+00         0.00000E+00
 
   -0.89158E+06         0.20263E+07         0.00000E+00
    0.20263E+07         0.42646E+07         0.00000E+00
    0.00000E+00         0.00000E+00         0.00000E+00
 
   -0.84268E+06         0.20879E+07         0.00000E+00
    0.20879E+07         0.42576E+07         0.00000E+00
    0.00000E+00         0.00000E+00         0.00000E+00
 
   -0.79441E+06         0.21498E+07         0.00000E+00
    0.21498E+07         0.42500E+07         0.00000E+00
    0.00000E+00         0.00000E+00         0.00000E+00
 
   -0.74670E+06         0.22119E+07         0.00000E+00
    0.22119E+07         0.42419E+07         0.00000E+00
    0.00000E+00         0.00000E+00         0.00000E+00
 
   -0.69951E+06         0.22742E+07         0.00000E+00
    0.22742E+07         0.42331E+07         0.00000E+00
    0.00000E+00         0.00000E+00         0.00000E+00
 
   -0.65281E+06         0.23368E+07         0.00000E+00
    0.23368E+07         0.42238E+07         0.00000E+00
    0.00000E+00         0.00000E+00         0.00000E+00
 
   -0.60653E+06         0.23997E+07         0.00000E+00
    0.23997E+07         0.42137E+07         0.00000E+00
    0.00000E+00         0.00000E+00         0.00000E+00
 
   -0.56063E+06         0.24630E+07         0.00000E+00
    0.24630E+07         0.42030E+07         0.00000E+00
    0.00000E+00         0.00000E+00         0.00000E+00
 
   -0.51507E+06         0.25265E+07         0.00000E+00
    0.25265E+07         0.41915E+07         0.00000E+00
    0.00000E+00         0.00000E+00         0.00000E+00
 
   -0.46980E+06         0.25904E+07         0.00000E+00
    0.25904E+07         0.41793E+07         0.00000E+00
    0.00000E+00         0.00000E+00         0.00000E+00
 
   -0.42476E+06         0.26546E+07         0.00000E+00
    0.26546E+07         0.41663E+07         0.00000E+00
    0.00000E+00         0.00000E+00         0.00000E+00
 
   -0.37992E+06         0.27192E+07         0.00000E+00
    0.27192E+07         0.41525E+07         0.00000E+00
    0.00000E+00         0.00000E+00         0.00000E+00
 
   -0.33523E+06         0.27841E+07         0.00000E+00
    0.27841E+07         0.41379E+07         0.00000E+00
    0.00000E+00         0.00000E+00         0.00000E+00
 
   -0.29063E+06         0.28494E+07         0.00000E+00
    0.28494E+07         0.41223E+07         0.00000E+00
    0.00000E+00         0.00000E+00         0.00000E+00
 
   -0.24609E+06         0.29151E+07         0.00000E+00
    0.29151E+07         0.41058E+07         0.00000E+00
    0.00000E+00         0.00000E+00         0.00000E+00
 
   -0.20156E+06         0.29812E+07         0.00000E+00
    0.29812E+07         0.40884E+07         0.00000E+00
    0.00000E+00         0.00000E+00         0.00000E+00
 
   -0.15698E+06         0.30476E+07         0.00000E+00
    0.30476E+07         0.40701E+07         0.00000E+00
    0.00000E+00         0.00000E+00         0.00000E+00
 
   -0.11231E+06         0.31145E+07         0.00000E+00
    0.31145E+07         0.40507E+07         0.00000E+00
    0.00000E+00         0.00000E+00         0.00000E+00
 
   -0.67517E+05         0.31817E+07         0.00000E+00
    0.31817E+07         0.40303E+07         0.00000E+00
    0.00000E+00         0.00000E+00         0.00000E+00
 
   -0.22539E+05         0.32493E+07         0.00000E+00
    0.32493E+07         0.40088E+07         0.00000E+00
    0.00000E+00         0.00000E+00         0.00000E+00
 
   -0.27436E+07         0.42216E+05         0.00000E+00
    0.42216E+05         0.40240E+07         0.00000E+00
    0.00000E+00         0.00000E+00         0.00000E+00
 
   -0.26711E+07         0.12172E+06         0.00000E+00
    0.12172E+06         0.40235E+07         0.00000E+00
    0.00000E+00         0.00000E+00         0.00000E+00
 
   -0.25992E+07         0.19954E+06         0.00000E+00
    0.19954E+06         0.40226E+07         0.00000E+00
    0.00000E+00         0.00000E+00         0.00000E+00
 
   -0.25280E+07         0.27577E+06         0.00000E+00
    0.27577E+06         0.40212E+07         0.00000E+00
    0.00000E+00         0.00000E+00         0.00000E+00
 
   -0.24574E+07         0.35048E+06         0.00000E+00
    0.35048E+06         0.40196E+07         0.00000E+00
    0.00000E+00         0.00000E+00         0.00000E+00
 
   -0.23876E+07         0.42376E+06         0.00000E+00
    0.42376E+06         0.40176E+07         0.00000E+00
    0.00000E+00         0.00000E+00         0.00000E+00
 
   -0.23185E+07         0.49569E+06         0.00000E+00
    0.49569E+06         0.40152E+07         0.00000E+00
    0.00000E+00         0.00000E+00         0.00000E+00
 
   -0.22502E+07         0.56635E+06         0.00000E+00
    0.56635E+06         0.40127E+07         0.00000E+00
    0.00000E+00         0.00000E+00         0.00000E+00
 
   -0.21828E+07         0.63581E+06         0.00000E+00
    0.63581E+06         0.40098E+07         0.00000E+00
    0.00000E+00         0.00000E+00         0.00000E+00
 
   -0.21162E+07         0.70416E+06         0.00000E+00
    0.70416E+06         0.40067E+07         0.00000E+00
    0.00000E+00         0.00000E+00         0.00000E+00
 
   -0.20505E+07         0.77146E+06         0.00000E+00
    0.77146E+06         0.40034E+07         0.00000E+00
    0.00000E+00         0.00000E+00         0.00000E+00
 
   -0.19857E+07         0.83780E+06         0.00000E+00
    0.83780E+06         0.39999E+07         0.00000E+00
    0.00000E+00         0.00000E+00         0.00000E+00
 
   -0.19218E+07         0.90324E+06         0.00000E+00
    0.90324E+06         0.39961E+07         0.00000E+00
    0.00000E+00         0.00000E+00         0.00000E+00
 
   -0.18587E+07         0.96785E+06         0.00000E+00
    0.96785E+06         0.39922E+07         0.00000E+00
    0.00000E+00         0.00000E+00         0.00000E+00
 
   -0.17966E+07         0.10317E+07         0.00000E+00
    0.10317E+07         0.39880E+07         0.00000E+00
    0.00000E+00         0.00000E+00         0.00000E+00
 
   -0.17354E+07         0.10948E+07         0.00000E+00
    0.10948E+07         0.39836E+07         0.00000E+00
    0.00000E+00         0.00000E+00         0.00000E+00
 
   -0.16751E+07         0.11574E+07         0.00000E+00
    0.11574E+07         0.39790E+07         0.00000E+00
    0.00000E+00         0.00000E+00         0.00000E+00
 
   -0.16156E+07         0.12193E+07         0.00000E+00
    0.12193E+07         0.39742E+07         0.00000E+00
    0.00000E+00         0.00000E+00         0.00000E+00
 
   -0.15571E+07         0.12807E+07         0.00000E+00
    0.12807E+07         0.39691E+07         0.00000E+00
    0.00000E+00         0.00000E+00         0.00000E+00
 
   -0.14994E+07         0.13417E+07         0.00000E+00
    0.13417E+07         0.39638E+07         0.00000E+00
    0.00000E+00         0.00000E+00         0.00000E+00
 
   -0.14425E+07         0.14022E+07         0.00000E+00
    0.14022E+07         0.39583E+07         0.00000E+00
    0.00000E+00         0.00000E+00         0.00000E+00
 
   -0.13865E+07         0.14624E+07         0.00000E+00
    0.14624E+07         0.39524E+07         0.00000E+00
    0.00000E+00         0.00000E+00         0.00000E+00
 
   -0.13312E+07         0.15223E+07         0.00000E+00
    0.15223E+07         0.39463E+07         0.00000E+00
    0.00000E+00         0.00000E+00         0.00000E+00
 
   -0.12767E+07         0.15819E+07         0.00000E+00
    0.15819E+07         0.39399E+07         0.00000E+00
    0.00000E+00         0.00000E+00         0.00000E+00
 
   -0.12230E+07         0.16412E+07         0.00000E+00
    0.16412E+07         0.39332E+07         0.00000E+00
    0.00000E+00         0.00000E+00         0.00000E+00
 
   -0.11700E+07         0.17004E+07         0.00000E+00
    0.17004E+07         0.39261E+07         0.00000E+00
    0.00000E+00         0.00000E+00         0.00000E+00
 
   -0.11177E+07         0.17595E+07         0.00000E+00
    0.17595E+07         0.39187E+07         0.00000E+00
    0.00000E+00         0.00000E+00         0.00000E+00
 
   -0.10660E+07         0.18184E+07         0.00000E+00
    0.18184E+07         0.39108E+07         0.00000E+00
    0.00000E+00         0.00000E+00         0.00000E+00
 
   -0.10150E+07         0.18773E+07         0.00000E+00
    0.18773E+07         0.39026E+07         0.00000E+00
    0.00000E+00         0.00000E+00         0.00000E+00
 
   -0.96456E+06         0.19361E+07         0.00000E+00
    0.19361E+07         0.38940E+07         0.00000E+00
    0.00000E+00         0.00000E+00         0.00000E+00
 
   -0.91469E+06         0.19950E+07         0.00000E+00
    0.19950E+07         0.38849E+07         0.00000E+00
    0.00000E+00         0.00000E+00         0.00000E+00
 
   -0.86533E+06         0.20538E+07         0.00000E+00
    0.20538E+07         0.38753E+07         0.00000E+00
    0.00000E+00         0.00000E+00         0.00000E+00
 
   -0.81647E+06         0.21127E+07         0.00000E+00
    0.21127E+07         0.38653E+07         0.00000E+00
    0.00000E+00         0.00000E+00         0.00000E+00
 
   -0.76806E+06         0.21716E+07         0.00000E+00
    0.21716E+07         0.38547E+07         0.00000E+00
    0.00000E+00         0.00000E+00         0.00000E+00
 
   -0.72006E+06         0.22307E+07         0.00000E+00
    0.22307E+07         0.38436E+07         0.00000E+00
    0.00000E+00         0.00000E+00         0.00000E+00
 
   -0.67244E+06         0.22898E+07         0.00000E+00
    0.22898E+07         0.38319E+07         0.00000E+00
    0.00000E+00         0.00000E+00         0.00000E+00
 
   -0.62516E+06         0.23491E+07         0.00000E+00
    0.23491E+07         0.38196E+07         0.00000E+00
    0.00000E+00         0.00000E+00         0.00000E+00
 
   -0.57818E+06         0.24086E+07         0.00000E+00
    0.24086E+07         0.38067E+07         0.00000E+00
    0.00000E+00         0.00000E+00         0.00000E+00
 
   -0.53146E+06         0.24681E+07         0.00000E+00
    0.24681E+07         0.37931E+07         0.00000E+00
    0.00000E+00         0.00000E+00         0.00000E+00
 
   -0.48496E+06         0.25279E+07         0.00000E+00
    0.25279E+07         0.37789E+07         0.00000E+00
    0.00000E+00         0.00000E+00         0.00000E+00
 
   -0.43864E+06         0.25879E+07         0.00000E+00
    0.25879E+07         0.37640E+07         0.00000E+00
    0.00000E+00         0.00000E+00         0.00000E+00
 
   -0.39246E+06         0.26480E+07         0.00000E+00
    0.26480E+07         0.37483E+07         0.00000E+00
    0.00000E+00         0.00000E+00         0.00000E+00
 
   -0.34639E+06         0.27084E+07         0.00000E+00
    0.27084E+07         0.37319E+07         0.00000E+00
    0.00000E+00         0.00000E+00         0.00000E+00
 
   -0.30037E+06         0.27690E+07         0.00000E+00
    0.27690E+07         0.37148E+07         0.00000E+00
    0.00000E+00         0.00000E+00         0.00000E+00
 
   -0.25438E+06         0.28298E+07         0.00000E+00
    0.28298E+07         0.36968E+07         0.00000E+00
    0.00000E+00         0.00000E+00         0.00000E+00
 
   -0.20836E+06         0.28908E+07         0.00000E+00
    0.28908E+07         0.36780E+07         0.00000E+00
    0.00000E+00         0.00000E+00         0.00000E+00
 
   -0.16229E+06         0.29521E+07         0.00000E+00
    0.29521E+07         0.36583E+07         0.00000E+00
    0.00000E+00         0.00000E+00         0.00000E+00
 
   -0.11611E+06         0.30136E+07         0.00000E+00
    0.30136E+07         0.36378E+07         0.00000E+00
    0.00000E+00         0.00000E+00         0.00000E+00
 
   -0.69798E+05         0.30753E+07         0.00000E+00
    0.30753E+07         0.36164E+07         0.00000E+00
    0.00000E+00         0.00000E+00         0.00000E+00
 
   -0.23300E+05         0.31373E+07         0.00000E+00
    0.31373E+07         0.35940E+07         0.00000E+00
    0.00000E+00         0.00000E+00         0.00000E+00
 
   -0.26417E+07         0.41193E+05         0.00000E+00
    0.41193E+05         0.37277E+07         0.00000E+00
    0.00000E+00         0.00000E+00         0.00000E+00
 
   -0.25775E+07         0.11913E+06         0.00000E+00
    0.11913E+06         0.37271E+07         0.00000E+00
    0.00000E+00         0.00000E+00         0.00000E+00
 
   -0.25134E+07         0.19554E+06         0.00000E+00
    0.19554E+06         0.37259E+07         0.00000E+00
    0.00000E+00         0.00000E+00         0.00000E+00
 
   -0.24497E+07         0.27047E+06         0.00000E+00
    0.27047E+06         0.37242E+07         0.00000E+00
    0.00000E+00         0.00000E+00         0.00000E+00
 
   -0.23862E+07         0.34400E+06         0.00000E+00
    0.34400E+06         0.37220E+07         0.00000E+00
    0.00000E+00         0.00000E+00         0.00000E+00
 
   -0.23231E+07         0.41620E+06         0.00000E+00
    0.41620E+06         0.37193E+07         0.00000E+00
    0.00000E+00         0.00000E+00         0.00000E+00
 
   -0.22605E+07         0.48711E+06         0.00000E+00
    0.48711E+06         0.37163E+07         0.00000E+00
    0.00000E+00         0.00000E+00         0.00000E+00
 
   -0.21982E+07         0.55681E+06         0.00000E+00
    0.55681E+06         0.37128E+07         0.00000E+00
    0.00000E+00         0.00000E+00         0.00000E+00
 
   -0.21365E+07         0.62537E+06         0.00000E+00
    0.62537E+06         0.37089E+07         0.00000E+00
    0.00000E+00         0.00000E+00         0.00000E+00
 
   -0.20753E+07         0.69283E+06         0.00000E+00
    0.69283E+06         0.37048E+07         0.00000E+00
    0.00000E+00         0.00000E+00         0.00000E+00
 
   -0.20146E+07         0.75926E+06         0.00000E+00
    0.75926E+06         0.37002E+07         0.00000E+00
    0.00000E+00         0.00000E+00         0.00000E+00
 
   -0.19545E+07         0.82473E+06         0.00000E+00
    0.82473E+06         0.36954E+07         0.00000E+00
    0.00000E+00         0.00000E+00         0.00000E+00
 
   -0.18950E+07         0.88928E+06         0.00000E+00
    0.88928E+06         0.36902E+07         0.00000E+00
    0.00000E+00         0.00000E+00         0.00000E+00
 
   -0.18361E+07         0.95299E+06         0.00000E+00
    0.95299E+06         0.36848E+07         0.00000E+00
    0.00000E+00         0.00000E+00         0.00000E+00
 
   -0.17777E+07         0.10159E+07         0.00000E+00
    0.10159E+07         0.36790E+07         0.00000E+00
    0.00000E+00         0.00000E+00         0.00000E+00
 
   -0.17200E+07         0.10780E+07         0.00000E+00
    0.10780E+07         0.36730E+07         0.00000E+00
    0.00000E+00         0.00000E+00         0.00000E+00
 
   -0.16629E+07         0.11395E+07         0.00000E+00
    0.11395E+07         0.36666E+07         0.00000E+00
    0.00000E+00         0.00000E+00         0.00000E+00
 
   -0.16065E+07         0.12003E+07         0.00000E+00
    0.12003E+07         0.36600E+07         0.00000E+00
    0.00000E+00         0.00000E+00         0.00000E+00
 
   -0.15506E+07         0.12606E+07         0.00000E+00
    0.12606E+07         0.36531E+07         0.00000E+00
    0.00000E+00         0.00000E+00         0.00000E+00
 
   -0.14953E+07         0.13203E+07         0.00000E+00
    0.13203E+07         0.36459E+07         0.00000E+00
    0.00000E+00         0.00000E+00         0.00000E+00
 
   -0.14407E+07         0.13795E+07         0.00000E+00
    0.13795E+07         0.36384E+07         0.00000E+00
    0.00000E+00         0.00000E+00         0.00000E+00
 
   -0.13866E+07         0.14382E+07         0.00000E+00
    0.14382E+07         0.36306E+07         0.00000E+00
    0.00000E+00         0.00000E+00         0.00000E+00
 
   -0.13331E+07         0.14965E+07         0.00000E+00
    0.14965E+07         0.36225E+07         0.00000E+00
    0.00000E+00         0.00000E+00         0.00000E+00
 
   -0.12802E+07         0.15545E+07         0.00000E+00
    0.15545E+07         0.36140E+07         0.00000E+00
    0.00000E+00         0.00000E+00         0.00000E+00
 
   -0.12278E+07         0.16121E+07         0.00000E+00
    0.16121E+07         0.36052E+07         0.00000E+00
    0.00000E+00         0.00000E+00         0.00000E+00
 
   -0.11760E+07         0.16694E+07         0.00000E+00
    0.16694E+07         0.35961E+07         0.00000E+00
    0.00000E+00         0.00000E+00         0.00000E+00
 
   -0.11247E+07         0.17265E+07         0.00000E+00
    0.17265E+07         0.35866E+07         0.00000E+00
    0.00000E+00         0.00000E+00         0.00000E+00
 
   -0.10738E+07         0.17833E+07         0.00000E+00
    0.17833E+07         0.35768E+07         0.00000E+00
    0.00000E+00         0.00000E+00         0.00000E+00
 
   -0.10235E+07         0.18399E+07         0.00000E+00
    0.18399E+07         0.35665E+07         0.00000E+00
    0.00000E+00         0.00000E+00         0.00000E+00
 
   -0.97356E+06         0.18964E+07         0.00000E+00
    0.18964E+07         0.35558E+07         0.00000E+00
    0.00000E+00         0.00000E+00         0.00000E+00
 
   -0.92406E+06         0.19527E+07         0.00000E+00
    0.19527E+07         0.35447E+07         0.00000E+00
    0.00000E+00         0.00000E+00         0.00000E+00
 
   -0.87495E+06         0.20089E+07         0.00000E+00
    0.20089E+07         0.35332E+07         0.00000E+00
    0.00000E+00         0.00000E+00         0.00000E+00
 
   -0.82621E+06         0.20651E+07         0.00000E+00
    0.20651E+07         0.35212E+07         0.00000E+00
    0.00000E+00         0.00000E+00         0.00000E+00
 
   -0.77780E+06         0.21211E+07         0.00000E+00
    0.21211E+07         0.35088E+07         0.00000E+00
    0.00000E+00         0.00000E+00         0.00000E+00
 
   -0.72971E+06         0.21771E+07         0.00000E+00
    0.21771E+07         0.34958E+07         0.00000E+00
    0.00000E+00         0.00000E+00         0.00000E+00
 
   -0.68189E+06         0.22331E+07         0.00000E+00
    0.22331E+07         0.34823E+07         0.00000E+00
    0.00000E+00         0.00000E+00         0.00000E+00
 
   -0.63432E+06         0.22891E+07         0.00000E+00
    0.22891E+07         0.34683E+07         0.00000E+00
    0.00000E+00         0.00000E+00         0.00000E+00
 
   -0.58697E+06         0.23451E+07         0.00000E+00
    0.23451E+07         0.34537E+07         0.00000E+00
    0.00000E+00         0.00000E+00         0.00000E+00
 
   -0.53980E+06         0.24011E+07         0.00000E+00
    0.24011E+07         0.34386E+07         0.00000E+00
    0.00000E+00         0.00000E+00         0.00000E+00
 
   -0.49279E+06         0.24572E+07         0.00000E+00
    0.24572E+07         0.34228E+07         0.00000E+00
    0.00000E+00         0.00000E+00         0.00000E+00
 
   -0.44590E+06         0.25133E+07         0.00000E+00
    0.25133E+07         0.34064E+07         0.00000E+00
    0.00000E+00         0.00000E+00         0.00000E+00
 
   -0.39910E+06         0.25694E+07         0.00000E+00
    0.25694E+07         0.33894E+07         0.00000E+00
    0.00000E+00         0.00000E+00         0.00000E+00
 
   -0.35235E+06         0.26257E+07         0.00000E+00
    0.26257E+07         0.33718E+07         0.00000E+00
    0.00000E+00         0.00000E+00         0.00000E+00
 
   -0.30562E+06         0.26820E+07         0.00000E+00
    0.26820E+07         0.33534E+07         0.00000E+00
    0.00000E+00         0.00000E+00         0.00000E+00
 
   -0.25887E+06         0.27384E+07         0.00000E+00
    0.27384E+07         0.33343E+07         0.00000E+00
    0.00000E+00         0.00000E+00         0.00000E+00
 
   -0.21208E+06         0.27949E+07         0.00000E+00
    0.27949E+07         0.33145E+07         0.00000E+00
    0.00000E+00         0.00000E+00         0.00000E+00
 
   -0.16520E+06         0.28515E+07         0.00000E+00
    0.28515E+07         0.32940E+07         0.00000E+00
    0.00000E+00         0.00000E+00         0.00000E+00
 
   -0.11821E+06         0.29083E+07         0.00000E+00
    0.29083E+07         0.32727E+07         0.00000E+00
    0.00000E+00         0.00000E+00         0.00000E+00
 
   -0.71058E+05         0.29651E+07         0.00000E+00
    0.29651E+07         0.32506E+07         0.00000E+00
    0.00000E+00         0.00000E+00         0.00000E+00
 
   -0.23720E+05         0.30220E+07         0.00000E+00
    0.30220E+07         0.32277E+07         0.00000E+00
    0.00000E+00         0.00000E+00         0.00000E+00
 
   -0.25262E+07         0.39903E+05         0.00000E+00
    0.39903E+05         0.34547E+07         0.00000E+00
    0.00000E+00         0.00000E+00         0.00000E+00
 
   -0.24694E+07         0.11573E+06         0.00000E+00
    0.11573E+06         0.34540E+07         0.00000E+00
    0.00000E+00         0.00000E+00         0.00000E+00
 
   -0.24125E+07         0.19016E+06         0.00000E+00
    0.19016E+06         0.34527E+07         0.00000E+00
    0.00000E+00         0.00000E+00         0.00000E+00
 
   -0.23556E+07         0.26327E+06         0.00000E+00
    0.26327E+06         0.34507E+07         0.00000E+00
    0.00000E+00         0.00000E+00         0.00000E+00
 
   -0.22988E+07         0.33508E+06         0.00000E+00
    0.33508E+06         0.34481E+07         0.00000E+00
    0.00000E+00         0.00000E+00         0.00000E+00
 
   -0.22420E+07         0.40565E+06         0.00000E+00
    0.40565E+06         0.34450E+07         0.00000E+00
    0.00000E+00         0.00000E+00         0.00000E+00
 
   -0.21853E+07         0.47504E+06         0.00000E+00
    0.47504E+06         0.34414E+07         0.00000E+00
    0.00000E+00         0.00000E+00         0.00000E+00
 
   -0.21289E+07         0.54329E+06         0.00000E+00
    0.54329E+06         0.34373E+07         0.00000E+00
    0.00000E+00         0.00000E+00         0.00000E+00
 
   -0.20726E+07         0.61044E+06         0.00000E+00
    0.61044E+06         0.34327E+07         0.00000E+00
    0.00000E+00         0.00000E+00         0.00000E+00
 
   -0.20166E+07         0.67656E+06         0.00000E+00
    0.67656E+06         0.34278E+07         0.00000E+00
    0.00000E+00         0.00000E+00         0.00000E+00
 
   -0.19608E+07         0.74168E+06         0.00000E+00
    0.74168E+06         0.34223E+07         0.00000E+00
    0.00000E+00         0.00000E+00         0.00000E+00
 
   -0.19054E+07         0.80585E+06         0.00000E+00
    0.80585E+06         0.34165E+07         0.00000E+00
    0.00000E+00         0.00000E+00         0.00000E+00
 
   -0.18502E+07         0.86913E+06         0.00000E+00
    0.86913E+06         0.34104E+07         0.00000E+00
    0.00000E+00         0.00000E+00         0.00000E+00
 
   -0.17954E+07         0.93155E+06         0.00000E+00
    0.93155E+06         0.34038E+07         0.00000E+00
    0.00000E+00         0.00000E+00         0.00000E+00
 
   -0.17410E+07         0.99317E+06         0.00000E+00
    0.99317E+06         0.33969E+07         0.00000E+00
    0.00000E+00         0.00000E+00         0.00000E+00
 
   -0.16870E+07         0.10540E+07         0.00000E+00
    0.10540E+07         0.33896E+07         0.00000E+00
    0.00000E+00         0.00000E+00         0.00000E+00
 
   -0.16333E+07         0.11142E+07         0.00000E+00
    0.11142E+07         0.33820E+07         0.00000E+00
    0.00000E+00         0.00000E+00         0.00000E+00
 
   -0.15800E+07         0.11736E+07         0.00000E+00
    0.11736E+07         0.33741E+07         0.00000E+00
    0.00000E+00         0.00000E+00         0.00000E+00
 
   -0.15271E+07         0.12324E+07         0.00000E+00
    0.12324E+07         0.33658E+07         0.00000E+00
    0.00000E+00         0.00000E+00         0.00000E+00
 
   -0.14746E+07         0.12907E+07         0.00000E+00
    0.12907E+07         0.33572E+07         0.00000E+00
    0.00000E+00         0.00000E+00         0.00000E+00
 
   -0.14225E+07         0.13483E+07         0.00000E+00
    0.13483E+07         0.33483E+07         0.00000E+00
    0.00000E+00         0.00000E+00         0.00000E+00
 
   -0.13708E+07         0.14055E+07         0.00000E+00
    0.14055E+07         0.33390E+07         0.00000E+00
    0.00000E+00         0.00000E+00         0.00000E+00
 
   -0.13195E+07         0.14622E+07         0.00000E+00
    0.14622E+07         0.33294E+07         0.00000E+00
    0.00000E+00         0.00000E+00         0.00000E+00
 
   -0.12685E+07         0.15184E+07         0.00000E+00
    0.15184E+07         0.33194E+07         0.00000E+00
    0.00000E+00         0.00000E+00         0.00000E+00
 
   -0.12180E+07         0.15742E+07         0.00000E+00
    0.15742E+07         0.33091E+07         0.00000E+00
    0.00000E+00         0.00000E+00         0.00000E+00
 
   -0.11678E+07         0.16296E+07         0.00000E+00
    0.16296E+07         0.32984E+07         0.00000E+00
    0.00000E+00         0.00000E+00         0.00000E+00
 
   -0.11179E+07         0.16847E+07         0.00000E+00
    0.16847E+07         0.32874E+07         0.00000E+00
    0.00000E+00         0.00000E+00         0.00000E+00
 
   -0.10684E+07         0.17395E+07         0.00000E+00
    0.17395E+07         0.32760E+07         0.00000E+00
    0.00000E+00         0.00000E+00         0.00000E+00
 
   -0.10193E+07         0.17939E+07         0.00000E+00
    0.17939E+07         0.32642E+07         0.00000E+00
    0.00000E+00         0.00000E+00         0.00000E+00
 
   -0.97039E+06         0.18481E+07         0.00000E+00
    0.18481E+07         0.32520E+07         0.00000E+00
    0.00000E+00         0.00000E+00         0.00000E+00
 
   -0.92181E+06         0.19021E+07         0.00000E+00
    0.19021E+07         0.32395E+07         0.00000E+00
    0.00000E+00         0.00000E+00         0.00000E+00
 
   -0.87351E+06         0.19558E+07         0.00000E+00
    0.19558E+07         0.32265E+07         0.00000E+00
    0.00000E+00         0.00000E+00         0.00000E+00
 
   -0.82546E+06         0.20093E+07         0.00000E+00
    0.20093E+07         0.32130E+07         0.00000E+00
    0.00000E+00         0.00000E+00         0.00000E+00
 
   -0.77764E+06         0.20627E+07         0.00000E+00
    0.20627E+07         0.31992E+07         0.00000E+00
    0.00000E+00         0.00000E+00         0.00000E+00
 
   -0.73003E+06         0.21159E+07         0.00000E+00
    0.21159E+07         0.31848E+07         0.00000E+00
    0.00000E+00         0.00000E+00         0.00000E+00
 
   -0.68261E+06         0.21690E+07         0.00000E+00
    0.21690E+07         0.31700E+07         0.00000E+00
    0.00000E+00         0.00000E+00         0.00000E+00
 
   -0.63535E+06         0.22219E+07         0.00000E+00
    0.22219E+07         0.31547E+07         0.00000E+00
    0.00000E+00         0.00000E+00         0.00000E+00
 
   -0.58823E+06         0.22748E+07         0.00000E+00
    0.22748E+07         0.31389E+07         0.00000E+00
    0.00000E+00         0.00000E+00         0.00000E+00
 
   -0.54122E+06         0.23275E+07         0.00000E+00
    0.23275E+07         0.31226E+07         0.00000E+00
    0.00000E+00         0.00000E+00         0.00000E+00
 
   -0.49430E+06         0.23802E+07         0.00000E+00
    0.23802E+07         0.31058E+07         0.00000E+00
    0.00000E+00         0.00000E+00         0.00000E+00
 
   -0.44744E+06         0.24329E+07         0.00000E+00
    0.24329E+07         0.30884E+07         0.00000E+00
    0.00000E+00         0.00000E+00         0.00000E+00
 
   -0.40061E+06         0.24854E+07         0.00000E+00
    0.24854E+07         0.30704E+07         0.00000E+00
    0.00000E+00         0.00000E+00         0.00000E+00
 
   -0.35380E+06         0.25380E+07         0.00000E+00
    0.25380E+07         0.30519E+07         0.00000E+00
    0.00000E+00         0.00000E+00         0.00000E+00
 
   -0.30696E+06         0.25905E+07         0.00000E+00
    0.25905E+07         0.30327E+07         0.00000E+00
    0.00000E+00         0.00000E+00         0.00000E+00
 
   -0.26007E+06         0.26429E+07         0.00000E+00
    0.26429E+07         0.30129E+07         0.00000E+00
    0.00000E+00         0.00000E+00         0.00000E+00
 
   -0.21310E+06         0.26954E+07         0.00000E+00
    0.26954E+07         0.29925E+07         0.00000E+00
    0.00000E+00         0.00000E+00         0.00000E+00
 
   -0.16602E+06         0.27478E+07         0.00000E+00
    0.27478E+07         0.29714E+07         0.00000E+00
    0.00000E+00         0.00000E+00         0.00000E+00
 
   -0.11881E+06         0.28003E+07         0.00000E+00
    0.28003E+07         0.29497E+07         0.00000E+00
    0.00000E+00         0.00000E+00         0.00000E+00
 
   -0.71424E+05         0.28527E+07         0.00000E+00
    0.28527E+07         0.29272E+07         0.00000E+00
    0.00000E+00         0.00000E+00         0.00000E+00
 
   -0.23843E+05         0.29051E+07         0.00000E+00
    0.29051E+07         0.29041E+07         0.00000E+00
    0.00000E+00         0.00000E+00         0.00000E+00
 
   -0.24019E+07         0.38434E+05         0.00000E+00
    0.38434E+05         0.32026E+07         0.00000E+00
    0.00000E+00         0.00000E+00         0.00000E+00
 
   -0.23518E+07         0.11176E+06         0.00000E+00
    0.11176E+06         0.32018E+07         0.00000E+00
    0.00000E+00         0.00000E+00         0.00000E+00
 
   -0.23013E+07         0.18385E+06         0.00000E+00
    0.18385E+06         0.32003E+07         0.00000E+00
    0.00000E+00         0.00000E+00         0.00000E+00
 
   -0.22507E+07         0.25472E+06         0.00000E+00
    0.25472E+06         0.31982E+07         0.00000E+00
    0.00000E+00         0.00000E+00         0.00000E+00
 
   -0.21998E+07         0.32443E+06         0.00000E+00
    0.32443E+06         0.31954E+07         0.00000E+00
    0.00000E+00         0.00000E+00         0.00000E+00
 
   -0.21489E+07         0.39301E+06         0.00000E+00
    0.39301E+06         0.31920E+07         0.00000E+00
    0.00000E+00         0.00000E+00         0.00000E+00
 
   -0.20978E+07         0.46049E+06         0.00000E+00
    0.46049E+06         0.31880E+07         0.00000E+00
    0.00000E+00         0.00000E+00         0.00000E+00
 
   -0.20467E+07         0.52691E+06         0.00000E+00
    0.52691E+06         0.31835E+07         0.00000E+00
    0.00000E+00         0.00000E+00         0.00000E+00
 
   -0.19956E+07         0.59231E+06         0.00000E+00
    0.59231E+06         0.31785E+07         0.00000E+00
    0.00000E+00         0.00000E+00         0.00000E+00
 
   -0.19445E+07         0.65672E+06         0.00000E+00
    0.65672E+06         0.31729E+07         0.00000E+00
    0.00000E+00         0.00000E+00         0.00000E+00
 
   -0.18934E+07         0.72019E+06         0.00000E+00
    0.72019E+06         0.31669E+07         0.00000E+00
    0.00000E+00         0.00000E+00         0.00000E+00
 
   -0.18425E+07         0.78276E+06         0.00000E+00
    0.78276E+06         0.31605E+07         0.00000E+00
    0.00000E+00         0.00000E+00         0.00000E+00
 
   -0.17916E+07         0.84445E+06         0.00000E+00
    0.84445E+06         0.31536E+07         0.00000E+00
    0.00000E+00         0.00000E+00         0.00000E+00
 
   -0.17409E+07         0.90531E+06         0.00000E+00
    0.90531E+06         0.31463E+07         0.00000E+00
    0.00000E+00         0.00000E+00         0.00000E+00
 
   -0.16904E+07         0.96538E+06         0.00000E+00
    0.96538E+06         0.31386E+07         0.00000E+00
    0.00000E+00         0.00000E+00         0.00000E+00
 
   -0.16400E+07         0.10247E+07         0.00000E+00
    0.10247E+07         0.31305E+07         0.00000E+00
    0.00000E+00         0.00000E+00         0.00000E+00
 
   -0.15898E+07         0.10833E+07         0.00000E+00
    0.10833E+07         0.31220E+07         0.00000E+00
    0.00000E+00         0.00000E+00         0.00000E+00
 
   -0.15399E+07         0.11412E+07         0.00000E+00
    0.11412E+07         0.31131E+07         0.00000E+00
    0.00000E+00         0.00000E+00         0.00000E+00
 
   -0.14901E+07         0.11984E+07         0.00000E+00
    0.11984E+07         0.31039E+07         0.00000E+00
    0.00000E+00         0.00000E+00         0.00000E+00
 
   -0.14405E+07         0.12550E+07         0.00000E+00
    0.12550E+07         0.30943E+07         0.00000E+00
    0.00000E+00         0.00000E+00         0.00000E+00
 
   -0.13912E+07         0.13110E+07         0.00000E+00
    0.13110E+07         0.30843E+07         0.00000E+00
    0.00000E+00         0.00000E+00         0.00000E+00
 
   -0.13421E+07         0.13665E+07         0.00000E+00
    0.13665E+07         0.30740E+07         0.00000E+00
    0.00000E+00         0.00000E+00         0.00000E+00
 
   -0.12932E+07         0.14214E+07         0.00000E+00
    0.14214E+07         0.30633E+07         0.00000E+00
    0.00000E+00         0.00000E+00         0.00000E+00
 
   -0.12445E+07         0.14758E+07         0.00000E+00
    0.14758E+07         0.30523E+07         0.00000E+00
    0.00000E+00         0.00000E+00         0.00000E+00
 
   -0.11961E+07         0.15298E+07         0.00000E+00
    0.15298E+07         0.30409E+07         0.00000E+00
    0.00000E+00         0.00000E+00         0.00000E+00
 
   -0.11479E+07         0.15833E+07         0.00000E+00
    0.15833E+07         0.30291E+07         0.00000E+00
    0.00000E+00         0.00000E+00         0.00000E+00
 
   -0.10999E+07         0.16364E+07         0.00000E+00
    0.16364E+07         0.30170E+07         0.00000E+00
    0.00000E+00         0.00000E+00         0.00000E+00
 
   -0.10521E+07         0.16891E+07         0.00000E+00
    0.16891E+07         0.30045E+07         0.00000E+00
    0.00000E+00         0.00000E+00         0.00000E+00
 
   -0.10045E+07         0.17415E+07         0.00000E+00
    0.17415E+07         0.29916E+07         0.00000E+00
    0.00000E+00         0.00000E+00         0.00000E+00
 
   -0.95712E+06         0.17935E+07         0.00000E+00
    0.17935E+07         0.29784E+07         0.00000E+00
    0.00000E+00         0.00000E+00         0.00000E+00
 
   -0.90990E+06         0.18452E+07         0.00000E+00
    0.18452E+07         0.29647E+07         0.00000E+00
    0.00000E+00         0.00000E+00         0.00000E+00
 
   -0.86284E+06         0.18966E+07         0.00000E+00
    0.18966E+07         0.29507E+07         0.00000E+00
    0.00000E+00         0.00000E+00         0.00000E+00
 
   -0.81593E+06         0.19477E+07         0.00000E+00
    0.19477E+07         0.29363E+07         0.00000E+00
    0.00000E+00         0.00000E+00         0.00000E+00
 
   -0.76916E+06         0.19985E+07         0.00000E+00
    0.19985E+07         0.29214E+07         0.00000E+00
    0.00000E+00         0.00000E+00         0.00000E+00
 
   -0.72251E+06         0.20491E+07         0.00000E+00
    0.20491E+07         0.29061E+07         0.00000E+00
    0.00000E+00         0.00000E+00         0.00000E+00
 
   -0.67596E+06         0.20995E+07         0.00000E+00
    0.20995E+07         0.28904E+07         0.00000E+00
    0.00000E+00         0.00000E+00         0.00000E+00
 
   -0.62949E+06         0.21497E+07         0.00000E+00
    0.21497E+07         0.28743E+07         0.00000E+00
    0.00000E+00         0.00000E+00         0.00000E+00
 
   -0.58310E+06         0.21996E+07         0.00000E+00
    0.21996E+07         0.28577E+07         0.00000E+00
    0.00000E+00         0.00000E+00         0.00000E+00
 
   -0.53674E+06         0.22494E+07         0.00000E+00
    0.22494E+07         0.28406E+07         0.00000E+00
    0.00000E+00         0.00000E+00         0.00000E+00
 
   -0.49042E+06         0.22990E+07         0.00000E+00
    0.22990E+07         0.28230E+07         0.00000E+00
    0.00000E+00         0.00000E+00         0.00000E+00
 
   -0.44410E+06         0.23485E+07         0.00000E+00
    0.23485E+07         0.28050E+07         0.00000E+00
    0.00000E+00         0.00000E+00         0.00000E+00
 
   -0.39776E+06         0.23978E+07         0.00000E+00
    0.23978E+07         0.27864E+07         0.00000E+00
    0.00000E+00         0.00000E+00         0.00000E+00
 
   -0.35139E+06         0.24470E+07         0.00000E+00
    0.24470E+07         0.27673E+07         0.00000E+00
    0.00000E+00         0.00000E+00         0.00000E+00
 
   -0.30495E+06         0.24961E+07         0.00000E+00
    0.24961E+07         0.27477E+07         0.00000E+00
    0.00000E+00         0.00000E+00         0.00000E+00
 
   -0.25843E+06         0.25450E+07         0.00000E+00
    0.25450E+07         0.27275E+07         0.00000E+00
    0.00000E+00         0.00000E+00         0.00000E+00
 
   -0.21180E+06         0.25938E+07         0.00000E+00
    0.25938E+07         0.27068E+07         0.00000E+00
    0.00000E+00         0.00000E+00         0.00000E+00
 
   -0.16504E+06         0.26425E+07         0.00000E+00
    0.26425E+07         0.26855E+07         0.00000E+00
    0.00000E+00         0.00000E+00         0.00000E+00
 
   -0.11812E+06         0.26911E+07         0.00000E+00
    0.26911E+07         0.26636E+07         0.00000E+00
    0.00000E+00         0.00000E+00         0.00000E+00
 
   -0.71019E+05         0.27396E+07         0.00000E+00
    0.27396E+07         0.26411E+07         0.00000E+00
    0.00000E+00         0.00000E+00         0.00000E+00
 
   -0.23710E+05         0.27880E+07         0.00000E+00
    0.27880E+07         0.26180E+07         0.00000E+00
    0.00000E+00         0.00000E+00         0.00000E+00
 
   -0.22725E+07         0.36857E+05         0.00000E+00
    0.36857E+05         0.29690E+07         0.00000E+00
    0.00000E+00         0.00000E+00         0.00000E+00
 
   -0.22283E+07         0.10744E+06         0.00000E+00
    0.10744E+06         0.29682E+07         0.00000E+00
    0.00000E+00         0.00000E+00         0.00000E+00
 
   -0.21837E+07         0.17692E+06         0.00000E+00
    0.17692E+06         0.29667E+07         0.00000E+00
    0.00000E+00         0.00000E+00         0.00000E+00
 
   -0.21386E+07         0.24531E+06         0.00000E+00
    0.24531E+06         0.29644E+07         0.00000E+00
    0.00000E+00         0.00000E+00         0.00000E+00
 
   -0.20933E+07         0.31265E+06         0.00000E+00
    0.31265E+06         0.29615E+07         0.00000E+00
    0.00000E+00         0.00000E+00         0.00000E+00
 
   -0.20476E+07         0.37895E+06         0.00000E+00
    0.37895E+06         0.29579E+07         0.00000E+00
    0.00000E+00         0.00000E+00         0.00000E+00
 
   -0.20016E+07         0.44426E+06         0.00000E+00
    0.44426E+06         0.29537E+07         0.00000E+00
    0.00000E+00         0.00000E+00         0.00000E+00
 
   -0.19555E+07         0.50859E+06         0.00000E+00
    0.50859E+06         0.29490E+07         0.00000E+00
    0.00000E+00         0.00000E+00         0.00000E+00
 
   -0.19092E+07         0.57198E+06         0.00000E+00
    0.57198E+06         0.29437E+07         0.00000E+00
    0.00000E+00         0.00000E+00         0.00000E+00
 
   -0.18627E+07         0.63444E+06         0.00000E+00
    0.63444E+06         0.29378E+07         0.00000E+00
    0.00000E+00         0.00000E+00         0.00000E+00
 
   -0.18161E+07         0.69602E+06         0.00000E+00
    0.69602E+06         0.29314E+07         0.00000E+00
    0.00000E+00         0.00000E+00         0.00000E+00
 
   -0.17695E+07         0.75674E+06         0.00000E+00
    0.75674E+06         0.29246E+07         0.00000E+00
    0.00000E+00         0.00000E+00         0.00000E+00
 
   -0.17227E+07         0.81663E+06         0.00000E+00
    0.81663E+06         0.29173E+07         0.00000E+00
    0.00000E+00         0.00000E+00         0.00000E+00
 
   -0.16760E+07         0.87572E+06         0.00000E+00
    0.87572E+06         0.29095E+07         0.00000E+00
    0.00000E+00         0.00000E+00         0.00000E+00
 
   -0.16293E+07         0.93404E+06         0.00000E+00
    0.93404E+06         0.29012E+07         0.00000E+00
    0.00000E+00         0.00000E+00         0.00000E+00
 
   -0.15825E+07         0.99161E+06         0.00000E+00
    0.99161E+06         0.28926E+07         0.00000E+00
    0.00000E+00         0.00000E+00         0.00000E+00
 
   -0.15358E+07         0.10485E+07         0.00000E+00
    0.10485E+07         0.28835E+07         0.00000E+00
    0.00000E+00         0.00000E+00         0.00000E+00
 
   -0.14891E+07         0.11046E+07         0.00000E+00
    0.11046E+07         0.28741E+07         0.00000E+00
    0.00000E+00         0.00000E+00         0.00000E+00
 
   -0.14425E+07         0.11601E+07         0.00000E+00
    0.11601E+07         0.28642E+07         0.00000E+00
    0.00000E+00         0.00000E+00         0.00000E+00
 
   -0.13960E+07         0.12150E+07         0.00000E+00
    0.12150E+07         0.28539E+07         0.00000E+00
    0.00000E+00         0.00000E+00         0.00000E+00
 
   -0.13495E+07         0.12693E+07         0.00000E+00
    0.12693E+07         0.28433E+07         0.00000E+00
    0.00000E+00         0.00000E+00         0.00000E+00
 
   -0.13032E+07         0.13230E+07         0.00000E+00
    0.13230E+07         0.28323E+07         0.00000E+00
    0.00000E+00         0.00000E+00         0.00000E+00
 
   -0.12569E+07         0.13761E+07         0.00000E+00
    0.13761E+07         0.28209E+07         0.00000E+00
    0.00000E+00         0.00000E+00         0.00000E+00
 
   -0.12107E+07         0.14287E+07         0.00000E+00
    0.14287E+07         0.28092E+07         0.00000E+00
    0.00000E+00         0.00000E+00         0.00000E+00
 
   -0.11646E+07         0.14808E+07         0.00000E+00
    0.14808E+07         0.27971E+07         0.00000E+00
    0.00000E+00         0.00000E+00         0.00000E+00
 
   -0.11186E+07         0.15324E+07         0.00000E+00
    0.15324E+07         0.27846E+07         0.00000E+00
    0.00000E+00         0.00000E+00         0.00000E+00
 
   -0.10727E+07         0.15836E+07         0.00000E+00
    0.15836E+07         0.27718E+07         0.00000E+00
    0.00000E+00         0.00000E+00         0.00000E+00
 
   -0.10270E+07         0.16343E+07         0.00000E+00
    0.16343E+07         0.27586E+07         0.00000E+00
    0.00000E+00         0.00000E+00         0.00000E+00
 
   -0.98124E+06         0.16846E+07         0.00000E+00
    0.16846E+07         0.27450E+07         0.00000E+00
    0.00000E+00         0.00000E+00         0.00000E+00
 
   -0.93562E+06         0.17345E+07         0.00000E+00
    0.17345E+07         0.27311E+07         0.00000E+00
    0.00000E+00         0.00000E+00         0.00000E+00
 
   -0.89007E+06         0.17840E+07         0.00000E+00
    0.17840E+07         0.27168E+07         0.00000E+00
    0.00000E+00         0.00000E+00         0.00000E+00
 
   -0.84460E+06         0.18331E+07         0.00000E+00
    0.18331E+07         0.27021E+07         0.00000E+00
    0.00000E+00         0.00000E+00         0.00000E+00
 
   -0.79918E+06         0.18819E+07         0.00000E+00
    0.18819E+07         0.26870E+07         0.00000E+00
    0.00000E+00         0.00000E+00         0.00000E+00
 
   -0.75382E+06         0.19304E+07         0.00000E+00
    0.19304E+07         0.26715E+07         0.00000E+00
    0.00000E+00         0.00000E+00         0.00000E+00
 
   -0.70849E+06         0.19786E+07         0.00000E+00
    0.19786E+07         0.26557E+07         0.00000E+00
    0.00000E+00         0.00000E+00         0.00000E+00
 
   -0.66320E+06         0.20265E+07         0.00000E+00
    0.20265E+07         0.26394E+07         0.00000E+00
    0.00000E+00         0.00000E+00         0.00000E+00
 
   -0.61792E+06         0.20740E+07         0.00000E+00
    0.20740E+07         0.26227E+07         0.00000E+00
    0.00000E+00         0.00000E+00         0.00000E+00
 
   -0.57264E+06         0.21214E+07         0.00000E+00
    0.21214E+07         0.26056E+07         0.00000E+00
    0.00000E+00         0.00000E+00         0.00000E+00
 
   -0.52735E+06         0.21684E+07         0.00000E+00
    0.21684E+07         0.25881E+07         0.00000E+00
    0.00000E+00         0.00000E+00         0.00000E+00
 
   -0.48203E+06         0.22153E+07         0.00000E+00
    0.22153E+07         0.25702E+07         0.00000E+00
    0.00000E+00         0.00000E+00         0.00000E+00
 
   -0.43666E+06         0.22618E+07         0.00000E+00
    0.22618E+07         0.25518E+07         0.00000E+00
    0.00000E+00         0.00000E+00         0.00000E+00
 
   -0.39123E+06         0.23082E+07         0.00000E+00
    0.23082E+07         0.25329E+07         0.00000E+00
    0.00000E+00         0.00000E+00         0.00000E+00
 
   -0.34572E+06         0.23543E+07         0.00000E+00
    0.23543E+07         0.25136E+07         0.00000E+00
    0.00000E+00         0.00000E+00         0.00000E+00
 
   -0.30012E+06         0.24003E+07         0.00000E+00
    0.24003E+07         0.24938E+07         0.00000E+00
    0.00000E+00         0.00000E+00         0.00000E+00
 
   -0.25440E+06         0.24460E+07         0.00000E+00
    0.24460E+07         0.24736E+07         0.00000E+00
    0.00000E+00         0.00000E+00         0.00000E+00
 
   -0.20854E+06         0.24915E+07         0.00000E+00
    0.24915E+07         0.24528E+07         0.00000E+00
    0.00000E+00         0.00000E+00         0.00000E+00
 
   -0.16253E+06         0.25369E+07         0.00000E+00
    0.25369E+07         0.24315E+07         0.00000E+00
    0.00000E+00         0.00000E+00         0.00000E+00
 
   -0.11634E+06         0.25820E+07         0.00000E+00
    0.25820E+07         0.24098E+07         0.00000E+00
    0.00000E+00         0.00000E+00         0.00000E+00
 
   -0.69959E+05         0.26270E+07         0.00000E+00
    0.26270E+07         0.23874E+07         0.00000E+00
    0.00000E+00         0.00000E+00         0.00000E+00
 
   -0.23358E+05         0.26718E+07         0.00000E+00
    0.26718E+07         0.23646E+07         0.00000E+00
    0.00000E+00         0.00000E+00         0.00000E+00
 
   -0.21410E+07         0.35227E+05         0.00000E+00
    0.35227E+05         0.27521E+07         0.00000E+00
    0.00000E+00         0.00000E+00         0.00000E+00
 
   -0.21020E+07         0.10292E+06         0.00000E+00
    0.10292E+06         0.27513E+07         0.00000E+00
    0.00000E+00         0.00000E+00         0.00000E+00
 
   -0.20625E+07         0.16964E+06         0.00000E+00
    0.16964E+06         0.27498E+07         0.00000E+00
    0.00000E+00         0.00000E+00         0.00000E+00
 
   -0.20225E+07         0.23539E+06         0.00000E+00
    0.23539E+06         0.27475E+07         0.00000E+00
    0.00000E+00         0.00000E+00         0.00000E+00
 
   -0.19821E+07         0.30019E+06         0.00000E+00
    0.30019E+06         0.27445E+07         0.00000E+00
    0.00000E+00         0.00000E+00         0.00000E+00
 
   -0.19412E+07         0.36406E+06         0.00000E+00
    0.36406E+06         0.27408E+07         0.00000E+00
    0.00000E+00         0.00000E+00         0.00000E+00
 
   -0.18999E+07         0.42702E+06         0.00000E+00
    0.42702E+06         0.27366E+07         0.00000E+00
    0.00000E+00         0.00000E+00         0.00000E+00
 
   -0.18583E+07         0.48909E+06         0.00000E+00
    0.48909E+06         0.27317E+07         0.00000E+00
    0.00000E+00         0.00000E+00         0.00000E+00
 
   -0.18164E+07         0.55028E+06         0.00000E+00
    0.55028E+06         0.27262E+07         0.00000E+00
    0.00000E+00         0.00000E+00         0.00000E+00
 
   -0.17743E+07         0.61063E+06         0.00000E+00
    0.61063E+06         0.27202E+07         0.00000E+00
    0.00000E+00         0.00000E+00         0.00000E+00
 
   -0.17318E+07         0.67015E+06         0.00000E+00
    0.67015E+06         0.27137E+07         0.00000E+00
    0.00000E+00         0.00000E+00         0.00000E+00
 
   -0.16892E+07         0.72887E+06         0.00000E+00
    0.72887E+06         0.27066E+07         0.00000E+00
    0.00000E+00         0.00000E+00         0.00000E+00
 
   -0.16464E+07         0.78680E+06         0.00000E+00
    0.78680E+06         0.26991E+07         0.00000E+00
    0.00000E+00         0.00000E+00         0.00000E+00
 
   -0.16035E+07         0.84397E+06         0.00000E+00
    0.84397E+06         0.26910E+07         0.00000E+00
    0.00000E+00         0.00000E+00         0.00000E+00
 
   -0.15604E+07         0.90040E+06         0.00000E+00
    0.90040E+06         0.26825E+07         0.00000E+00
    0.00000E+00         0.00000E+00         0.00000E+00
 
   -0.15172E+07         0.95611E+06         0.00000E+00
    0.95611E+06         0.26736E+07         0.00000E+00
    0.00000E+00         0.00000E+00         0.00000E+00
 
   -0.14738E+07         0.10111E+07         0.00000E+00
    0.10111E+07         0.26642E+07         0.00000E+00
    0.00000E+00         0.00000E+00         0.00000E+00
 
   -0.14305E+07         0.10655E+07         0.00000E+00
    0.10655E+07         0.26544E+07         0.00000E+00
    0.00000E+00         0.00000E+00         0.00000E+00
 
   -0.13870E+07         0.11192E+07         0.00000E+00
    0.11192E+07         0.26442E+07         0.00000E+00
    0.00000E+00         0.00000E+00         0.00000E+00
 
   -0.13435E+07         0.11722E+07         0.00000E+00
    0.11722E+07         0.26336E+07         0.00000E+00
    0.00000E+00         0.00000E+00         0.00000E+00
 
   -0.13000E+07         0.12247E+07         0.00000E+00
    0.12247E+07         0.26226E+07         0.00000E+00
    0.00000E+00         0.00000E+00         0.00000E+00
 
   -0.12564E+07         0.12765E+07         0.00000E+00
    0.12765E+07         0.26112E+07         0.00000E+00
    0.00000E+00         0.00000E+00         0.00000E+00
 
   -0.12128E+07         0.13278E+07         0.00000E+00
    0.13278E+07         0.25994E+07         0.00000E+00
    0.00000E+00         0.00000E+00         0.00000E+00
 
   -0.11692E+07         0.13786E+07         0.00000E+00
    0.13786E+07         0.25873E+07         0.00000E+00
    0.00000E+00         0.00000E+00         0.00000E+00
 
   -0.11256E+07         0.14288E+07         0.00000E+00
    0.14288E+07         0.25748E+07         0.00000E+00
    0.00000E+00         0.00000E+00         0.00000E+00
 
   -0.10820E+07         0.14785E+07         0.00000E+00
    0.14785E+07         0.25619E+07         0.00000E+00
    0.00000E+00         0.00000E+00         0.00000E+00
 
   -0.10384E+07         0.15277E+07         0.00000E+00
    0.15277E+07         0.25487E+07         0.00000E+00
    0.00000E+00         0.00000E+00         0.00000E+00
 
   -0.99476E+06         0.15765E+07         0.00000E+00
    0.15765E+07         0.25351E+07         0.00000E+00
    0.00000E+00         0.00000E+00         0.00000E+00
 
   -0.95113E+06         0.16247E+07         0.00000E+00
    0.16247E+07         0.25211E+07         0.00000E+00
    0.00000E+00         0.00000E+00         0.00000E+00
 
   -0.90751E+06         0.16726E+07         0.00000E+00
    0.16726E+07         0.25068E+07         0.00000E+00
    0.00000E+00         0.00000E+00         0.00000E+00
 
   -0.86388E+06         0.17200E+07         0.00000E+00
    0.17200E+07         0.24921E+07         0.00000E+00
    0.00000E+00         0.00000E+00         0.00000E+00
 
   -0.82023E+06         0.17671E+07         0.00000E+00
    0.17671E+07         0.24771E+07         0.00000E+00
    0.00000E+00         0.00000E+00         0.00000E+00
 
   -0.77658E+06         0.18137E+07         0.00000E+00
    0.18137E+07         0.24617E+07         0.00000E+00
    0.00000E+00         0.00000E+00         0.00000E+00
 
   -0.73290E+06         0.18600E+07         0.00000E+00
    0.18600E+07         0.24459E+07         0.00000E+00
    0.00000E+00         0.00000E+00         0.00000E+00
 
   -0.68919E+06         0.19058E+07         0.00000E+00
    0.19058E+07         0.24298E+07         0.00000E+00
    0.00000E+00         0.00000E+00         0.00000E+00
 
   -0.64545E+06         0.19514E+07         0.00000E+00
    0.19514E+07         0.24133E+07         0.00000E+00
    0.00000E+00         0.00000E+00         0.00000E+00
 
   -0.60166E+06         0.19966E+07         0.00000E+00
    0.19966E+07         0.23964E+07         0.00000E+00
    0.00000E+00         0.00000E+00         0.00000E+00
 
   -0.55781E+06         0.20415E+07         0.00000E+00
    0.20415E+07         0.23791E+07         0.00000E+00
    0.00000E+00         0.00000E+00         0.00000E+00
 
   -0.51390E+06         0.20860E+07         0.00000E+00
    0.20860E+07         0.23615E+07         0.00000E+00
    0.00000E+00         0.00000E+00         0.00000E+00
 
   -0.46992E+06         0.21303E+07         0.00000E+00
    0.21303E+07         0.23434E+07         0.00000E+00
    0.00000E+00         0.00000E+00         0.00000E+00
 
   -0.42584E+06         0.21743E+07         0.00000E+00
    0.21743E+07         0.23250E+07         0.00000E+00
    0.00000E+00         0.00000E+00         0.00000E+00
 
   -0.38166E+06         0.22179E+07         0.00000E+00
    0.22179E+07         0.23061E+07         0.00000E+00
    0.00000E+00         0.00000E+00         0.00000E+00
 
   -0.33737E+06         0.22613E+07         0.00000E+00
    0.22613E+07         0.22868E+07         0.00000E+00
    0.00000E+00         0.00000E+00         0.00000E+00
 
   -0.29295E+06         0.23044E+07         0.00000E+00
    0.23044E+07         0.22671E+07         0.00000E+00
    0.00000E+00         0.00000E+00         0.00000E+00
 
   -0.24838E+06         0.23473E+07         0.00000E+00
    0.23473E+07         0.22470E+07         0.00000E+00
    0.00000E+00         0.00000E+00         0.00000E+00
 
   -0.20365E+06         0.23899E+07         0.00000E+00
    0.23899E+07         0.22264E+07         0.00000E+00
    0.00000E+00         0.00000E+00         0.00000E+00
 
   -0.15875E+06         0.24322E+07         0.00000E+00
    0.24322E+07         0.22054E+07         0.00000E+00
    0.00000E+00         0.00000E+00         0.00000E+00
 
   -0.11365E+06         0.24743E+07         0.00000E+00
    0.24743E+07         0.21840E+07         0.00000E+00
    0.00000E+00         0.00000E+00         0.00000E+00
 
   -0.68351E+05         0.25161E+07         0.00000E+00
    0.25161E+07         0.21621E+07         0.00000E+00
    0.00000E+00         0.00000E+00         0.00000E+00
 
   -0.22823E+05         0.25577E+07         0.00000E+00
    0.25577E+07         0.21397E+07         0.00000E+00
    0.00000E+00         0.00000E+00         0.00000E+00
 
   -0.20094E+07         0.33585E+05         0.00000E+00
    0.33585E+05         0.25502E+07         0.00000E+00
    0.00000E+00         0.00000E+00         0.00000E+00
 
   -0.19751E+07         0.98337E+05         0.00000E+00
    0.98337E+05         0.25494E+07         0.00000E+00
    0.00000E+00         0.00000E+00         0.00000E+00
 
   -0.19402E+07         0.16222E+06         0.00000E+00
    0.16222E+06         0.25478E+07         0.00000E+00
    0.00000E+00         0.00000E+00         0.00000E+00
 
   -0.19047E+07         0.22524E+06         0.00000E+00
    0.22524E+06         0.25455E+07         0.00000E+00
    0.00000E+00         0.00000E+00         0.00000E+00
 
   -0.18686E+07         0.28742E+06         0.00000E+00
    0.28742E+06         0.25426E+07         0.00000E+00
    0.00000E+00         0.00000E+00         0.00000E+00
 
   -0.18321E+07         0.34876E+06         0.00000E+00
    0.34876E+06         0.25389E+07         0.00000E+00
    0.00000E+00         0.00000E+00         0.00000E+00
 
   -0.17951E+07         0.40928E+06         0.00000E+00
    0.40928E+06         0.25347E+07         0.00000E+00
    0.00000E+00         0.00000E+00         0.00000E+00
 
   -0.17576E+07         0.46898E+06         0.00000E+00
    0.46898E+06         0.25298E+07         0.00000E+00
    0.00000E+00         0.00000E+00         0.00000E+00
 
   -0.17198E+07         0.52789E+06         0.00000E+00
    0.52789E+06         0.25243E+07         0.00000E+00
    0.00000E+00         0.00000E+00         0.00000E+00
 
   -0.16816E+07         0.58602E+06         0.00000E+00
    0.58602E+06         0.25183E+07         0.00000E+00
    0.00000E+00         0.00000E+00         0.00000E+00
 
   -0.16430E+07         0.64338E+06         0.00000E+00
    0.64338E+06         0.25117E+07         0.00000E+00
    0.00000E+00         0.00000E+00         0.00000E+00
 
   -0.16042E+07         0.69999E+06         0.00000E+00
    0.69999E+06         0.25046E+07         0.00000E+00
    0.00000E+00         0.00000E+00         0.00000E+00
 
   -0.15650E+07         0.75587E+06         0.00000E+00
    0.75587E+06         0.24970E+07         0.00000E+00
    0.00000E+00         0.00000E+00         0.00000E+00
 
   -0.15257E+07         0.81102E+06         0.00000E+00
    0.81102E+06         0.24888E+07         0.00000E+00
    0.00000E+00         0.00000E+00         0.00000E+00
 
   -0.14860E+07         0.86548E+06         0.00000E+00
    0.86548E+06         0.24803E+07         0.00000E+00
    0.00000E+00         0.00000E+00         0.00000E+00
 
   -0.14462E+07         0.91925E+06         0.00000E+00
    0.91925E+06         0.24712E+07         0.00000E+00
    0.00000E+00         0.00000E+00         0.00000E+00
 
   -0.14062E+07         0.97235E+06         0.00000E+00
    0.97235E+06         0.24617E+07         0.00000E+00
    0.00000E+00         0.00000E+00         0.00000E+00
 
   -0.13660E+07         0.10248E+07         0.00000E+00
    0.10248E+07         0.24518E+07         0.00000E+00
    0.00000E+00         0.00000E+00         0.00000E+00
 
   -0.13256E+07         0.10766E+07         0.00000E+00
    0.10766E+07         0.24415E+07         0.00000E+00
    0.00000E+00         0.00000E+00         0.00000E+00
 
   -0.12851E+07         0.11278E+07         0.00000E+00
    0.11278E+07         0.24308E+07         0.00000E+00
    0.00000E+00         0.00000E+00         0.00000E+00
 
   -0.12445E+07         0.11784E+07         0.00000E+00
    0.11784E+07         0.24196E+07         0.00000E+00
    0.00000E+00         0.00000E+00         0.00000E+00
 
   -0.12037E+07         0.12284E+07         0.00000E+00
    0.12284E+07         0.24081E+07         0.00000E+00
    0.00000E+00         0.00000E+00         0.00000E+00
 
   -0.11628E+07         0.12779E+07         0.00000E+00
    0.12779E+07         0.23962E+07         0.00000E+00
    0.00000E+00         0.00000E+00         0.00000E+00
 
   -0.11219E+07         0.13267E+07         0.00000E+00
    0.13267E+07         0.23839E+07         0.00000E+00
    0.00000E+00         0.00000E+00         0.00000E+00
 
   -0.10808E+07         0.13751E+07         0.00000E+00
    0.13751E+07         0.23713E+07         0.00000E+00
    0.00000E+00         0.00000E+00         0.00000E+00
 
   -0.10396E+07         0.14229E+07         0.00000E+00
    0.14229E+07         0.23583E+07         0.00000E+00
    0.00000E+00         0.00000E+00         0.00000E+00
 
   -0.99841E+06         0.14702E+07         0.00000E+00
    0.14702E+07         0.23449E+07         0.00000E+00
    0.00000E+00         0.00000E+00         0.00000E+00
 
   -0.95709E+06         0.15171E+07         0.00000E+00
    0.15171E+07         0.23312E+07         0.00000E+00
    0.00000E+00         0.00000E+00         0.00000E+00
 
   -0.91569E+06         0.15634E+07         0.00000E+00
    0.15634E+07         0.23171E+07         0.00000E+00
    0.00000E+00         0.00000E+00         0.00000E+00
 
   -0.87422E+06         0.16093E+07         0.00000E+00
    0.16093E+07         0.23027E+07         0.00000E+00
    0.00000E+00         0.00000E+00         0.00000E+00
 
   -0.83267E+06         0.16547E+07         0.00000E+00
    0.16547E+07         0.22879E+07         0.00000E+00
    0.00000E+00         0.00000E+00         0.00000E+00
 
   -0.79104E+06         0.16997E+07         0.00000E+00
    0.16997E+07         0.22728E+07         0.00000E+00
    0.00000E+00         0.00000E+00         0.00000E+00
 
   -0.74933E+06         0.17443E+07         0.00000E+00
    0.17443E+07         0.22574E+07         0.00000E+00
    0.00000E+00         0.00000E+00         0.00000E+00
 
   -0.70754E+06         0.17885E+07         0.00000E+00
    0.17885E+07         0.22415E+07         0.00000E+00
    0.00000E+00         0.00000E+00         0.00000E+00
 
   -0.66567E+06         0.18322E+07         0.00000E+00
    0.18322E+07         0.22254E+07         0.00000E+00
    0.00000E+00         0.00000E+00         0.00000E+00
 
   -0.62370E+06         0.18756E+07         0.00000E+00
    0.18756E+07         0.22089E+07         0.00000E+00
    0.00000E+00         0.00000E+00         0.00000E+00
 
   -0.58164E+06         0.19186E+07         0.00000E+00
    0.19186E+07         0.21920E+07         0.00000E+00
    0.00000E+00         0.00000E+00         0.00000E+00
 
   -0.53947E+06         0.19612E+07         0.00000E+00
    0.19612E+07         0.21748E+07         0.00000E+00
    0.00000E+00         0.00000E+00         0.00000E+00
 
   -0.49720E+06         0.20035E+07         0.00000E+00
    0.20035E+07         0.21573E+07         0.00000E+00
    0.00000E+00         0.00000E+00         0.00000E+00
 
   -0.45480E+06         0.20454E+07         0.00000E+00
    0.20454E+07         0.21394E+07         0.00000E+00
    0.00000E+00         0.00000E+00         0.00000E+00
 
   -0.41228E+06         0.20869E+07         0.00000E+00
    0.20869E+07         0.21211E+07         0.00000E+00
    0.00000E+00         0.00000E+00         0.00000E+00
 
   -0.36962E+06         0.21282E+07         0.00000E+00
    0.21282E+07         0.21024E+07         0.00000E+00
    0.00000E+00         0.00000E+00         0.00000E+00
 
   -0.32682E+06         0.21690E+07         0.00000E+00
    0.21690E+07         0.20834E+07         0.00000E+00
    0.00000E+00         0.00000E+00         0.00000E+00
 
   -0.28386E+06         0.22096E+07         0.00000E+00
    0.22096E+07         0.20640E+07         0.00000E+00
    0.00000E+00         0.00000E+00         0.00000E+00
 
   -0.24073E+06         0.22499E+07         0.00000E+00
    0.22499E+07         0.20442E+07         0.00000E+00
    0.00000E+00         0.00000E+00         0.00000E+00
 
   -0.19742E+06         0.22898E+07         0.00000E+00
    0.22898E+07         0.20240E+07         0.00000E+00
    0.00000E+00         0.00000E+00         0.00000E+00
 
   -0.15392E+06         0.23294E+07         0.00000E+00
    0.23294E+07         0.20035E+07         0.00000E+00
    0.00000E+00         0.00000E+00         0.00000E+00
 
   -0.11022E+06         0.23687E+07         0.00000E+00
    0.23687E+07         0.19825E+07         0.00000E+00
    0.00000E+00         0.00000E+00         0.00000E+00
 
   -0.66293E+05         0.24077E+07         0.00000E+00
    0.24077E+07         0.19612E+07         0.00000E+00
    0.00000E+00         0.00000E+00         0.00000E+00
 
   -0.22137E+05         0.24464E+07         0.00000E+00
    0.24464E+07         0.19394E+07         0.00000E+00
    0.00000E+00         0.00000E+00         0.00000E+00
 
   -0.18794E+07         0.31965E+05         0.00000E+00
    0.31965E+05         0.23616E+07         0.00000E+00
    0.00000E+00         0.00000E+00         0.00000E+00
 
   -0.18492E+07         0.93776E+05         0.00000E+00
    0.93776E+05         0.23608E+07         0.00000E+00
    0.00000E+00         0.00000E+00         0.00000E+00
 
   -0.18184E+07         0.15482E+06         0.00000E+00
    0.15482E+06         0.23593E+07         0.00000E+00
    0.00000E+00         0.00000E+00         0.00000E+00
 
   -0.17869E+07         0.21510E+06         0.00000E+00
    0.21510E+06         0.23571E+07         0.00000E+00
    0.00000E+00         0.00000E+00         0.00000E+00
 
   -0.17548E+07         0.27463E+06         0.00000E+00
    0.27463E+06         0.23542E+07         0.00000E+00
    0.00000E+00         0.00000E+00         0.00000E+00
 
   -0.17221E+07         0.33341E+06         0.00000E+00
    0.33341E+06         0.23506E+07         0.00000E+00
    0.00000E+00         0.00000E+00         0.00000E+00
 
   -0.16889E+07         0.39144E+06         0.00000E+00
    0.39144E+06         0.23464E+07         0.00000E+00
    0.00000E+00         0.00000E+00         0.00000E+00
 
   -0.16552E+07         0.44874E+06         0.00000E+00
    0.44874E+06         0.23416E+07         0.00000E+00
    0.00000E+00         0.00000E+00         0.00000E+00
 
   -0.16211E+07         0.50532E+06         0.00000E+00
    0.50532E+06         0.23362E+07         0.00000E+00
    0.00000E+00         0.00000E+00         0.00000E+00
 
   -0.15865E+07         0.56118E+06         0.00000E+00
    0.56118E+06         0.23302E+07         0.00000E+00
    0.00000E+00         0.00000E+00         0.00000E+00
 
   -0.15516E+07         0.61633E+06         0.00000E+00
    0.61633E+06         0.23237E+07         0.00000E+00
    0.00000E+00         0.00000E+00         0.00000E+00
 
   -0.15162E+07         0.67079E+06         0.00000E+00
    0.67079E+06         0.23167E+07         0.00000E+00
    0.00000E+00         0.00000E+00         0.00000E+00
 
   -0.14805E+07         0.72456E+06         0.00000E+00
    0.72456E+06         0.23092E+07         0.00000E+00
    0.00000E+00         0.00000E+00         0.00000E+00
 
   -0.14445E+07         0.77766E+06         0.00000E+00
    0.77766E+06         0.23011E+07         0.00000E+00
    0.00000E+00         0.00000E+00         0.00000E+00
 
   -0.14081E+07         0.83010E+06         0.00000E+00
    0.83010E+06         0.22926E+07         0.00000E+00
    0.00000E+00         0.00000E+00         0.00000E+00
 
   -0.13715E+07         0.88189E+06         0.00000E+00
    0.88189E+06         0.22836E+07         0.00000E+00
    0.00000E+00         0.00000E+00         0.00000E+00
 
   -0.13346E+07         0.93304E+06         0.00000E+00
    0.93304E+06         0.22742E+07         0.00000E+00
    0.00000E+00         0.00000E+00         0.00000E+00
 
   -0.12975E+07         0.98357E+06         0.00000E+00
    0.98357E+06         0.22644E+07         0.00000E+00
    0.00000E+00         0.00000E+00         0.00000E+00
 
   -0.12601E+07         0.10335E+07         0.00000E+00
    0.10335E+07         0.22541E+07         0.00000E+00
    0.00000E+00         0.00000E+00         0.00000E+00
 
   -0.12225E+07         0.10828E+07         0.00000E+00
    0.10828E+07         0.22434E+07         0.00000E+00
    0.00000E+00         0.00000E+00         0.00000E+00
 
   -0.11847E+07         0.11315E+07         0.00000E+00
    0.11315E+07         0.22324E+07         0.00000E+00
    0.00000E+00         0.00000E+00         0.00000E+00
 
   -0.11467E+07         0.11797E+07         0.00000E+00
    0.11797E+07         0.22209E+07         0.00000E+00
    0.00000E+00         0.00000E+00         0.00000E+00
 
   -0.11086E+07         0.12273E+07         0.00000E+00
    0.12273E+07         0.22091E+07         0.00000E+00
    0.00000E+00         0.00000E+00         0.00000E+00
 
   -0.10702E+07         0.12743E+07         0.00000E+00
    0.12743E+07         0.21968E+07         0.00000E+00
    0.00000E+00         0.00000E+00         0.00000E+00
 
   -0.10317E+07         0.13208E+07         0.00000E+00
    0.13208E+07         0.21843E+07         0.00000E+00
    0.00000E+00         0.00000E+00         0.00000E+00
 
   -0.99305E+06         0.13668E+07         0.00000E+00
    0.13668E+07         0.21713E+07         0.00000E+00
    0.00000E+00         0.00000E+00         0.00000E+00
 
   -0.95424E+06         0.14123E+07         0.00000E+00
    0.14123E+07         0.21581E+07         0.00000E+00
    0.00000E+00         0.00000E+00         0.00000E+00
 
   -0.91529E+06         0.14572E+07         0.00000E+00
    0.14572E+07         0.21444E+07         0.00000E+00
    0.00000E+00         0.00000E+00         0.00000E+00
 
   -0.87620E+06         0.15017E+07         0.00000E+00
    0.15017E+07         0.21305E+07         0.00000E+00
    0.00000E+00         0.00000E+00         0.00000E+00
 
   -0.83697E+06         0.15457E+07         0.00000E+00
    0.15457E+07         0.21161E+07         0.00000E+00
    0.00000E+00         0.00000E+00         0.00000E+00
 
   -0.79761E+06         0.15892E+07         0.00000E+00
    0.15892E+07         0.21015E+07         0.00000E+00
    0.00000E+00         0.00000E+00         0.00000E+00
 
   -0.75812E+06         0.16323E+07         0.00000E+00
    0.16323E+07         0.20865E+07         0.00000E+00
    0.00000E+00         0.00000E+00         0.00000E+00
 
   -0.71849E+06         0.16749E+07         0.00000E+00
    0.16749E+07         0.20712E+07         0.00000E+00
    0.00000E+00         0.00000E+00         0.00000E+00
 
   -0.67874E+06         0.17171E+07         0.00000E+00
    0.17171E+07         0.20556E+07         0.00000E+00
    0.00000E+00         0.00000E+00         0.00000E+00
 
   -0.63885E+06         0.17589E+07         0.00000E+00
    0.17589E+07         0.20396E+07         0.00000E+00
    0.00000E+00         0.00000E+00         0.00000E+00
 
   -0.59883E+06         0.18002E+07         0.00000E+00
    0.18002E+07         0.20234E+07         0.00000E+00
    0.00000E+00         0.00000E+00         0.00000E+00
 
   -0.55866E+06         0.18411E+07         0.00000E+00
    0.18411E+07         0.20067E+07         0.00000E+00
    0.00000E+00         0.00000E+00         0.00000E+00
 
   -0.51836E+06         0.18816E+07         0.00000E+00
    0.18816E+07         0.19898E+07         0.00000E+00
    0.00000E+00         0.00000E+00         0.00000E+00
 
   -0.47791E+06         0.19218E+07         0.00000E+00
    0.19218E+07         0.19726E+07         0.00000E+00
    0.00000E+00         0.00000E+00         0.00000E+00
 
   -0.43730E+06         0.19615E+07         0.00000E+00
    0.19615E+07         0.19550E+07         0.00000E+00
    0.00000E+00         0.00000E+00         0.00000E+00
 
   -0.39654E+06         0.20009E+07         0.00000E+00
    0.20009E+07         0.19370E+07         0.00000E+00
    0.00000E+00         0.00000E+00         0.00000E+00
 
   -0.35562E+06         0.20398E+07         0.00000E+00
    0.20398E+07         0.19188E+07         0.00000E+00
    0.00000E+00         0.00000E+00         0.00000E+00
 
   -0.31452E+06         0.20785E+07         0.00000E+00
    0.20785E+07         0.19002E+07         0.00000E+00
    0.00000E+00         0.00000E+00         0.00000E+00
 
   -0.27324E+06         0.21167E+07         0.00000E+00
    0.21167E+07         0.18813E+07         0.00000E+00
    0.00000E+00         0.00000E+00         0.00000E+00
 
   -0.23178E+06         0.21546E+07         0.00000E+00
    0.21546E+07         0.18620E+07         0.00000E+00
    0.00000E+00         0.00000E+00         0.00000E+00
 
   -0.19012E+06         0.21921E+07         0.00000E+00
    0.21921E+07         0.18424E+07         0.00000E+00
    0.00000E+00         0.00000E+00         0.00000E+00
 
   -0.14826E+06         0.22293E+07         0.00000E+00
    0.22293E+07         0.18224E+07         0.00000E+00
    0.00000E+00         0.00000E+00         0.00000E+00
 
   -0.10618E+06         0.22661E+07         0.00000E+00
    0.22661E+07         0.18021E+07         0.00000E+00
    0.00000E+00         0.00000E+00         0.00000E+00
 
   -0.63872E+05         0.23026E+07         0.00000E+00
    0.23026E+07         0.17815E+07         0.00000E+00
    0.00000E+00         0.00000E+00         0.00000E+00
 
   -0.21331E+05         0.23387E+07         0.00000E+00
    0.23387E+07         0.17604E+07         0.00000E+00
    0.00000E+00         0.00000E+00         0.00000E+00
 
   -0.17523E+07         0.30388E+05         0.00000E+00
    0.30388E+05         0.21851E+07         0.00000E+00
    0.00000E+00         0.00000E+00         0.00000E+00
 
   -0.17257E+07         0.89313E+05         0.00000E+00
    0.89313E+05         0.21844E+07         0.00000E+00
    0.00000E+00         0.00000E+00         0.00000E+00
 
   -0.16984E+07         0.14756E+06         0.00000E+00
    0.14756E+06         0.21829E+07         0.00000E+00
    0.00000E+00         0.00000E+00         0.00000E+00
 
   -0.16704E+07         0.20514E+06         0.00000E+00
    0.20514E+06         0.21807E+07         0.00000E+00
    0.00000E+00         0.00000E+00         0.00000E+00
 
   -0.16418E+07         0.26204E+06         0.00000E+00
    0.26204E+06         0.21779E+07         0.00000E+00
    0.00000E+00         0.00000E+00         0.00000E+00
 
   -0.16127E+07         0.31827E+06         0.00000E+00
    0.31827E+06         0.21745E+07         0.00000E+00
    0.00000E+00         0.00000E+00         0.00000E+00
 
   -0.15829E+07         0.37384E+06         0.00000E+00
    0.37384E+06         0.21704E+07         0.00000E+00
    0.00000E+00         0.00000E+00         0.00000E+00
 
   -0.15527E+07         0.42874E+06         0.00000E+00
    0.42874E+06         0.21657E+07         0.00000E+00
    0.00000E+00         0.00000E+00         0.00000E+00
 
   -0.15219E+07         0.48298E+06         0.00000E+00
    0.48298E+06         0.21605E+07         0.00000E+00
    0.00000E+00         0.00000E+00         0.00000E+00
 
   -0.14906E+07         0.53657E+06         0.00000E+00
    0.53657E+06         0.21547E+07         0.00000E+00
    0.00000E+00         0.00000E+00         0.00000E+00
 
   -0.14590E+07         0.58950E+06         0.00000E+00
    0.58950E+06         0.21483E+07         0.00000E+00
    0.00000E+00         0.00000E+00         0.00000E+00
 
   -0.14268E+07         0.64180E+06         0.00000E+00
    0.64180E+06         0.21415E+07         0.00000E+00
    0.00000E+00         0.00000E+00         0.00000E+00
 
   -0.13943E+07         0.69346E+06         0.00000E+00
    0.69346E+06         0.21341E+07         0.00000E+00
    0.00000E+00         0.00000E+00         0.00000E+00
 
   -0.13614E+07         0.74450E+06         0.00000E+00
    0.74450E+06         0.21263E+07         0.00000E+00
    0.00000E+00         0.00000E+00         0.00000E+00
 
   -0.13282E+07         0.79492E+06         0.00000E+00
    0.79492E+06         0.21179E+07         0.00000E+00
    0.00000E+00         0.00000E+00         0.00000E+00
 
   -0.12946E+07         0.84472E+06         0.00000E+00
    0.84472E+06         0.21092E+07         0.00000E+00
    0.00000E+00         0.00000E+00         0.00000E+00
 
   -0.12607E+07         0.89392E+06         0.00000E+00
    0.89392E+06         0.21000E+07         0.00000E+00
    0.00000E+00         0.00000E+00         0.00000E+00
 
   -0.12264E+07         0.94253E+06         0.00000E+00
    0.94253E+06         0.20903E+07         0.00000E+00
    0.00000E+00         0.00000E+00         0.00000E+00
 
   -0.11919E+07         0.99055E+06         0.00000E+00
    0.99055E+06         0.20802E+07         0.00000E+00
    0.00000E+00         0.00000E+00         0.00000E+00
 
   -0.11571E+07         0.10380E+07         0.00000E+00
    0.10380E+07         0.20698E+07         0.00000E+00
    0.00000E+00         0.00000E+00         0.00000E+00
 
   -0.11221E+07         0.10849E+07         0.00000E+00
    0.10849E+07         0.20589E+07         0.00000E+00
    0.00000E+00         0.00000E+00         0.00000E+00
 
   -0.10868E+07         0.11312E+07         0.00000E+00
    0.11312E+07         0.20477E+07         0.00000E+00
    0.00000E+00         0.00000E+00         0.00000E+00
 
   -0.10513E+07         0.11770E+07         0.00000E+00
    0.11770E+07         0.20361E+07         0.00000E+00
    0.00000E+00         0.00000E+00         0.00000E+00
 
   -0.10155E+07         0.12222E+07         0.00000E+00
    0.12222E+07         0.20241E+07         0.00000E+00
    0.00000E+00         0.00000E+00         0.00000E+00
 
   -0.97957E+06         0.12669E+07         0.00000E+00
    0.12669E+07         0.20117E+07         0.00000E+00
    0.00000E+00         0.00000E+00         0.00000E+00
 
   -0.94340E+06         0.13111E+07         0.00000E+00
    0.13111E+07         0.19991E+07         0.00000E+00
    0.00000E+00         0.00000E+00         0.00000E+00
 
   -0.90703E+06         0.13547E+07         0.00000E+00
    0.13547E+07         0.19860E+07         0.00000E+00
    0.00000E+00         0.00000E+00         0.00000E+00
 
   -0.87047E+06         0.13979E+07         0.00000E+00
    0.13979E+07         0.19727E+07         0.00000E+00
    0.00000E+00         0.00000E+00         0.00000E+00
 
   -0.83373E+06         0.14405E+07         0.00000E+00
    0.14405E+07         0.19590E+07         0.00000E+00
    0.00000E+00         0.00000E+00         0.00000E+00
 
   -0.79680E+06         0.14827E+07         0.00000E+00
    0.14827E+07         0.19449E+07         0.00000E+00
    0.00000E+00         0.00000E+00         0.00000E+00
 
   -0.75969E+06         0.15244E+07         0.00000E+00
    0.15244E+07         0.19306E+07         0.00000E+00
    0.00000E+00         0.00000E+00         0.00000E+00
 
   -0.72241E+06         0.15657E+07         0.00000E+00
    0.15657E+07         0.19160E+07         0.00000E+00
    0.00000E+00         0.00000E+00         0.00000E+00
 
   -0.68496E+06         0.16064E+07         0.00000E+00
    0.16064E+07         0.19010E+07         0.00000E+00
    0.00000E+00         0.00000E+00         0.00000E+00
 
   -0.64733E+06         0.16468E+07         0.00000E+00
    0.16468E+07         0.18857E+07         0.00000E+00
    0.00000E+00         0.00000E+00         0.00000E+00
 
   -0.60953E+06         0.16866E+07         0.00000E+00
    0.16866E+07         0.18701E+07         0.00000E+00
    0.00000E+00         0.00000E+00         0.00000E+00
 
   -0.57157E+06         0.17261E+07         0.00000E+00
    0.17261E+07         0.18542E+07         0.00000E+00
    0.00000E+00         0.00000E+00         0.00000E+00
 
   -0.53343E+06         0.17651E+07         0.00000E+00
    0.17651E+07         0.18380E+07         0.00000E+00
    0.00000E+00         0.00000E+00         0.00000E+00
 
   -0.49512E+06         0.18036E+07         0.00000E+00
    0.18036E+07         0.18215E+07         0.00000E+00
    0.00000E+00         0.00000E+00         0.00000E+00
 
   -0.45663E+06         0.18418E+07         0.00000E+00
    0.18418E+07         0.18047E+07         0.00000E+00
    0.00000E+00         0.00000E+00         0.00000E+00
 
   -0.41796E+06         0.18795E+07         0.00000E+00
    0.18795E+07         0.17876E+07         0.00000E+00
    0.00000E+00         0.00000E+00         0.00000E+00
 
   -0.37912E+06         0.19169E+07         0.00000E+00
    0.19169E+07         0.17702E+07         0.00000E+00
    0.00000E+00         0.00000E+00         0.00000E+00
 
   -0.34008E+06         0.19538E+07         0.00000E+00
    0.19538E+07         0.17525E+07         0.00000E+00
    0.00000E+00         0.00000E+00         0.00000E+00
 
   -0.30086E+06         0.19903E+07         0.00000E+00
    0.19903E+07         0.17345E+07         0.00000E+00
    0.00000E+00         0.00000E+00         0.00000E+00
 
   -0.26143E+06         0.20265E+07         0.00000E+00
    0.20265E+07         0.17162E+07         0.00000E+00
    0.00000E+00         0.00000E+00         0.00000E+00
 
   -0.22181E+06         0.20622E+07         0.00000E+00
    0.20622E+07         0.16976E+07         0.00000E+00
    0.00000E+00         0.00000E+00         0.00000E+00
 
   -0.18198E+06         0.20976E+07         0.00000E+00
    0.20976E+07         0.16787E+07         0.00000E+00
    0.00000E+00         0.00000E+00         0.00000E+00
 
   -0.14193E+06         0.21326E+07         0.00000E+00
    0.21326E+07         0.16594E+07         0.00000E+00
    0.00000E+00         0.00000E+00         0.00000E+00
 
   -0.10166E+06         0.21671E+07         0.00000E+00
    0.21671E+07         0.16399E+07         0.00000E+00
    0.00000E+00         0.00000E+00         0.00000E+00
 
   -0.61165E+05         0.22014E+07         0.00000E+00
    0.22014E+07         0.16200E+07         0.00000E+00
    0.00000E+00         0.00000E+00         0.00000E+00
 
   -0.20429E+05         0.22352E+07         0.00000E+00
    0.22352E+07         0.15999E+07         0.00000E+00
    0.00000E+00         0.00000E+00         0.00000E+00
 
   -0.16287E+07         0.28874E+05         0.00000E+00
    0.28874E+05         0.20195E+07         0.00000E+00
    0.00000E+00         0.00000E+00         0.00000E+00
 
   -0.16053E+07         0.85003E+05         0.00000E+00
    0.85003E+05         0.20187E+07         0.00000E+00
    0.00000E+00         0.00000E+00         0.00000E+00
 
   -0.15811E+07         0.14054E+06         0.00000E+00
    0.14054E+06         0.20174E+07         0.00000E+00
    0.00000E+00         0.00000E+00         0.00000E+00
 
   -0.15563E+07         0.19548E+06         0.00000E+00
    0.19548E+06         0.20153E+07         0.00000E+00
    0.00000E+00         0.00000E+00         0.00000E+00
 
   -0.15308E+07         0.24982E+06         0.00000E+00
    0.24982E+06         0.20126E+07         0.00000E+00
    0.00000E+00         0.00000E+00         0.00000E+00
 
   -0.15048E+07         0.30356E+06         0.00000E+00
    0.30356E+06         0.20093E+07         0.00000E+00
    0.00000E+00         0.00000E+00         0.00000E+00
 
   -0.14782E+07         0.35670E+06         0.00000E+00
    0.35670E+06         0.20054E+07         0.00000E+00
    0.00000E+00         0.00000E+00         0.00000E+00
 
   -0.14510E+07         0.40924E+06         0.00000E+00
    0.40924E+06         0.20009E+07         0.00000E+00
    0.00000E+00         0.00000E+00         0.00000E+00
 
   -0.14233E+07         0.46119E+06         0.00000E+00
    0.46119E+06         0.19959E+07         0.00000E+00
    0.00000E+00         0.00000E+00         0.00000E+00
 
   -0.13951E+07         0.51253E+06         0.00000E+00
    0.51253E+06         0.19903E+07         0.00000E+00
    0.00000E+00         0.00000E+00         0.00000E+00
 
   -0.13664E+07         0.56329E+06         0.00000E+00
    0.56329E+06         0.19842E+07         0.00000E+00
    0.00000E+00         0.00000E+00         0.00000E+00
 
   -0.13372E+07         0.61345E+06         0.00000E+00
    0.61345E+06         0.19775E+07         0.00000E+00
    0.00000E+00         0.00000E+00         0.00000E+00
 
   -0.13077E+07         0.66303E+06         0.00000E+00
    0.66303E+06         0.19704E+07         0.00000E+00
    0.00000E+00         0.00000E+00         0.00000E+00
 
   -0.12777E+07         0.71202E+06         0.00000E+00
    0.71202E+06         0.19629E+07         0.00000E+00
    0.00000E+00         0.00000E+00         0.00000E+00
 
   -0.12473E+07         0.76043E+06         0.00000E+00
    0.76043E+06         0.19548E+07         0.00000E+00
    0.00000E+00         0.00000E+00         0.00000E+00
 
   -0.12165E+07         0.80828E+06         0.00000E+00
    0.80828E+06         0.19463E+07         0.00000E+00
    0.00000E+00         0.00000E+00         0.00000E+00
 
   -0.11854E+07         0.85555E+06         0.00000E+00
    0.85555E+06         0.19374E+07         0.00000E+00
    0.00000E+00         0.00000E+00         0.00000E+00
 
   -0.11540E+07         0.90226E+06         0.00000E+00
    0.90226E+06         0.19281E+07         0.00000E+00
    0.00000E+00         0.00000E+00         0.00000E+00
 
   -0.11222E+07         0.94841E+06         0.00000E+00
    0.94841E+06         0.19183E+07         0.00000E+00
    0.00000E+00         0.00000E+00         0.00000E+00
 
   -0.10901E+07         0.99401E+06         0.00000E+00
    0.99401E+06         0.19082E+07         0.00000E+00
    0.00000E+00         0.00000E+00         0.00000E+00
 
   -0.10577E+07         0.10391E+07         0.00000E+00
    0.10391E+07         0.18977E+07         0.00000E+00
    0.00000E+00         0.00000E+00         0.00000E+00
 
   -0.10250E+07         0.10836E+07         0.00000E+00
    0.10836E+07         0.18868E+07         0.00000E+00
    0.00000E+00         0.00000E+00         0.00000E+00
 
   -0.99209E+06         0.11276E+07         0.00000E+00
    0.11276E+07         0.18755E+07         0.00000E+00
    0.00000E+00         0.00000E+00         0.00000E+00
 
   -0.95887E+06         0.11710E+07         0.00000E+00
    0.11710E+07         0.18639E+07         0.00000E+00
    0.00000E+00         0.00000E+00         0.00000E+00
 
   -0.92541E+06         0.12140E+07         0.00000E+00
    0.12140E+07         0.18519E+07         0.00000E+00
    0.00000E+00         0.00000E+00         0.00000E+00
 
   -0.89170E+06         0.12564E+07         0.00000E+00
    0.12564E+07         0.18396E+07         0.00000E+00
    0.00000E+00         0.00000E+00         0.00000E+00
 
   -0.85775E+06         0.12983E+07         0.00000E+00
    0.12983E+07         0.18270E+07         0.00000E+00
    0.00000E+00         0.00000E+00         0.00000E+00
 
   -0.82357E+06         0.13397E+07         0.00000E+00
    0.13397E+07         0.18140E+07         0.00000E+00
    0.00000E+00         0.00000E+00         0.00000E+00
 
   -0.78918E+06         0.13807E+07         0.00000E+00
    0.13807E+07         0.18007E+07         0.00000E+00
    0.00000E+00         0.00000E+00         0.00000E+00
 
   -0.75456E+06         0.14211E+07         0.00000E+00
    0.14211E+07         0.17872E+07         0.00000E+00
    0.00000E+00         0.00000E+00         0.00000E+00
 
   -0.71974E+06         0.14611E+07         0.00000E+00
    0.14611E+07         0.17733E+07         0.00000E+00
    0.00000E+00         0.00000E+00         0.00000E+00
 
   -0.68470E+06         0.15006E+07         0.00000E+00
    0.15006E+07         0.17591E+07         0.00000E+00
    0.00000E+00         0.00000E+00         0.00000E+00
 
   -0.64947E+06         0.15396E+07         0.00000E+00
    0.15396E+07         0.17446E+07         0.00000E+00
    0.00000E+00         0.00000E+00         0.00000E+00
 
   -0.61403E+06         0.15782E+07         0.00000E+00
    0.15782E+07         0.17298E+07         0.00000E+00
    0.00000E+00         0.00000E+00         0.00000E+00
 
   -0.57839E+06         0.16163E+07         0.00000E+00
    0.16163E+07         0.17147E+07         0.00000E+00
    0.00000E+00         0.00000E+00         0.00000E+00
 
   -0.54256E+06         0.16539E+07         0.00000E+00
    0.16539E+07         0.16993E+07         0.00000E+00
    0.00000E+00         0.00000E+00         0.00000E+00
 
   -0.50653E+06         0.16911E+07         0.00000E+00
    0.16911E+07         0.16837E+07         0.00000E+00
    0.00000E+00         0.00000E+00         0.00000E+00
 
   -0.47030E+06         0.17279E+07         0.00000E+00
    0.17279E+07         0.16678E+07         0.00000E+00
    0.00000E+00         0.00000E+00         0.00000E+00
 
   -0.43387E+06         0.17642E+07         0.00000E+00
    0.17642E+07         0.16516E+07         0.00000E+00
    0.00000E+00         0.00000E+00         0.00000E+00
 
   -0.39725E+06         0.18001E+07         0.00000E+00
    0.18001E+07         0.16351E+07         0.00000E+00
    0.00000E+00         0.00000E+00         0.00000E+00
 
   -0.36042E+06         0.18356E+07         0.00000E+00
    0.18356E+07         0.16183E+07         0.00000E+00
    0.00000E+00         0.00000E+00         0.00000E+00
 
   -0.32339E+06         0.18707E+07         0.00000E+00
    0.18707E+07         0.16013E+07         0.00000E+00
    0.00000E+00         0.00000E+00         0.00000E+00
 
   -0.28616E+06         0.19053E+07         0.00000E+00
    0.19053E+07         0.15840E+07         0.00000E+00
    0.00000E+00         0.00000E+00         0.00000E+00
 
   -0.24872E+06         0.19395E+07         0.00000E+00
    0.19395E+07         0.15664E+07         0.00000E+00
    0.00000E+00         0.00000E+00         0.00000E+00
 
   -0.21107E+06         0.19733E+07         0.00000E+00
    0.19733E+07         0.15485E+07         0.00000E+00
    0.00000E+00         0.00000E+00         0.00000E+00
 
   -0.17320E+06         0.20067E+07         0.00000E+00
    0.20067E+07         0.15304E+07         0.00000E+00
    0.00000E+00         0.00000E+00         0.00000E+00
 
   -0.13511E+06         0.20397E+07         0.00000E+00
    0.20397E+07         0.15120E+07         0.00000E+00
    0.00000E+00         0.00000E+00         0.00000E+00
 
   -0.96788E+05         0.20723E+07         0.00000E+00
    0.20723E+07         0.14933E+07         0.00000E+00
    0.00000E+00         0.00000E+00         0.00000E+00
 
   -0.58239E+05         0.21044E+07         0.00000E+00
    0.21044E+07         0.14744E+07         0.00000E+00
    0.00000E+00         0.00000E+00         0.00000E+00
 
   -0.19453E+05         0.21362E+07         0.00000E+00
    0.21362E+07         0.14551E+07         0.00000E+00
    0.00000E+00         0.00000E+00         0.00000E+00
 
   -0.15093E+07         0.27433E+05         0.00000E+00
    0.27433E+05         0.18636E+07         0.00000E+00
    0.00000E+00         0.00000E+00         0.00000E+00
 
   -0.14886E+07         0.80885E+05         0.00000E+00
    0.80885E+05         0.18629E+07         0.00000E+00
    0.00000E+00         0.00000E+00         0.00000E+00
 
   -0.14672E+07         0.13381E+06         0.00000E+00
    0.13381E+06         0.18616E+07         0.00000E+00
    0.00000E+00         0.00000E+00         0.00000E+00
 
   -0.14452E+07         0.18622E+06         0.00000E+00
    0.18622E+06         0.18596E+07         0.00000E+00
    0.00000E+00         0.00000E+00         0.00000E+00
 
   -0.14225E+07         0.23809E+06         0.00000E+00
    0.23809E+06         0.18571E+07         0.00000E+00
    0.00000E+00         0.00000E+00         0.00000E+00
 
   -0.13992E+07         0.28942E+06         0.00000E+00
    0.28942E+06         0.18540E+07         0.00000E+00
    0.00000E+00         0.00000E+00         0.00000E+00
 
   -0.13754E+07         0.34021E+06         0.00000E+00
    0.34021E+06         0.18502E+07         0.00000E+00
    0.00000E+00         0.00000E+00         0.00000E+00
 
   -0.13510E+07         0.39047E+06         0.00000E+00
    0.39047E+06         0.18460E+07         0.00000E+00
    0.00000E+00         0.00000E+00         0.00000E+00
 
   -0.13261E+07         0.44018E+06         0.00000E+00
    0.44018E+06         0.18412E+07         0.00000E+00
    0.00000E+00         0.00000E+00         0.00000E+00
 
   -0.13006E+07         0.48935E+06         0.00000E+00
    0.48935E+06         0.18359E+07         0.00000E+00
    0.00000E+00         0.00000E+00         0.00000E+00
 
   -0.12747E+07         0.53797E+06         0.00000E+00
    0.53797E+06         0.18300E+07         0.00000E+00
    0.00000E+00         0.00000E+00         0.00000E+00
 
   -0.12483E+07         0.58605E+06         0.00000E+00
    0.58605E+06         0.18237E+07         0.00000E+00
    0.00000E+00         0.00000E+00         0.00000E+00
 
   -0.12214E+07         0.63359E+06         0.00000E+00
    0.63359E+06         0.18169E+07         0.00000E+00
    0.00000E+00         0.00000E+00         0.00000E+00
 
   -0.11942E+07         0.68059E+06         0.00000E+00
    0.68059E+06         0.18097E+07         0.00000E+00
    0.00000E+00         0.00000E+00         0.00000E+00
 
   -0.11665E+07         0.72705E+06         0.00000E+00
    0.72705E+06         0.18020E+07         0.00000E+00
    0.00000E+00         0.00000E+00         0.00000E+00
 
   -0.11384E+07         0.77298E+06         0.00000E+00
    0.77298E+06         0.17939E+07         0.00000E+00
    0.00000E+00         0.00000E+00         0.00000E+00
 
   -0.11099E+07         0.81837E+06         0.00000E+00
    0.81837E+06         0.17853E+07         0.00000E+00
    0.00000E+00         0.00000E+00         0.00000E+00
 
   -0.10810E+07         0.86323E+06         0.00000E+00
    0.86323E+06         0.17764E+07         0.00000E+00
    0.00000E+00         0.00000E+00         0.00000E+00
 
   -0.10518E+07         0.90756E+06         0.00000E+00
    0.90756E+06         0.17670E+07         0.00000E+00
    0.00000E+00         0.00000E+00         0.00000E+00
 
   -0.10223E+07         0.95137E+06         0.00000E+00
    0.95137E+06         0.17573E+07         0.00000E+00
    0.00000E+00         0.00000E+00         0.00000E+00
 
   -0.99247E+06         0.99465E+06         0.00000E+00
    0.99465E+06         0.17472E+07         0.00000E+00
    0.00000E+00         0.00000E+00         0.00000E+00
 
   -0.96230E+06         0.10374E+07         0.00000E+00
    0.10374E+07         0.17368E+07         0.00000E+00
    0.00000E+00         0.00000E+00         0.00000E+00
 
   -0.93184E+06         0.10797E+07         0.00000E+00
    0.10797E+07         0.17259E+07         0.00000E+00
    0.00000E+00         0.00000E+00         0.00000E+00
 
   -0.90108E+06         0.11214E+07         0.00000E+00
    0.11214E+07         0.17148E+07         0.00000E+00
    0.00000E+00         0.00000E+00         0.00000E+00
 
   -0.87005E+06         0.11627E+07         0.00000E+00
    0.11627E+07         0.17033E+07         0.00000E+00
    0.00000E+00         0.00000E+00         0.00000E+00
 
   -0.83874E+06         0.12034E+07         0.00000E+00
    0.12034E+07         0.16915E+07         0.00000E+00
    0.00000E+00         0.00000E+00         0.00000E+00
 
   -0.80718E+06         0.12437E+07         0.00000E+00
    0.12437E+07         0.16793E+07         0.00000E+00
    0.00000E+00         0.00000E+00         0.00000E+00
 
   -0.77536E+06         0.12834E+07         0.00000E+00
    0.12834E+07         0.16669E+07         0.00000E+00
    0.00000E+00         0.00000E+00         0.00000E+00
 
   -0.74329E+06         0.13227E+07         0.00000E+00
    0.13227E+07         0.16541E+07         0.00000E+00
    0.00000E+00         0.00000E+00         0.00000E+00
 
   -0.71098E+06         0.13615E+07         0.00000E+00
    0.13615E+07         0.16411E+07         0.00000E+00
    0.00000E+00         0.00000E+00         0.00000E+00
 
   -0.67843E+06         0.13998E+07         0.00000E+00
    0.13998E+07         0.16277E+07         0.00000E+00
    0.00000E+00         0.00000E+00         0.00000E+00
 
   -0.64566E+06         0.14376E+07         0.00000E+00
    0.14376E+07         0.16141E+07         0.00000E+00
    0.00000E+00         0.00000E+00         0.00000E+00
 
   -0.61266E+06         0.14750E+07         0.00000E+00
    0.14750E+07         0.16002E+07         0.00000E+00
    0.00000E+00         0.00000E+00         0.00000E+00
 
   -0.57943E+06         0.15119E+07         0.00000E+00
    0.15119E+07         0.15860E+07         0.00000E+00
    0.00000E+00         0.00000E+00         0.00000E+00
 
   -0.54599E+06         0.15484E+07         0.00000E+00
    0.15484E+07         0.15716E+07         0.00000E+00
    0.00000E+00         0.00000E+00         0.00000E+00
 
   -0.51233E+06         0.15844E+07         0.00000E+00
    0.15844E+07         0.15568E+07         0.00000E+00
    0.00000E+00         0.00000E+00         0.00000E+00
 
   -0.47845E+06         0.16199E+07         0.00000E+00
    0.16199E+07         0.15418E+07         0.00000E+00
    0.00000E+00         0.00000E+00         0.00000E+00
 
   -0.44436E+06         0.16550E+07         0.00000E+00
    0.16550E+07         0.15266E+07         0.00000E+00
    0.00000E+00         0.00000E+00         0.00000E+00
 
   -0.41006E+06         0.16896E+07         0.00000E+00
    0.16896E+07         0.15111E+07         0.00000E+00
    0.00000E+00         0.00000E+00         0.00000E+00
 
   -0.37554E+06         0.17238E+07         0.00000E+00
    0.17238E+07         0.14953E+07         0.00000E+00
    0.00000E+00         0.00000E+00         0.00000E+00
 
   -0.34081E+06         0.17576E+07         0.00000E+00
    0.17576E+07         0.14793E+07         0.00000E+00
    0.00000E+00         0.00000E+00         0.00000E+00
 
   -0.30587E+06         0.17909E+07         0.00000E+00
    0.17909E+07         0.14630E+07         0.00000E+00
    0.00000E+00         0.00000E+00         0.00000E+00
 
   -0.27072E+06         0.18238E+07         0.00000E+00
    0.18238E+07         0.14465E+07         0.00000E+00
    0.00000E+00         0.00000E+00         0.00000E+00
 
   -0.23534E+06         0.18563E+07         0.00000E+00
    0.18563E+07         0.14297E+07         0.00000E+00
    0.00000E+00         0.00000E+00         0.00000E+00
 
   -0.19975E+06         0.18883E+07         0.00000E+00
    0.18883E+07         0.14127E+07         0.00000E+00
    0.00000E+00         0.00000E+00         0.00000E+00
 
   -0.16394E+06         0.19199E+07         0.00000E+00
    0.19199E+07         0.13955E+07         0.00000E+00
    0.00000E+00         0.00000E+00         0.00000E+00
 
   -0.12791E+06         0.19511E+07         0.00000E+00
    0.19511E+07         0.13780E+07         0.00000E+00
    0.00000E+00         0.00000E+00         0.00000E+00
 
   -0.91644E+05         0.19819E+07         0.00000E+00
    0.19819E+07         0.13602E+07         0.00000E+00
    0.00000E+00         0.00000E+00         0.00000E+00
 
   -0.55151E+05         0.20122E+07         0.00000E+00
    0.20122E+07         0.13422E+07         0.00000E+00
    0.00000E+00         0.00000E+00         0.00000E+00
 
   -0.18423E+05         0.20422E+07         0.00000E+00
    0.20422E+07         0.13240E+07         0.00000E+00
    0.00000E+00         0.00000E+00         0.00000E+00
 
   -0.13942E+07         0.26075E+05         0.00000E+00
    0.26075E+05         0.17165E+07         0.00000E+00
    0.00000E+00         0.00000E+00         0.00000E+00
 
   -0.13760E+07         0.76988E+05         0.00000E+00
    0.76988E+05         0.17159E+07         0.00000E+00
    0.00000E+00         0.00000E+00         0.00000E+00
 
   -0.13570E+07         0.12744E+06         0.00000E+00
    0.12744E+06         0.17147E+07         0.00000E+00
    0.00000E+00         0.00000E+00         0.00000E+00
 
   -0.13375E+07         0.17742E+06         0.00000E+00
    0.17742E+06         0.17128E+07         0.00000E+00
    0.00000E+00         0.00000E+00         0.00000E+00
 
   -0.13173E+07         0.22693E+06         0.00000E+00
    0.22693E+06         0.17104E+07         0.00000E+00
    0.00000E+00         0.00000E+00         0.00000E+00
 
   -0.12965E+07         0.27596E+06         0.00000E+00
    0.27596E+06         0.17075E+07         0.00000E+00
    0.00000E+00         0.00000E+00         0.00000E+00
 
   -0.12752E+07         0.32451E+06         0.00000E+00
    0.32451E+06         0.17040E+07         0.00000E+00
    0.00000E+00         0.00000E+00         0.00000E+00
 
   -0.12533E+07         0.37257E+06         0.00000E+00
    0.37257E+06         0.17000E+07         0.00000E+00
    0.00000E+00         0.00000E+00         0.00000E+00
 
   -0.12309E+07         0.42013E+06         0.00000E+00
    0.42013E+06         0.16954E+07         0.00000E+00
    0.00000E+00         0.00000E+00         0.00000E+00
 
   -0.12080E+07         0.46720E+06         0.00000E+00
    0.46720E+06         0.16904E+07         0.00000E+00
    0.00000E+00         0.00000E+00         0.00000E+00
 
   -0.11845E+07         0.51378E+06         0.00000E+00
    0.51378E+06         0.16849E+07         0.00000E+00
    0.00000E+00         0.00000E+00         0.00000E+00
 
   -0.11606E+07         0.55985E+06         0.00000E+00
    0.55985E+06         0.16789E+07         0.00000E+00
    0.00000E+00         0.00000E+00         0.00000E+00
 
   -0.11363E+07         0.60543E+06         0.00000E+00
    0.60543E+06         0.16725E+07         0.00000E+00
    0.00000E+00         0.00000E+00         0.00000E+00
 
   -0.11115E+07         0.65050E+06         0.00000E+00
    0.65050E+06         0.16656E+07         0.00000E+00
    0.00000E+00         0.00000E+00         0.00000E+00
 
   -0.10863E+07         0.69507E+06         0.00000E+00
    0.69507E+06         0.16583E+07         0.00000E+00
    0.00000E+00         0.00000E+00         0.00000E+00
 
   -0.10607E+07         0.73915E+06         0.00000E+00
    0.73915E+06         0.16506E+07         0.00000E+00
    0.00000E+00         0.00000E+00         0.00000E+00
 
   -0.10347E+07         0.78272E+06         0.00000E+00
    0.78272E+06         0.16425E+07         0.00000E+00
    0.00000E+00         0.00000E+00         0.00000E+00
 
   -0.10083E+07         0.82579E+06         0.00000E+00
    0.82579E+06         0.16340E+07         0.00000E+00
    0.00000E+00         0.00000E+00         0.00000E+00
 
   -0.98158E+06         0.86836E+06         0.00000E+00
    0.86836E+06         0.16251E+07         0.00000E+00
    0.00000E+00         0.00000E+00         0.00000E+00
 
   -0.95449E+06         0.91044E+06         0.00000E+00
    0.91044E+06         0.16159E+07         0.00000E+00
    0.00000E+00         0.00000E+00         0.00000E+00
 
   -0.92705E+06         0.95202E+06         0.00000E+00
    0.95202E+06         0.16063E+07         0.00000E+00
    0.00000E+00         0.00000E+00         0.00000E+00
 
   -0.89929E+06         0.99310E+06         0.00000E+00
    0.99310E+06         0.15964E+07         0.00000E+00
    0.00000E+00         0.00000E+00         0.00000E+00
 
   -0.87122E+06         0.10337E+07         0.00000E+00
    0.10337E+07         0.15861E+07         0.00000E+00
    0.00000E+00         0.00000E+00         0.00000E+00
 
   -0.84283E+06         0.10738E+07         0.00000E+00
    0.10738E+07         0.15754E+07         0.00000E+00
    0.00000E+00         0.00000E+00         0.00000E+00
 
   -0.81416E+06         0.11134E+07         0.00000E+00
    0.11134E+07         0.15645E+07         0.00000E+00
    0.00000E+00         0.00000E+00         0.00000E+00
 
   -0.78519E+06         0.11526E+07         0.00000E+00
    0.11526E+07         0.15533E+07         0.00000E+00
    0.00000E+00         0.00000E+00         0.00000E+00
 
   -0.75595E+06         0.11912E+07         0.00000E+00
    0.11912E+07         0.15417E+07         0.00000E+00
    0.00000E+00         0.00000E+00         0.00000E+00
 
   -0.72643E+06         0.12294E+07         0.00000E+00
    0.12294E+07         0.15299E+07         0.00000E+00
    0.00000E+00         0.00000E+00         0.00000E+00
 
   -0.69665E+06         0.12671E+07         0.00000E+00
    0.12671E+07         0.15177E+07         0.00000E+00
    0.00000E+00         0.00000E+00         0.00000E+00
 
   -0.66662E+06         0.13043E+07         0.00000E+00
    0.13043E+07         0.15053E+07         0.00000E+00
    0.00000E+00         0.00000E+00         0.00000E+00
 
   -0.63633E+06         0.13410E+07         0.00000E+00
    0.13410E+07         0.14926E+07         0.00000E+00
    0.00000E+00         0.00000E+00         0.00000E+00
 
   -0.60580E+06         0.13773E+07         0.00000E+00
    0.13773E+07         0.14796E+07         0.00000E+00
    0.00000E+00         0.00000E+00         0.00000E+00
 
   -0.57503E+06         0.14131E+07         0.00000E+00
    0.14131E+07         0.14664E+07         0.00000E+00
    0.00000E+00         0.00000E+00         0.00000E+00
 
   -0.54402E+06         0.14485E+07         0.00000E+00
    0.14485E+07         0.14529E+07         0.00000E+00
    0.00000E+00         0.00000E+00         0.00000E+00
 
   -0.51278E+06         0.14834E+07         0.00000E+00
    0.14834E+07         0.14391E+07         0.00000E+00
    0.00000E+00         0.00000E+00         0.00000E+00
 
   -0.48130E+06         0.15178E+07         0.00000E+00
    0.15178E+07         0.14251E+07         0.00000E+00
    0.00000E+00         0.00000E+00         0.00000E+00
 
   -0.44961E+06         0.15518E+07         0.00000E+00
    0.15518E+07         0.14108E+07         0.00000E+00
    0.00000E+00         0.00000E+00         0.00000E+00
 
   -0.41769E+06         0.15854E+07         0.00000E+00
    0.15854E+07         0.13963E+07         0.00000E+00
    0.00000E+00         0.00000E+00         0.00000E+00
 
   -0.38554E+06         0.16184E+07         0.00000E+00
    0.16184E+07         0.13816E+07         0.00000E+00
    0.00000E+00         0.00000E+00         0.00000E+00
 
   -0.35318E+06         0.16511E+07         0.00000E+00
    0.16511E+07         0.13666E+07         0.00000E+00
    0.00000E+00         0.00000E+00         0.00000E+00
 
   -0.32059E+06         0.16833E+07         0.00000E+00
    0.16833E+07         0.13514E+07         0.00000E+00
    0.00000E+00         0.00000E+00         0.00000E+00
 
   -0.28778E+06         0.17150E+07         0.00000E+00
    0.17150E+07         0.13360E+07         0.00000E+00
    0.00000E+00         0.00000E+00         0.00000E+00
 
   -0.25476E+06         0.17463E+07         0.00000E+00
    0.17463E+07         0.13203E+07         0.00000E+00
    0.00000E+00         0.00000E+00         0.00000E+00
 
   -0.22151E+06         0.17772E+07         0.00000E+00
    0.17772E+07         0.13045E+07         0.00000E+00
    0.00000E+00         0.00000E+00         0.00000E+00
 
   -0.18805E+06         0.18076E+07         0.00000E+00
    0.18076E+07         0.12884E+07         0.00000E+00
    0.00000E+00         0.00000E+00         0.00000E+00
 
   -0.15436E+06         0.18376E+07         0.00000E+00
    0.18376E+07         0.12720E+07         0.00000E+00
    0.00000E+00         0.00000E+00         0.00000E+00
 
   -0.12045E+06         0.18672E+07         0.00000E+00
    0.18672E+07         0.12555E+07         0.00000E+00
    0.00000E+00         0.00000E+00         0.00000E+00
 
   -0.86312E+05         0.18963E+07         0.00000E+00
    0.18963E+07         0.12387E+07         0.00000E+00
    0.00000E+00         0.00000E+00         0.00000E+00
 
   -0.51948E+05         0.19250E+07         0.00000E+00
    0.19250E+07         0.12217E+07         0.00000E+00
    0.00000E+00         0.00000E+00         0.00000E+00
 
   -0.17355E+05         0.19533E+07         0.00000E+00
    0.19533E+07         0.12045E+07         0.00000E+00
    0.00000E+00         0.00000E+00         0.00000E+00
 
   -0.12837E+07         0.24805E+05         0.00000E+00
    0.24805E+05         0.15774E+07         0.00000E+00
    0.00000E+00         0.00000E+00         0.00000E+00
 
   -0.12676E+07         0.73328E+05         0.00000E+00
    0.73328E+05         0.15768E+07         0.00000E+00
    0.00000E+00         0.00000E+00         0.00000E+00
 
   -0.12508E+07         0.12144E+06         0.00000E+00
    0.12144E+06         0.15757E+07         0.00000E+00
    0.00000E+00         0.00000E+00         0.00000E+00
 
   -0.12334E+07         0.16914E+06         0.00000E+00
    0.16914E+06         0.15740E+07         0.00000E+00
    0.00000E+00         0.00000E+00         0.00000E+00
 
   -0.12155E+07         0.21642E+06         0.00000E+00
    0.21642E+06         0.15717E+07         0.00000E+00
    0.00000E+00         0.00000E+00         0.00000E+00
 
   -0.11969E+07         0.26327E+06         0.00000E+00
    0.26327E+06         0.15690E+07         0.00000E+00
    0.00000E+00         0.00000E+00         0.00000E+00
 
   -0.11779E+07         0.30968E+06         0.00000E+00
    0.30968E+06         0.15657E+07         0.00000E+00
    0.00000E+00         0.00000E+00         0.00000E+00
 
   -0.11582E+07         0.35565E+06         0.00000E+00
    0.35565E+06         0.15619E+07         0.00000E+00
    0.00000E+00         0.00000E+00         0.00000E+00
 
   -0.11381E+07         0.40117E+06         0.00000E+00
    0.40117E+06         0.15577E+07         0.00000E+00
    0.00000E+00         0.00000E+00         0.00000E+00
 
   -0.11175E+07         0.44625E+06         0.00000E+00
    0.44625E+06         0.15530E+07         0.00000E+00
    0.00000E+00         0.00000E+00         0.00000E+00
 
   -0.10964E+07         0.49086E+06         0.00000E+00
    0.49086E+06         0.15478E+07         0.00000E+00
    0.00000E+00         0.00000E+00         0.00000E+00
 
   -0.10748E+07         0.53502E+06         0.00000E+00
    0.53502E+06         0.15422E+07         0.00000E+00
    0.00000E+00         0.00000E+00         0.00000E+00
 
   -0.10528E+07         0.57872E+06         0.00000E+00
    0.57872E+06         0.15362E+07         0.00000E+00
    0.00000E+00         0.00000E+00         0.00000E+00
 
   -0.10303E+07         0.62195E+06         0.00000E+00
    0.62195E+06         0.15297E+07         0.00000E+00
    0.00000E+00         0.00000E+00         0.00000E+00
 
   -0.10074E+07         0.66472E+06         0.00000E+00
    0.66472E+06         0.15229E+07         0.00000E+00
    0.00000E+00         0.00000E+00         0.00000E+00
 
   -0.98411E+06         0.70702E+06         0.00000E+00
    0.70702E+06         0.15156E+07         0.00000E+00
    0.00000E+00         0.00000E+00         0.00000E+00
 
   -0.96042E+06         0.74885E+06         0.00000E+00
    0.74885E+06         0.15080E+07         0.00000E+00
    0.00000E+00         0.00000E+00         0.00000E+00
 
   -0.93636E+06         0.79021E+06         0.00000E+00
    0.79021E+06         0.15000E+07         0.00000E+00
    0.00000E+00         0.00000E+00         0.00000E+00
 
   -0.91192E+06         0.83110E+06         0.00000E+00
    0.83110E+06         0.14916E+07         0.00000E+00
    0.00000E+00         0.00000E+00         0.00000E+00
 
   -0.88714E+06         0.87152E+06         0.00000E+00
    0.87152E+06         0.14829E+07         0.00000E+00
    0.00000E+00         0.00000E+00         0.00000E+00
 
   -0.86200E+06         0.91146E+06         0.00000E+00
    0.91146E+06         0.14739E+07         0.00000E+00
    0.00000E+00         0.00000E+00         0.00000E+00
 
   -0.83654E+06         0.95094E+06         0.00000E+00
    0.95094E+06         0.14645E+07         0.00000E+00
    0.00000E+00         0.00000E+00         0.00000E+00
 
   -0.81075E+06         0.98995E+06         0.00000E+00
    0.98995E+06         0.14548E+07         0.00000E+00
    0.00000E+00         0.00000E+00         0.00000E+00
 
   -0.78465E+06         0.10285E+07         0.00000E+00
    0.10285E+07         0.14447E+07         0.00000E+00
    0.00000E+00         0.00000E+00         0.00000E+00
 
   -0.75824E+06         0.10666E+07         0.00000E+00
    0.10666E+07         0.14344E+07         0.00000E+00
    0.00000E+00         0.00000E+00         0.00000E+00
 
   -0.73154E+06         0.11042E+07         0.00000E+00
    0.11042E+07         0.14238E+07         0.00000E+00
    0.00000E+00         0.00000E+00         0.00000E+00
 
   -0.70455E+06         0.11413E+07         0.00000E+00
    0.11413E+07         0.14129E+07         0.00000E+00
    0.00000E+00         0.00000E+00         0.00000E+00
 
   -0.67729E+06         0.11780E+07         0.00000E+00
    0.11780E+07         0.14017E+07         0.00000E+00
    0.00000E+00         0.00000E+00         0.00000E+00
 
   -0.64975E+06         0.12142E+07         0.00000E+00
    0.12142E+07         0.13902E+07         0.00000E+00
    0.00000E+00         0.00000E+00         0.00000E+00
 
   -0.62194E+06         0.12499E+07         0.00000E+00
    0.12499E+07         0.13785E+07         0.00000E+00
    0.00000E+00         0.00000E+00         0.00000E+00
 
   -0.59388E+06         0.12852E+07         0.00000E+00
    0.12852E+07         0.13664E+07         0.00000E+00
    0.00000E+00         0.00000E+00         0.00000E+00
 
   -0.56556E+06         0.13200E+07         0.00000E+00
    0.13200E+07         0.13542E+07         0.00000E+00
    0.00000E+00         0.00000E+00         0.00000E+00
 
   -0.53699E+06         0.13543E+07         0.00000E+00
    0.13543E+07         0.13417E+07         0.00000E+00
    0.00000E+00         0.00000E+00         0.00000E+00
 
   -0.50818E+06         0.13883E+07         0.00000E+00
    0.13883E+07         0.13289E+07         0.00000E+00
    0.00000E+00         0.00000E+00         0.00000E+00
 
   -0.47913E+06         0.14217E+07         0.00000E+00
    0.14217E+07         0.13159E+07         0.00000E+00
    0.00000E+00         0.00000E+00         0.00000E+00
 
   -0.44985E+06         0.14547E+07         0.00000E+00
    0.14547E+07         0.13027E+07         0.00000E+00
    0.00000E+00         0.00000E+00         0.00000E+00
 
   -0.42033E+06         0.14872E+07         0.00000E+00
    0.14872E+07         0.12893E+07         0.00000E+00
    0.00000E+00         0.00000E+00         0.00000E+00
 
   -0.39058E+06         0.15193E+07         0.00000E+00
    0.15193E+07         0.12756E+07         0.00000E+00
    0.00000E+00         0.00000E+00         0.00000E+00
 
   -0.36061E+06         0.15510E+07         0.00000E+00
    0.15510E+07         0.12617E+07         0.00000E+00
    0.00000E+00         0.00000E+00         0.00000E+00
 
   -0.33041E+06         0.15822E+07         0.00000E+00
    0.15822E+07         0.12476E+07         0.00000E+00
    0.00000E+00         0.00000E+00         0.00000E+00
 
   -0.29999E+06         0.16129E+07         0.00000E+00
    0.16129E+07         0.12332E+07         0.00000E+00
    0.00000E+00         0.00000E+00         0.00000E+00
 
   -0.26934E+06         0.16432E+07         0.00000E+00
    0.16432E+07         0.12187E+07         0.00000E+00
    0.00000E+00         0.00000E+00         0.00000E+00
 
   -0.23848E+06         0.16731E+07         0.00000E+00
    0.16731E+07         0.12039E+07         0.00000E+00
    0.00000E+00         0.00000E+00         0.00000E+00
 
   -0.20739E+06         0.17025E+07         0.00000E+00
    0.17025E+07         0.11890E+07         0.00000E+00
    0.00000E+00         0.00000E+00         0.00000E+00
 
   -0.17609E+06         0.17315E+07         0.00000E+00
    0.17315E+07         0.11738E+07         0.00000E+00
    0.00000E+00         0.00000E+00         0.00000E+00
 
   -0.14457E+06         0.17600E+07         0.00000E+00
    0.17600E+07         0.11585E+07         0.00000E+00
    0.00000E+00         0.00000E+00         0.00000E+00
 
   -0.11282E+06         0.17881E+07         0.00000E+00
    0.17881E+07         0.11429E+07         0.00000E+00
    0.00000E+00         0.00000E+00         0.00000E+00
 
   -0.80858E+05         0.18157E+07         0.00000E+00
    0.18157E+07         0.11272E+07         0.00000E+00
    0.00000E+00         0.00000E+00         0.00000E+00
 
   -0.48671E+05         0.18429E+07         0.00000E+00
    0.18429E+07         0.11112E+07         0.00000E+00
    0.00000E+00         0.00000E+00         0.00000E+00
 
   -0.16261E+05         0.18697E+07         0.00000E+00
    0.18697E+07         0.10951E+07         0.00000E+00
    0.00000E+00         0.00000E+00         0.00000E+00
 
   -0.11777E+07         0.23624E+05         0.00000E+00
    0.23624E+05         0.14455E+07         0.00000E+00
    0.00000E+00         0.00000E+00         0.00000E+00
 
   -0.11634E+07         0.69917E+05         0.00000E+00
    0.69917E+05         0.14450E+07         0.00000E+00
    0.00000E+00         0.00000E+00         0.00000E+00
 
   -0.11486E+07         0.11585E+06         0.00000E+00
    0.11585E+06         0.14439E+07         0.00000E+00
    0.00000E+00         0.00000E+00         0.00000E+00
 
   -0.11332E+07         0.16141E+06         0.00000E+00
    0.16141E+06         0.14423E+07         0.00000E+00
    0.00000E+00         0.00000E+00         0.00000E+00
 
   -0.11172E+07         0.20659E+06         0.00000E+00
    0.20659E+06         0.14402E+07         0.00000E+00
    0.00000E+00         0.00000E+00         0.00000E+00
 
   -0.11007E+07         0.25139E+06         0.00000E+00
    0.25139E+06         0.14377E+07         0.00000E+00
    0.00000E+00         0.00000E+00         0.00000E+00
 
   -0.10836E+07         0.29579E+06         0.00000E+00
    0.29579E+06         0.14346E+07         0.00000E+00
    0.00000E+00         0.00000E+00         0.00000E+00
 
   -0.10661E+07         0.33979E+06         0.00000E+00
    0.33979E+06         0.14311E+07         0.00000E+00
    0.00000E+00         0.00000E+00         0.00000E+00
 
   -0.10480E+07         0.38339E+06         0.00000E+00
    0.38339E+06         0.14272E+07         0.00000E+00
    0.00000E+00         0.00000E+00         0.00000E+00
 
   -0.10295E+07         0.42657E+06         0.00000E+00
    0.42657E+06         0.14228E+07         0.00000E+00
    0.00000E+00         0.00000E+00         0.00000E+00
 
   -0.10105E+07         0.46934E+06         0.00000E+00
    0.46934E+06         0.14180E+07         0.00000E+00
    0.00000E+00         0.00000E+00         0.00000E+00
 
   -0.99101E+06         0.51168E+06         0.00000E+00
    0.51168E+06         0.14128E+07         0.00000E+00
    0.00000E+00         0.00000E+00         0.00000E+00
 
   -0.97111E+06         0.55360E+06         0.00000E+00
    0.55360E+06         0.14072E+07         0.00000E+00
    0.00000E+00         0.00000E+00         0.00000E+00
 
   -0.95079E+06         0.59509E+06         0.00000E+00
    0.59509E+06         0.14011E+07         0.00000E+00
    0.00000E+00         0.00000E+00         0.00000E+00
 
   -0.93006E+06         0.63614E+06         0.00000E+00
    0.63614E+06         0.13947E+07         0.00000E+00
    0.00000E+00         0.00000E+00         0.00000E+00
 
   -0.90893E+06         0.67676E+06         0.00000E+00
    0.67676E+06         0.13880E+07         0.00000E+00
    0.00000E+00         0.00000E+00         0.00000E+00
 
   -0.88742E+06         0.71694E+06         0.00000E+00
    0.71694E+06         0.13808E+07         0.00000E+00
    0.00000E+00         0.00000E+00         0.00000E+00
 
   -0.86553E+06         0.75667E+06         0.00000E+00
    0.75667E+06         0.13734E+07         0.00000E+00
    0.00000E+00         0.00000E+00         0.00000E+00
 
   -0.84327E+06         0.79596E+06         0.00000E+00
    0.79596E+06         0.13655E+07         0.00000E+00
    0.00000E+00         0.00000E+00         0.00000E+00
 
   -0.82067E+06         0.83481E+06         0.00000E+00
    0.83481E+06         0.13574E+07         0.00000E+00
    0.00000E+00         0.00000E+00         0.00000E+00
 
   -0.79772E+06         0.87321E+06         0.00000E+00
    0.87321E+06         0.13489E+07         0.00000E+00
    0.00000E+00         0.00000E+00         0.00000E+00
 
   -0.77444E+06         0.91116E+06         0.00000E+00
    0.91116E+06         0.13401E+07         0.00000E+00
    0.00000E+00         0.00000E+00         0.00000E+00
 
   -0.75083E+06         0.94866E+06         0.00000E+00
    0.94866E+06         0.13310E+07         0.00000E+00
    0.00000E+00         0.00000E+00         0.00000E+00
 
   -0.72692E+06         0.98571E+06         0.00000E+00
    0.98571E+06         0.13216E+07         0.00000E+00
    0.00000E+00         0.00000E+00         0.00000E+00
 
   -0.70270E+06         0.10223E+07         0.00000E+00
    0.10223E+07         0.13119E+07         0.00000E+00
    0.00000E+00         0.00000E+00         0.00000E+00
 
   -0.67818E+06         0.10585E+07         0.00000E+00
    0.10585E+07         0.13020E+07         0.00000E+00
    0.00000E+00         0.00000E+00         0.00000E+00
 
   -0.65338E+06         0.10942E+07         0.00000E+00
    0.10942E+07         0.12918E+07         0.00000E+00
    0.00000E+00         0.00000E+00         0.00000E+00
 
   -0.62829E+06         0.11294E+07         0.00000E+00
    0.11294E+07         0.12813E+07         0.00000E+00
    0.00000E+00         0.00000E+00         0.00000E+00
 
   -0.60293E+06         0.11642E+07         0.00000E+00
    0.11642E+07         0.12705E+07         0.00000E+00
    0.00000E+00         0.00000E+00         0.00000E+00
 
   -0.57730E+06         0.11986E+07         0.00000E+00
    0.11986E+07         0.12595E+07         0.00000E+00
    0.00000E+00         0.00000E+00         0.00000E+00
 
   -0.55141E+06         0.12325E+07         0.00000E+00
    0.12325E+07         0.12482E+07         0.00000E+00
    0.00000E+00         0.00000E+00         0.00000E+00
 
   -0.52527E+06         0.12659E+07         0.00000E+00
    0.12659E+07         0.12367E+07         0.00000E+00
    0.00000E+00         0.00000E+00         0.00000E+00
 
   -0.49887E+06         0.12989E+07         0.00000E+00
    0.12989E+07         0.12250E+07         0.00000E+00
    0.00000E+00         0.00000E+00         0.00000E+00
 
   -0.47223E+06         0.13315E+07         0.00000E+00
    0.13315E+07         0.12131E+07         0.00000E+00
    0.00000E+00         0.00000E+00         0.00000E+00
 
   -0.44535E+06         0.13636E+07         0.00000E+00
    0.13636E+07         0.12009E+07         0.00000E+00
    0.00000E+00         0.00000E+00         0.00000E+00
 
   -0.41823E+06         0.13952E+07         0.00000E+00
    0.13952E+07         0.11885E+07         0.00000E+00
    0.00000E+00         0.00000E+00         0.00000E+00
 
   -0.39088E+06         0.14264E+07         0.00000E+00
    0.14264E+07         0.11759E+07         0.00000E+00
    0.00000E+00         0.00000E+00         0.00000E+00
 
   -0.36330E+06         0.14572E+07         0.00000E+00
    0.14572E+07         0.11630E+07         0.00000E+00
    0.00000E+00         0.00000E+00         0.00000E+00
 
   -0.33549E+06         0.14875E+07         0.00000E+00
    0.14875E+07         0.11500E+07         0.00000E+00
    0.00000E+00         0.00000E+00         0.00000E+00
 
   -0.30746E+06         0.15173E+07         0.00000E+00
    0.15173E+07         0.11368E+07         0.00000E+00
    0.00000E+00         0.00000E+00         0.00000E+00
 
   -0.27920E+06         0.15468E+07         0.00000E+00
    0.15468E+07         0.11234E+07         0.00000E+00
    0.00000E+00         0.00000E+00         0.00000E+00
 
   -0.25073E+06         0.15757E+07         0.00000E+00
    0.15757E+07         0.11098E+07         0.00000E+00
    0.00000E+00         0.00000E+00         0.00000E+00
 
   -0.22203E+06         0.16043E+07         0.00000E+00
    0.16043E+07         0.10960E+07         0.00000E+00
    0.00000E+00         0.00000E+00         0.00000E+00
 
   -0.19312E+06         0.16324E+07         0.00000E+00
    0.16324E+07         0.10820E+07         0.00000E+00
    0.00000E+00         0.00000E+00         0.00000E+00
 
   -0.16400E+06         0.16600E+07         0.00000E+00
    0.16600E+07         0.10678E+07         0.00000E+00
    0.00000E+00         0.00000E+00         0.00000E+00
 
   -0.13466E+06         0.16872E+07         0.00000E+00
    0.16872E+07         0.10535E+07         0.00000E+00
    0.00000E+00         0.00000E+00         0.00000E+00
 
   -0.10510E+06         0.17140E+07         0.00000E+00
    0.17140E+07         0.10389E+07         0.00000E+00
    0.00000E+00         0.00000E+00         0.00000E+00
 
   -0.75334E+05         0.17403E+07         0.00000E+00
    0.17403E+07         0.10242E+07         0.00000E+00
    0.00000E+00         0.00000E+00         0.00000E+00
 
   -0.45351E+05         0.17661E+07         0.00000E+00
    0.17661E+07         0.10094E+07         0.00000E+00
    0.00000E+00         0.00000E+00         0.00000E+00
 
   -0.15153E+05         0.17915E+07         0.00000E+00
    0.17915E+07         0.99432E+06         0.00000E+00
    0.00000E+00         0.00000E+00         0.00000E+00
 
   -0.10761E+07         0.22536E+05         0.00000E+00
    0.22536E+05         0.13201E+07         0.00000E+00
    0.00000E+00         0.00000E+00         0.00000E+00
 
   -0.10635E+07         0.66761E+05         0.00000E+00
    0.66761E+05         0.13196E+07         0.00000E+00
    0.00000E+00         0.00000E+00         0.00000E+00
 
   -0.10503E+07         0.11066E+06         0.00000E+00
    0.11066E+06         0.13186E+07         0.00000E+00
    0.00000E+00         0.00000E+00         0.00000E+00
 
   -0.10367E+07         0.15424E+06         0.00000E+00
    0.15424E+06         0.13171E+07         0.00000E+00
    0.00000E+00         0.00000E+00         0.00000E+00
 
   -0.10225E+07         0.19747E+06         0.00000E+00
    0.19747E+06         0.13152E+07         0.00000E+00
    0.00000E+00         0.00000E+00         0.00000E+00
 
   -0.10078E+07         0.24035E+06         0.00000E+00
    0.24035E+06         0.13129E+07         0.00000E+00
    0.00000E+00         0.00000E+00         0.00000E+00
 
   -0.99254E+06         0.28288E+06         0.00000E+00
    0.28288E+06         0.13101E+07         0.00000E+00
    0.00000E+00         0.00000E+00         0.00000E+00
 
   -0.97685E+06         0.32504E+06         0.00000E+00
    0.32504E+06         0.13068E+07         0.00000E+00
    0.00000E+00         0.00000E+00         0.00000E+00
 
   -0.96068E+06         0.36684E+06         0.00000E+00
    0.36684E+06         0.13032E+07         0.00000E+00
    0.00000E+00         0.00000E+00         0.00000E+00
 
   -0.94406E+06         0.40825E+06         0.00000E+00
    0.40825E+06         0.12991E+07         0.00000E+00
    0.00000E+00         0.00000E+00         0.00000E+00
 
   -0.92699E+06         0.44928E+06         0.00000E+00
    0.44928E+06         0.12947E+07         0.00000E+00
    0.00000E+00         0.00000E+00         0.00000E+00
 
   -0.90949E+06         0.48992E+06         0.00000E+00
    0.48992E+06         0.12899E+07         0.00000E+00
    0.00000E+00         0.00000E+00         0.00000E+00
 
   -0.89157E+06         0.53017E+06         0.00000E+00
    0.53017E+06         0.12846E+07         0.00000E+00
    0.00000E+00         0.00000E+00         0.00000E+00
 
   -0.87325E+06         0.57001E+06         0.00000E+00
    0.57001E+06         0.12791E+07         0.00000E+00
    0.00000E+00         0.00000E+00         0.00000E+00
 
   -0.85452E+06         0.60945E+06         0.00000E+00
    0.60945E+06         0.12731E+07         0.00000E+00
    0.00000E+00         0.00000E+00         0.00000E+00
 
   -0.83542E+06         0.64849E+06         0.00000E+00
    0.64849E+06         0.12669E+07         0.00000E+00
    0.00000E+00         0.00000E+00         0.00000E+00
 
   -0.81593E+06         0.68711E+06         0.00000E+00
    0.68711E+06         0.12603E+07         0.00000E+00
    0.00000E+00         0.00000E+00         0.00000E+00
 
   -0.79609E+06         0.72531E+06         0.00000E+00
    0.72531E+06         0.12533E+07         0.00000E+00
    0.00000E+00         0.00000E+00         0.00000E+00
 
   -0.77589E+06         0.76310E+06         0.00000E+00
    0.76310E+06         0.12461E+07         0.00000E+00
    0.00000E+00         0.00000E+00         0.00000E+00
 
   -0.75535E+06         0.80047E+06         0.00000E+00
    0.80047E+06         0.12385E+07         0.00000E+00
    0.00000E+00         0.00000E+00         0.00000E+00
 
   -0.73447E+06         0.83741E+06         0.00000E+00
    0.83741E+06         0.12306E+07         0.00000E+00
    0.00000E+00         0.00000E+00         0.00000E+00
 
   -0.71327E+06         0.87393E+06         0.00000E+00
    0.87393E+06         0.12224E+07         0.00000E+00
    0.00000E+00         0.00000E+00         0.00000E+00
 
   -0.69176E+06         0.91001E+06         0.00000E+00
    0.91001E+06         0.12140E+07         0.00000E+00
    0.00000E+00         0.00000E+00         0.00000E+00
 
   -0.66994E+06         0.94567E+06         0.00000E+00
    0.94567E+06         0.12053E+07         0.00000E+00
    0.00000E+00         0.00000E+00         0.00000E+00
 
   -0.64781E+06         0.98090E+06         0.00000E+00
    0.98090E+06         0.11963E+07         0.00000E+00
    0.00000E+00         0.00000E+00         0.00000E+00
 
   -0.62540E+06         0.10157E+07         0.00000E+00
    0.10157E+07         0.11870E+07         0.00000E+00
    0.00000E+00         0.00000E+00         0.00000E+00
 
   -0.60270E+06         0.10500E+07         0.00000E+00
    0.10500E+07         0.11775E+07         0.00000E+00
    0.00000E+00         0.00000E+00         0.00000E+00
 
   -0.57973E+06         0.10840E+07         0.00000E+00
    0.10840E+07         0.11677E+07         0.00000E+00
    0.00000E+00         0.00000E+00         0.00000E+00
 
   -0.55648E+06         0.11175E+07         0.00000E+00
    0.11175E+07         0.11577E+07         0.00000E+00
    0.00000E+00         0.00000E+00         0.00000E+00
 
   -0.53297E+06         0.11505E+07         0.00000E+00
    0.11505E+07         0.11474E+07         0.00000E+00
    0.00000E+00         0.00000E+00         0.00000E+00
 
   -0.50920E+06         0.11831E+07         0.00000E+00
    0.11831E+07         0.11370E+07         0.00000E+00
    0.00000E+00         0.00000E+00         0.00000E+00
 
   -0.48518E+06         0.12153E+07         0.00000E+00
    0.12153E+07         0.11263E+07         0.00000E+00
    0.00000E+00         0.00000E+00         0.00000E+00
 
   -0.46091E+06         0.12470E+07         0.00000E+00
    0.12470E+07         0.11153E+07         0.00000E+00
    0.00000E+00         0.00000E+00         0.00000E+00
 
   -0.43640E+06         0.12783E+07         0.00000E+00
    0.12783E+07         0.11042E+07         0.00000E+00
    0.00000E+00         0.00000E+00         0.00000E+00
 
   -0.41165E+06         0.13091E+07         0.00000E+00
    0.13091E+07         0.10929E+07         0.00000E+00
    0.00000E+00         0.00000E+00         0.00000E+00
 
   -0.38667E+06         0.13396E+07         0.00000E+00
    0.13396E+07         0.10813E+07         0.00000E+00
    0.00000E+00         0.00000E+00         0.00000E+00
 
   -0.36146E+06         0.13695E+07         0.00000E+00
    0.13695E+07         0.10696E+07         0.00000E+00
    0.00000E+00         0.00000E+00         0.00000E+00
 
   -0.33602E+06         0.13991E+07         0.00000E+00
    0.13991E+07         0.10577E+07         0.00000E+00
    0.00000E+00         0.00000E+00         0.00000E+00
 
   -0.31036E+06         0.14281E+07         0.00000E+00
    0.14281E+07         0.10455E+07         0.00000E+00
    0.00000E+00         0.00000E+00         0.00000E+00
 
   -0.28448E+06         0.14568E+07         0.00000E+00
    0.14568E+07         0.10332E+07         0.00000E+00
    0.00000E+00         0.00000E+00         0.00000E+00
 
   -0.25838E+06         0.14850E+07         0.00000E+00
    0.14850E+07         0.10207E+07         0.00000E+00
    0.00000E+00         0.00000E+00         0.00000E+00
 
   -0.23207E+06         0.15128E+07         0.00000E+00
    0.15128E+07         0.10081E+07         0.00000E+00
    0.00000E+00         0.00000E+00         0.00000E+00
 
   -0.20554E+06         0.15401E+07         0.00000E+00
    0.15401E+07         0.99526E+06         0.00000E+00
    0.00000E+00         0.00000E+00         0.00000E+00
 
   -0.17881E+06         0.15670E+07         0.00000E+00
    0.15670E+07         0.98226E+06         0.00000E+00
    0.00000E+00         0.00000E+00         0.00000E+00
 
   -0.15186E+06         0.15934E+07         0.00000E+00
    0.15934E+07         0.96909E+06         0.00000E+00
    0.00000E+00         0.00000E+00         0.00000E+00
 
   -0.12471E+06         0.16194E+07         0.00000E+00
    0.16194E+07         0.95577E+06         0.00000E+00
    0.00000E+00         0.00000E+00         0.00000E+00
 
   -0.97349E+05         0.16449E+07         0.00000E+00
    0.16449E+07         0.94228E+06         0.00000E+00
    0.00000E+00         0.00000E+00         0.00000E+00
 
   -0.69784E+05         0.16700E+07         0.00000E+00
    0.16700E+07         0.92865E+06         0.00000E+00
    0.00000E+00         0.00000E+00         0.00000E+00
 
   -0.42013E+05         0.16947E+07         0.00000E+00
    0.16947E+07         0.91485E+06         0.00000E+00
    0.00000E+00         0.00000E+00         0.00000E+00
 
   -0.14038E+05         0.17189E+07         0.00000E+00
    0.17189E+07         0.90091E+06         0.00000E+00
    0.00000E+00         0.00000E+00         0.00000E+00
 
   -0.97862E+06         0.21538E+05         0.00000E+00
    0.21538E+05         0.12005E+07         0.00000E+00
    0.00000E+00         0.00000E+00         0.00000E+00
 
   -0.96753E+06         0.63860E+05         0.00000E+00
    0.63860E+05         0.12000E+07         0.00000E+00
    0.00000E+00         0.00000E+00         0.00000E+00
 
   -0.95592E+06         0.10590E+06         0.00000E+00
    0.10590E+06         0.11991E+07         0.00000E+00
    0.00000E+00         0.00000E+00         0.00000E+00
 
   -0.94381E+06         0.14763E+06         0.00000E+00
    0.14763E+06         0.11978E+07         0.00000E+00
    0.00000E+00         0.00000E+00         0.00000E+00
 
   -0.93121E+06         0.18906E+06         0.00000E+00
    0.18906E+06         0.11960E+07         0.00000E+00
    0.00000E+00         0.00000E+00         0.00000E+00
 
   -0.91813E+06         0.23018E+06         0.00000E+00
    0.23018E+06         0.11939E+07         0.00000E+00
    0.00000E+00         0.00000E+00         0.00000E+00
 
   -0.90459E+06         0.27097E+06         0.00000E+00
    0.27097E+06         0.11913E+07         0.00000E+00
    0.00000E+00         0.00000E+00         0.00000E+00
 
   -0.89060E+06         0.31142E+06         0.00000E+00
    0.31142E+06         0.11883E+07         0.00000E+00
    0.00000E+00         0.00000E+00         0.00000E+00
 
   -0.87617E+06         0.35154E+06         0.00000E+00
    0.35154E+06         0.11850E+07         0.00000E+00
    0.00000E+00         0.00000E+00         0.00000E+00
 
   -0.86130E+06         0.39131E+06         0.00000E+00
    0.39131E+06         0.11813E+07         0.00000E+00
    0.00000E+00         0.00000E+00         0.00000E+00
 
   -0.84602E+06         0.43073E+06         0.00000E+00
    0.43073E+06         0.11772E+07         0.00000E+00
    0.00000E+00         0.00000E+00         0.00000E+00
 
   -0.83033E+06         0.46978E+06         0.00000E+00
    0.46978E+06         0.11728E+07         0.00000E+00
    0.00000E+00         0.00000E+00         0.00000E+00
 
   -0.81424E+06         0.50847E+06         0.00000E+00
    0.50847E+06         0.11680E+07         0.00000E+00
    0.00000E+00         0.00000E+00         0.00000E+00
 
   -0.79777E+06         0.54679E+06         0.00000E+00
    0.54679E+06         0.11629E+07         0.00000E+00
    0.00000E+00         0.00000E+00         0.00000E+00
 
   -0.78092E+06         0.58472E+06         0.00000E+00
    0.58472E+06         0.11574E+07         0.00000E+00
    0.00000E+00         0.00000E+00         0.00000E+00
 
   -0.76370E+06         0.62228E+06         0.00000E+00
    0.62228E+06         0.11516E+07         0.00000E+00
    0.00000E+00         0.00000E+00         0.00000E+00
 
   -0.74613E+06         0.65945E+06         0.00000E+00
    0.65945E+06         0.11455E+07         0.00000E+00
    0.00000E+00         0.00000E+00         0.00000E+00
 
   -0.72821E+06         0.69623E+06         0.00000E+00
    0.69623E+06         0.11391E+07         0.00000E+00
    0.00000E+00         0.00000E+00         0.00000E+00
 
   -0.70995E+06         0.73261E+06         0.00000E+00
    0.73261E+06         0.11325E+07         0.00000E+00
    0.00000E+00         0.00000E+00         0.00000E+00
 
   -0.69137E+06         0.76859E+06         0.00000E+00
    0.76859E+06         0.11255E+07         0.00000E+00
    0.00000E+00         0.00000E+00         0.00000E+00
 
   -0.67246E+06         0.80417E+06         0.00000E+00
    0.80417E+06         0.11182E+07         0.00000E+00
    0.00000E+00         0.00000E+00         0.00000E+00
 
   -0.65324E+06         0.83935E+06         0.00000E+00
    0.83935E+06         0.11107E+07         0.00000E+00
    0.00000E+00         0.00000E+00         0.00000E+00
 
   -0.63372E+06         0.87411E+06         0.00000E+00
    0.87411E+06         0.11029E+07         0.00000E+00
    0.00000E+00         0.00000E+00         0.00000E+00
 
   -0.61390E+06         0.90847E+06         0.00000E+00
    0.90847E+06         0.10948E+07         0.00000E+00
    0.00000E+00         0.00000E+00         0.00000E+00
 
   -0.59379E+06         0.94241E+06         0.00000E+00
    0.94241E+06         0.10865E+07         0.00000E+00
    0.00000E+00         0.00000E+00         0.00000E+00
 
   -0.57339E+06         0.97593E+06         0.00000E+00
    0.97593E+06         0.10780E+07         0.00000E+00
    0.00000E+00         0.00000E+00         0.00000E+00
 
   -0.55273E+06         0.10090E+07         0.00000E+00
    0.10090E+07         0.10692E+07         0.00000E+00
    0.00000E+00         0.00000E+00         0.00000E+00
 
   -0.53179E+06         0.10417E+07         0.00000E+00
    0.10417E+07         0.10601E+07         0.00000E+00
    0.00000E+00         0.00000E+00         0.00000E+00
 
   -0.51060E+06         0.10740E+07         0.00000E+00
    0.10740E+07         0.10509E+07         0.00000E+00
    0.00000E+00         0.00000E+00         0.00000E+00
 
   -0.48914E+06         0.11058E+07         0.00000E+00
    0.11058E+07         0.10414E+07         0.00000E+00
    0.00000E+00         0.00000E+00         0.00000E+00
 
   -0.46744E+06         0.11372E+07         0.00000E+00
    0.11372E+07         0.10318E+07         0.00000E+00
    0.00000E+00         0.00000E+00         0.00000E+00
 
   -0.44549E+06         0.11682E+07         0.00000E+00
    0.11682E+07         0.10219E+07         0.00000E+00
    0.00000E+00         0.00000E+00         0.00000E+00
 
   -0.42330E+06         0.11988E+07         0.00000E+00
    0.11988E+07         0.10118E+07         0.00000E+00
    0.00000E+00         0.00000E+00         0.00000E+00
 
   -0.40087E+06         0.12289E+07         0.00000E+00
    0.12289E+07         0.10015E+07         0.00000E+00
    0.00000E+00         0.00000E+00         0.00000E+00
 
   -0.37822E+06         0.12586E+07         0.00000E+00
    0.12586E+07         0.99100E+06         0.00000E+00
    0.00000E+00         0.00000E+00         0.00000E+00
 
   -0.35533E+06         0.12879E+07         0.00000E+00
    0.12879E+07         0.98034E+06         0.00000E+00
    0.00000E+00         0.00000E+00         0.00000E+00
 
   -0.33223E+06         0.13167E+07         0.00000E+00
    0.13167E+07         0.96949E+06         0.00000E+00
    0.00000E+00         0.00000E+00         0.00000E+00
 
   -0.30890E+06         0.13451E+07         0.00000E+00
    0.13451E+07         0.95846E+06         0.00000E+00
    0.00000E+00         0.00000E+00         0.00000E+00
 
   -0.28536E+06         0.13731E+07         0.00000E+00
    0.13731E+07         0.94727E+06         0.00000E+00
    0.00000E+00         0.00000E+00         0.00000E+00
 
   -0.26161E+06         0.14006E+07         0.00000E+00
    0.14006E+07         0.93590E+06         0.00000E+00
    0.00000E+00         0.00000E+00         0.00000E+00
 
   -0.23765E+06         0.14277E+07         0.00000E+00
    0.14277E+07         0.92437E+06         0.00000E+00
    0.00000E+00         0.00000E+00         0.00000E+00
 
   -0.21348E+06         0.14544E+07         0.00000E+00
    0.14544E+07         0.91268E+06         0.00000E+00
    0.00000E+00         0.00000E+00         0.00000E+00
 
   -0.18910E+06         0.14806E+07         0.00000E+00
    0.14806E+07         0.90084E+06         0.00000E+00
    0.00000E+00         0.00000E+00         0.00000E+00
 
   -0.16453E+06         0.15064E+07         0.00000E+00
    0.15064E+07         0.88884E+06         0.00000E+00
    0.00000E+00         0.00000E+00         0.00000E+00
 
   -0.13975E+06         0.15317E+07         0.00000E+00
    0.15317E+07         0.87669E+06         0.00000E+00
    0.00000E+00         0.00000E+00         0.00000E+00
 
   -0.11478E+06         0.15566E+07         0.00000E+00
    0.15566E+07         0.86440E+06         0.00000E+00
    0.00000E+00         0.00000E+00         0.00000E+00
 
   -0.89606E+05         0.15811E+07         0.00000E+00
    0.15811E+07         0.85197E+06         0.00000E+00
    0.00000E+00         0.00000E+00         0.00000E+00
 
   -0.64239E+05         0.16051E+07         0.00000E+00
    0.16051E+07         0.83939E+06         0.00000E+00
    0.00000E+00         0.00000E+00         0.00000E+00
 
   -0.38679E+05         0.16287E+07         0.00000E+00
    0.16287E+07         0.82669E+06         0.00000E+00
    0.00000E+00         0.00000E+00         0.00000E+00
 
   -0.12925E+05         0.16518E+07         0.00000E+00
    0.16518E+07         0.81384E+06         0.00000E+00
    0.00000E+00         0.00000E+00         0.00000E+00
 
   -0.88513E+06         0.20629E+05         0.00000E+00
    0.20629E+05         0.10861E+07         0.00000E+00
    0.00000E+00         0.00000E+00         0.00000E+00
 
   -0.87536E+06         0.61214E+05         0.00000E+00
    0.61214E+05         0.10857E+07         0.00000E+00
    0.00000E+00         0.00000E+00         0.00000E+00
 
   -0.86512E+06         0.10154E+06         0.00000E+00
    0.10154E+06         0.10848E+07         0.00000E+00
    0.00000E+00         0.00000E+00         0.00000E+00
 
   -0.85443E+06         0.14160E+06         0.00000E+00
    0.14160E+06         0.10836E+07         0.00000E+00
    0.00000E+00         0.00000E+00         0.00000E+00
 
   -0.84328E+06         0.18137E+06         0.00000E+00
    0.18137E+06         0.10821E+07         0.00000E+00
    0.00000E+00         0.00000E+00         0.00000E+00
 
   -0.83169E+06         0.22086E+06         0.00000E+00
    0.22086E+06         0.10801E+07         0.00000E+00
    0.00000E+00         0.00000E+00         0.00000E+00
 
   -0.81968E+06         0.26006E+06         0.00000E+00
    0.26006E+06         0.10778E+07         0.00000E+00
    0.00000E+00         0.00000E+00         0.00000E+00
 
   -0.80725E+06         0.29895E+06         0.00000E+00
    0.29895E+06         0.10751E+07         0.00000E+00
    0.00000E+00         0.00000E+00         0.00000E+00
 
   -0.79440E+06         0.33752E+06         0.00000E+00
    0.33752E+06         0.10720E+07         0.00000E+00
    0.00000E+00         0.00000E+00         0.00000E+00
 
   -0.78116E+06         0.37577E+06         0.00000E+00
    0.37577E+06         0.10686E+07         0.00000E+00
    0.00000E+00         0.00000E+00         0.00000E+00
 
   -0.76753E+06         0.41370E+06         0.00000E+00
    0.41370E+06         0.10649E+07         0.00000E+00
    0.00000E+00         0.00000E+00         0.00000E+00
 
   -0.75352E+06         0.45129E+06         0.00000E+00
    0.45129E+06         0.10609E+07         0.00000E+00
    0.00000E+00         0.00000E+00         0.00000E+00
 
   -0.73914E+06         0.48854E+06         0.00000E+00
    0.48854E+06         0.10565E+07         0.00000E+00
    0.00000E+00         0.00000E+00         0.00000E+00
 
   -0.72439E+06         0.52544E+06         0.00000E+00
    0.52544E+06         0.10518E+07         0.00000E+00
    0.00000E+00         0.00000E+00         0.00000E+00
 
   -0.70929E+06         0.56199E+06         0.00000E+00
    0.56199E+06         0.10469E+07         0.00000E+00
    0.00000E+00         0.00000E+00         0.00000E+00
 
   -0.69385E+06         0.59818E+06         0.00000E+00
    0.59818E+06         0.10416E+07         0.00000E+00
    0.00000E+00         0.00000E+00         0.00000E+00
 
   -0.67808E+06         0.63400E+06         0.00000E+00
    0.63400E+06         0.10360E+07         0.00000E+00
    0.00000E+00         0.00000E+00         0.00000E+00
 
   -0.66197E+06         0.66946E+06         0.00000E+00
    0.66946E+06         0.10302E+07         0.00000E+00
    0.00000E+00         0.00000E+00         0.00000E+00
 
   -0.64555E+06         0.70454E+06         0.00000E+00
    0.70454E+06         0.10241E+07         0.00000E+00
    0.00000E+00         0.00000E+00         0.00000E+00
 
   -0.62882E+06         0.73924E+06         0.00000E+00
    0.73924E+06         0.10177E+07         0.00000E+00
    0.00000E+00         0.00000E+00         0.00000E+00
 
   -0.61178E+06         0.77356E+06         0.00000E+00
    0.77356E+06         0.10111E+07         0.00000E+00
    0.00000E+00         0.00000E+00         0.00000E+00
 
   -0.59445E+06         0.80749E+06         0.00000E+00
    0.80749E+06         0.10042E+07         0.00000E+00
    0.00000E+00         0.00000E+00         0.00000E+00
 
   -0.57683E+06         0.84103E+06         0.00000E+00
    0.84103E+06         0.99703E+06         0.00000E+00
    0.00000E+00         0.00000E+00         0.00000E+00
 
   -0.55892E+06         0.87418E+06         0.00000E+00
    0.87418E+06         0.98965E+06         0.00000E+00
    0.00000E+00         0.00000E+00         0.00000E+00
 
   -0.54074E+06         0.90694E+06         0.00000E+00
    0.90694E+06         0.98204E+06         0.00000E+00
    0.00000E+00         0.00000E+00         0.00000E+00
 
   -0.52230E+06         0.93929E+06         0.00000E+00
    0.93929E+06         0.97421E+06         0.00000E+00
    0.00000E+00         0.00000E+00         0.00000E+00
 
   -0.50359E+06         0.97124E+06         0.00000E+00
    0.97124E+06         0.96615E+06         0.00000E+00
    0.00000E+00         0.00000E+00         0.00000E+00
 
   -0.48463E+06         0.10028E+07         0.00000E+00
    0.10028E+07         0.95789E+06         0.00000E+00
    0.00000E+00         0.00000E+00         0.00000E+00
 
   -0.46541E+06         0.10339E+07         0.00000E+00
    0.10339E+07         0.94941E+06         0.00000E+00
    0.00000E+00         0.00000E+00         0.00000E+00
 
   -0.44595E+06         0.10646E+07         0.00000E+00
    0.10646E+07         0.94073E+06         0.00000E+00
    0.00000E+00         0.00000E+00         0.00000E+00
 
   -0.42625E+06         0.10950E+07         0.00000E+00
    0.10950E+07         0.93186E+06         0.00000E+00
    0.00000E+00         0.00000E+00         0.00000E+00
 
   -0.40632E+06         0.11248E+07         0.00000E+00
    0.11248E+07         0.92279E+06         0.00000E+00
    0.00000E+00         0.00000E+00         0.00000E+00
 
   -0.38615E+06         0.11543E+07         0.00000E+00
    0.11543E+07         0.91354E+06         0.00000E+00
    0.00000E+00         0.00000E+00         0.00000E+00
 
   -0.36576E+06         0.11834E+07         0.00000E+00
    0.11834E+07         0.90411E+06         0.00000E+00
    0.00000E+00         0.00000E+00         0.00000E+00
 
   -0.34516E+06         0.12120E+07         0.00000E+00
    0.12120E+07         0.89450E+06         0.00000E+00
    0.00000E+00         0.00000E+00         0.00000E+00
 
   -0.32433E+06         0.12402E+07         0.00000E+00
    0.12402E+07         0.88472E+06         0.00000E+00
    0.00000E+00         0.00000E+00         0.00000E+00
 
   -0.30329E+06         0.12680E+07         0.00000E+00
    0.12680E+07         0.87477E+06         0.00000E+00
    0.00000E+00         0.00000E+00         0.00000E+00
 
   -0.28204E+06         0.12954E+07         0.00000E+00
    0.12954E+07         0.86467E+06         0.00000E+00
    0.00000E+00         0.00000E+00         0.00000E+00
 
   -0.26059E+06         0.13224E+07         0.00000E+00
    0.13224E+07         0.85440E+06         0.00000E+00
    0.00000E+00         0.00000E+00         0.00000E+00
 
   -0.23893E+06         0.13489E+07         0.00000E+00
    0.13489E+07         0.84398E+06         0.00000E+00
    0.00000E+00         0.00000E+00         0.00000E+00
 
   -0.21708E+06         0.13750E+07         0.00000E+00
    0.13750E+07         0.83342E+06         0.00000E+00
    0.00000E+00         0.00000E+00         0.00000E+00
 
   -0.19503E+06         0.14006E+07         0.00000E+00
    0.14006E+07         0.82270E+06         0.00000E+00
    0.00000E+00         0.00000E+00         0.00000E+00
 
   -0.17278E+06         0.14258E+07         0.00000E+00
    0.14258E+07         0.81185E+06         0.00000E+00
    0.00000E+00         0.00000E+00         0.00000E+00
 
   -0.15035E+06         0.14506E+07         0.00000E+00
    0.14506E+07         0.80086E+06         0.00000E+00
    0.00000E+00         0.00000E+00         0.00000E+00
 
   -0.12772E+06         0.14750E+07         0.00000E+00
    0.14750E+07         0.78973E+06         0.00000E+00
    0.00000E+00         0.00000E+00         0.00000E+00
 
   -0.10491E+06         0.14989E+07         0.00000E+00
    0.14989E+07         0.77848E+06         0.00000E+00
    0.00000E+00         0.00000E+00         0.00000E+00
 
   -0.81908E+05         0.15224E+07         0.00000E+00
    0.15224E+07         0.76709E+06         0.00000E+00
    0.00000E+00         0.00000E+00         0.00000E+00
 
   -0.58726E+05         0.15454E+07         0.00000E+00
    0.15454E+07         0.75558E+06         0.00000E+00
    0.00000E+00         0.00000E+00         0.00000E+00
 
   -0.35362E+05         0.15680E+07         0.00000E+00
    0.15680E+07         0.74396E+06         0.00000E+00
    0.00000E+00         0.00000E+00         0.00000E+00
 
   -0.11817E+05         0.15902E+07         0.00000E+00
    0.15902E+07         0.73221E+06         0.00000E+00
    0.00000E+00         0.00000E+00         0.00000E+00
 
   -0.79529E+06         0.19809E+05         0.00000E+00
    0.19809E+05         0.97637E+06         0.00000E+00
    0.00000E+00         0.00000E+00         0.00000E+00
 
   -0.78672E+06         0.58818E+05         0.00000E+00
    0.58818E+05         0.97600E+06         0.00000E+00
    0.00000E+00         0.00000E+00         0.00000E+00
 
   -0.77773E+06         0.97593E+05         0.00000E+00
    0.97593E+05         0.97527E+06         0.00000E+00
    0.00000E+00         0.00000E+00         0.00000E+00
 
   -0.76832E+06         0.13612E+06         0.00000E+00
    0.13612E+06         0.97419E+06         0.00000E+00
    0.00000E+00         0.00000E+00         0.00000E+00
 
   -0.75850E+06         0.17440E+06         0.00000E+00
    0.17440E+06         0.97276E+06         0.00000E+00
    0.00000E+00         0.00000E+00         0.00000E+00
 
   -0.74827E+06         0.21241E+06         0.00000E+00
    0.21241E+06         0.97099E+06         0.00000E+00
    0.00000E+00         0.00000E+00         0.00000E+00
 
   -0.73766E+06         0.25015E+06         0.00000E+00
    0.25015E+06         0.96889E+06         0.00000E+00
    0.00000E+00         0.00000E+00         0.00000E+00
 
   -0.72666E+06         0.28760E+06         0.00000E+00
    0.28760E+06         0.96646E+06         0.00000E+00
    0.00000E+00         0.00000E+00         0.00000E+00
 
   -0.71529E+06         0.32477E+06         0.00000E+00
    0.32477E+06         0.96372E+06         0.00000E+00
    0.00000E+00         0.00000E+00         0.00000E+00
 
   -0.70355E+06         0.36164E+06         0.00000E+00
    0.36164E+06         0.96066E+06         0.00000E+00
    0.00000E+00         0.00000E+00         0.00000E+00
 
   -0.69145E+06         0.39820E+06         0.00000E+00
    0.39820E+06         0.95730E+06         0.00000E+00
    0.00000E+00         0.00000E+00         0.00000E+00
 
   -0.67900E+06         0.43445E+06         0.00000E+00
    0.43445E+06         0.95365E+06         0.00000E+00
    0.00000E+00         0.00000E+00         0.00000E+00
 
   -0.66621E+06         0.47038E+06         0.00000E+00
    0.47038E+06         0.94970E+06         0.00000E+00
    0.00000E+00         0.00000E+00         0.00000E+00
 
   -0.65308E+06         0.50599E+06         0.00000E+00
    0.50599E+06         0.94548E+06         0.00000E+00
    0.00000E+00         0.00000E+00         0.00000E+00
 
   -0.63963E+06         0.54126E+06         0.00000E+00
    0.54126E+06         0.94097E+06         0.00000E+00
    0.00000E+00         0.00000E+00         0.00000E+00
 
   -0.62586E+06         0.57620E+06         0.00000E+00
    0.57620E+06         0.93620E+06         0.00000E+00
    0.00000E+00         0.00000E+00         0.00000E+00
 
   -0.61178E+06         0.61079E+06         0.00000E+00
    0.61079E+06         0.93116E+06         0.00000E+00
    0.00000E+00         0.00000E+00         0.00000E+00
 
   -0.59739E+06         0.64503E+06         0.00000E+00
    0.64503E+06         0.92587E+06         0.00000E+00
    0.00000E+00         0.00000E+00         0.00000E+00
 
   -0.58271E+06         0.67891E+06         0.00000E+00
    0.67891E+06         0.92033E+06         0.00000E+00
    0.00000E+00         0.00000E+00         0.00000E+00
 
   -0.56774E+06         0.71244E+06         0.00000E+00
    0.71244E+06         0.91455E+06         0.00000E+00
    0.00000E+00         0.00000E+00         0.00000E+00
 
   -0.55248E+06         0.74560E+06         0.00000E+00
    0.74560E+06         0.90852E+06         0.00000E+00
    0.00000E+00         0.00000E+00         0.00000E+00
 
   -0.53695E+06         0.77839E+06         0.00000E+00
    0.77839E+06         0.90227E+06         0.00000E+00
    0.00000E+00         0.00000E+00         0.00000E+00
 
   -0.52115E+06         0.81081E+06         0.00000E+00
    0.81081E+06         0.89580E+06         0.00000E+00
    0.00000E+00         0.00000E+00         0.00000E+00
 
   -0.50508E+06         0.84286E+06         0.00000E+00
    0.84286E+06         0.88910E+06         0.00000E+00
    0.00000E+00         0.00000E+00         0.00000E+00
 
   -0.48876E+06         0.87452E+06         0.00000E+00
    0.87452E+06         0.88220E+06         0.00000E+00
    0.00000E+00         0.00000E+00         0.00000E+00
 
   -0.47218E+06         0.90579E+06         0.00000E+00
    0.90579E+06         0.87508E+06         0.00000E+00
    0.00000E+00         0.00000E+00         0.00000E+00
 
   -0.45536E+06         0.93668E+06         0.00000E+00
    0.93668E+06         0.86777E+06         0.00000E+00
    0.00000E+00         0.00000E+00         0.00000E+00
 
   -0.43830E+06         0.96718E+06         0.00000E+00
    0.96718E+06         0.86026E+06         0.00000E+00
    0.00000E+00         0.00000E+00         0.00000E+00
 
   -0.42100E+06         0.99728E+06         0.00000E+00
    0.99728E+06         0.85256E+06         0.00000E+00
    0.00000E+00         0.00000E+00         0.00000E+00
 
   -0.40348E+06         0.10270E+07         0.00000E+00
    0.10270E+07         0.84468E+06         0.00000E+00
    0.00000E+00         0.00000E+00         0.00000E+00
 
   -0.38572E+06         0.10563E+07         0.00000E+00
    0.10563E+07         0.83661E+06         0.00000E+00
    0.00000E+00         0.00000E+00         0.00000E+00
 
   -0.36775E+06         0.10852E+07         0.00000E+00
    0.10852E+07         0.82837E+06         0.00000E+00
    0.00000E+00         0.00000E+00         0.00000E+00
 
   -0.34956E+06         0.11137E+07         0.00000E+00
    0.11137E+07         0.81996E+06         0.00000E+00
    0.00000E+00         0.00000E+00         0.00000E+00
 
   -0.33116E+06         0.11418E+07         0.00000E+00
    0.11418E+07         0.81139E+06         0.00000E+00
    0.00000E+00         0.00000E+00         0.00000E+00
 
   -0.31255E+06         0.11694E+07         0.00000E+00
    0.11694E+07         0.80266E+06         0.00000E+00
    0.00000E+00         0.00000E+00         0.00000E+00
 
   -0.29374E+06         0.11967E+07         0.00000E+00
    0.11967E+07         0.79377E+06         0.00000E+00
    0.00000E+00         0.00000E+00         0.00000E+00
 
   -0.27472E+06         0.12236E+07         0.00000E+00
    0.12236E+07         0.78473E+06         0.00000E+00
    0.00000E+00         0.00000E+00         0.00000E+00
 
   -0.25551E+06         0.12500E+07         0.00000E+00
    0.12500E+07         0.77554E+06         0.00000E+00
    0.00000E+00         0.00000E+00         0.00000E+00
 
   -0.23611E+06         0.12760E+07         0.00000E+00
    0.12760E+07         0.76621E+06         0.00000E+00
    0.00000E+00         0.00000E+00         0.00000E+00
 
   -0.21652E+06         0.13016E+07         0.00000E+00
    0.13016E+07         0.75674E+06         0.00000E+00
    0.00000E+00         0.00000E+00         0.00000E+00
 
   -0.19674E+06         0.13268E+07         0.00000E+00
    0.13268E+07         0.74714E+06         0.00000E+00
    0.00000E+00         0.00000E+00         0.00000E+00
 
   -0.17677E+06         0.13515E+07         0.00000E+00
    0.13515E+07         0.73740E+06         0.00000E+00
    0.00000E+00         0.00000E+00         0.00000E+00
 
   -0.15663E+06         0.13758E+07         0.00000E+00
    0.13758E+07         0.72754E+06         0.00000E+00
    0.00000E+00         0.00000E+00         0.00000E+00
 
   -0.13630E+06         0.13997E+07         0.00000E+00
    0.13997E+07         0.71756E+06         0.00000E+00
    0.00000E+00         0.00000E+00         0.00000E+00
 
   -0.11580E+06         0.14232E+07         0.00000E+00
    0.14232E+07         0.70745E+06         0.00000E+00
    0.00000E+00         0.00000E+00         0.00000E+00
 
   -0.95128E+05         0.14462E+07         0.00000E+00
    0.14462E+07         0.69723E+06         0.00000E+00
    0.00000E+00         0.00000E+00         0.00000E+00
 
   -0.74280E+05         0.14688E+07         0.00000E+00
    0.14688E+07         0.68689E+06         0.00000E+00
    0.00000E+00         0.00000E+00         0.00000E+00
 
   -0.53261E+05         0.14910E+07         0.00000E+00
    0.14910E+07         0.67644E+06         0.00000E+00
    0.00000E+00         0.00000E+00         0.00000E+00
 
   -0.32073E+05         0.15128E+07         0.00000E+00
    0.15128E+07         0.66589E+06         0.00000E+00
    0.00000E+00         0.00000E+00         0.00000E+00
 
   -0.10719E+05         0.15341E+07         0.00000E+00
    0.15341E+07         0.65523E+06         0.00000E+00
    0.00000E+00         0.00000E+00         0.00000E+00
 
   -0.70882E+06         0.19073E+05         0.00000E+00
    0.19073E+05         0.87085E+06         0.00000E+00
    0.00000E+00         0.00000E+00         0.00000E+00
 
   -0.70134E+06         0.56668E+05         0.00000E+00
    0.56668E+05         0.87052E+06         0.00000E+00
    0.00000E+00         0.00000E+00         0.00000E+00
 
   -0.69348E+06         0.94047E+05         0.00000E+00
    0.94047E+05         0.86987E+06         0.00000E+00
    0.00000E+00         0.00000E+00         0.00000E+00
 
   -0.68524E+06         0.13120E+06         0.00000E+00
    0.13120E+06         0.86890E+06         0.00000E+00
    0.00000E+00         0.00000E+00         0.00000E+00
 
   -0.67663E+06         0.16812E+06         0.00000E+00
    0.16812E+06         0.86762E+06         0.00000E+00
    0.00000E+00         0.00000E+00         0.00000E+00
 
   -0.66766E+06         0.20480E+06         0.00000E+00
    0.20480E+06         0.86604E+06         0.00000E+00
    0.00000E+00         0.00000E+00         0.00000E+00
 
   -0.65834E+06         0.24122E+06         0.00000E+00
    0.24122E+06         0.86417E+06         0.00000E+00
    0.00000E+00         0.00000E+00         0.00000E+00
 
   -0.64867E+06         0.27739E+06         0.00000E+00
    0.27739E+06         0.86200E+06         0.00000E+00
    0.00000E+00         0.00000E+00         0.00000E+00
 
   -0.63866E+06         0.31328E+06         0.00000E+00
    0.31328E+06         0.85955E+06         0.00000E+00
    0.00000E+00         0.00000E+00         0.00000E+00
 
   -0.62832E+06         0.34889E+06         0.00000E+00
    0.34889E+06         0.85681E+06         0.00000E+00
    0.00000E+00         0.00000E+00         0.00000E+00
 
   -0.61765E+06         0.38422E+06         0.00000E+00
    0.38422E+06         0.85381E+06         0.00000E+00
    0.00000E+00         0.00000E+00         0.00000E+00
 
   -0.60667E+06         0.41926E+06         0.00000E+00
    0.41926E+06         0.85054E+06         0.00000E+00
    0.00000E+00         0.00000E+00         0.00000E+00
 
   -0.59537E+06         0.45400E+06         0.00000E+00
    0.45400E+06         0.84700E+06         0.00000E+00
    0.00000E+00         0.00000E+00         0.00000E+00
 
   -0.58377E+06         0.48843E+06         0.00000E+00
    0.48843E+06         0.84322E+06         0.00000E+00
    0.00000E+00         0.00000E+00         0.00000E+00
 
   -0.57186E+06         0.52254E+06         0.00000E+00
    0.52254E+06         0.83918E+06         0.00000E+00
    0.00000E+00         0.00000E+00         0.00000E+00
 
   -0.55967E+06         0.55634E+06         0.00000E+00
    0.55634E+06         0.83490E+06         0.00000E+00
    0.00000E+00         0.00000E+00         0.00000E+00
 
   -0.54719E+06         0.58981E+06         0.00000E+00
    0.58981E+06         0.83038E+06         0.00000E+00
    0.00000E+00         0.00000E+00         0.00000E+00
 
   -0.53444E+06         0.62294E+06         0.00000E+00
    0.62294E+06         0.82564E+06         0.00000E+00
    0.00000E+00         0.00000E+00         0.00000E+00
 
   -0.52141E+06         0.65574E+06         0.00000E+00
    0.65574E+06         0.82067E+06         0.00000E+00
    0.00000E+00         0.00000E+00         0.00000E+00
 
   -0.50811E+06         0.68820E+06         0.00000E+00
    0.68820E+06         0.81547E+06         0.00000E+00
    0.00000E+00         0.00000E+00         0.00000E+00
 
   -0.49456E+06         0.72031E+06         0.00000E+00
    0.72031E+06         0.81007E+06         0.00000E+00
    0.00000E+00         0.00000E+00         0.00000E+00
 
   -0.48075E+06         0.75206E+06         0.00000E+00
    0.75206E+06         0.80445E+06         0.00000E+00
    0.00000E+00         0.00000E+00         0.00000E+00
 
   -0.46669E+06         0.78346E+06         0.00000E+00
    0.78346E+06         0.79863E+06         0.00000E+00
    0.00000E+00         0.00000E+00         0.00000E+00
 
   -0.45239E+06         0.81450E+06         0.00000E+00
    0.81450E+06         0.79262E+06         0.00000E+00
    0.00000E+00         0.00000E+00         0.00000E+00
 
   -0.43785E+06         0.84517E+06         0.00000E+00
    0.84517E+06         0.78641E+06         0.00000E+00
    0.00000E+00         0.00000E+00         0.00000E+00
 
   -0.42308E+06         0.87547E+06         0.00000E+00
    0.87547E+06         0.78002E+06         0.00000E+00
    0.00000E+00         0.00000E+00         0.00000E+00
 
   -0.40808E+06         0.90539E+06         0.00000E+00
    0.90539E+06         0.77344E+06         0.00000E+00
    0.00000E+00         0.00000E+00         0.00000E+00
 
   -0.39285E+06         0.93494E+06         0.00000E+00
    0.93494E+06         0.76669E+06         0.00000E+00
    0.00000E+00         0.00000E+00         0.00000E+00
 
   -0.37741E+06         0.96410E+06         0.00000E+00
    0.96410E+06         0.75976E+06         0.00000E+00
    0.00000E+00         0.00000E+00         0.00000E+00
 
   -0.36176E+06         0.99288E+06         0.00000E+00
    0.99288E+06         0.75267E+06         0.00000E+00
    0.00000E+00         0.00000E+00         0.00000E+00
 
   -0.34590E+06         0.10213E+07         0.00000E+00
    0.10213E+07         0.74542E+06         0.00000E+00
    0.00000E+00         0.00000E+00         0.00000E+00
 
   -0.32983E+06         0.10493E+07         0.00000E+00
    0.10493E+07         0.73800E+06         0.00000E+00
    0.00000E+00         0.00000E+00         0.00000E+00
 
   -0.31356E+06         0.10769E+07         0.00000E+00
    0.10769E+07         0.73044E+06         0.00000E+00
    0.00000E+00         0.00000E+00         0.00000E+00
 
   -0.29710E+06         0.11041E+07         0.00000E+00
    0.11041E+07         0.72272E+06         0.00000E+00
    0.00000E+00         0.00000E+00         0.00000E+00
 
   -0.28044E+06         0.11309E+07         0.00000E+00
    0.11309E+07         0.71486E+06         0.00000E+00
    0.00000E+00         0.00000E+00         0.00000E+00
 
   -0.26360E+06         0.11573E+07         0.00000E+00
    0.11573E+07         0.70686E+06         0.00000E+00
    0.00000E+00         0.00000E+00         0.00000E+00
 
   -0.24657E+06         0.11833E+07         0.00000E+00
    0.11833E+07         0.69872E+06         0.00000E+00
    0.00000E+00         0.00000E+00         0.00000E+00
 
   -0.22936E+06         0.12089E+07         0.00000E+00
    0.12089E+07         0.69046E+06         0.00000E+00
    0.00000E+00         0.00000E+00         0.00000E+00
 
   -0.21197E+06         0.12340E+07         0.00000E+00
    0.12340E+07         0.68206E+06         0.00000E+00
    0.00000E+00         0.00000E+00         0.00000E+00
 
   -0.19440E+06         0.12588E+07         0.00000E+00
    0.12588E+07         0.67354E+06         0.00000E+00
    0.00000E+00         0.00000E+00         0.00000E+00
 
   -0.17666E+06         0.12832E+07         0.00000E+00
    0.12832E+07         0.66489E+06         0.00000E+00
    0.00000E+00         0.00000E+00         0.00000E+00
 
   -0.15875E+06         0.13071E+07         0.00000E+00
    0.13071E+07         0.65613E+06         0.00000E+00
    0.00000E+00         0.00000E+00         0.00000E+00
 
   -0.14067E+06         0.13306E+07         0.00000E+00
    0.13306E+07         0.64726E+06         0.00000E+00
    0.00000E+00         0.00000E+00         0.00000E+00
 
   -0.12243E+06         0.13537E+07         0.00000E+00
    0.13537E+07         0.63828E+06         0.00000E+00
    0.00000E+00         0.00000E+00         0.00000E+00
 
   -0.10403E+06         0.13764E+07         0.00000E+00
    0.13764E+07         0.62918E+06         0.00000E+00
    0.00000E+00         0.00000E+00         0.00000E+00
 
   -0.85460E+05         0.13986E+07         0.00000E+00
    0.13986E+07         0.61999E+06         0.00000E+00
    0.00000E+00         0.00000E+00         0.00000E+00
 
   -0.66736E+05         0.14205E+07         0.00000E+00
    0.14205E+07         0.61069E+06         0.00000E+00
    0.00000E+00         0.00000E+00         0.00000E+00
 
   -0.47855E+05         0.14419E+07         0.00000E+00
    0.14419E+07         0.60130E+06         0.00000E+00
    0.00000E+00         0.00000E+00         0.00000E+00
 
   -0.28820E+05         0.14628E+07         0.00000E+00
    0.14628E+07         0.59181E+06         0.00000E+00
    0.00000E+00         0.00000E+00         0.00000E+00
 
   -0.96320E+04         0.14834E+07         0.00000E+00
    0.14834E+07         0.58223E+06         0.00000E+00
    0.00000E+00         0.00000E+00         0.00000E+00
 
   -0.62538E+06         0.18421E+05         0.00000E+00
    0.18421E+05         0.76902E+06         0.00000E+00
    0.00000E+00         0.00000E+00         0.00000E+00
 
   -0.61890E+06         0.54756E+05         0.00000E+00
    0.54756E+05         0.76873E+06         0.00000E+00
    0.00000E+00         0.00000E+00         0.00000E+00
 
   -0.61208E+06         0.90893E+05         0.00000E+00
    0.90893E+05         0.76815E+06         0.00000E+00
    0.00000E+00         0.00000E+00         0.00000E+00
 
   -0.60492E+06         0.12682E+06         0.00000E+00
    0.12682E+06         0.76730E+06         0.00000E+00
    0.00000E+00         0.00000E+00         0.00000E+00
 
   -0.59744E+06         0.16254E+06         0.00000E+00
    0.16254E+06         0.76617E+06         0.00000E+00
    0.00000E+00         0.00000E+00         0.00000E+00
 
   -0.58963E+06         0.19802E+06         0.00000E+00
    0.19802E+06         0.76478E+06         0.00000E+00
    0.00000E+00         0.00000E+00         0.00000E+00
 
   -0.58151E+06         0.23327E+06         0.00000E+00
    0.23327E+06         0.76312E+06         0.00000E+00
    0.00000E+00         0.00000E+00         0.00000E+00
 
   -0.57308E+06         0.26828E+06         0.00000E+00
    0.26828E+06         0.76120E+06         0.00000E+00
    0.00000E+00         0.00000E+00         0.00000E+00
 
   -0.56434E+06         0.30303E+06         0.00000E+00
    0.30303E+06         0.75903E+06         0.00000E+00
    0.00000E+00         0.00000E+00         0.00000E+00
 
   -0.55531E+06         0.33752E+06         0.00000E+00
    0.33752E+06         0.75662E+06         0.00000E+00
    0.00000E+00         0.00000E+00         0.00000E+00
 
   -0.54599E+06         0.37175E+06         0.00000E+00
    0.37175E+06         0.75396E+06         0.00000E+00
    0.00000E+00         0.00000E+00         0.00000E+00
 
   -0.53638E+06         0.40570E+06         0.00000E+00
    0.40570E+06         0.75106E+06         0.00000E+00
    0.00000E+00         0.00000E+00         0.00000E+00
 
   -0.52648E+06         0.43936E+06         0.00000E+00
    0.43936E+06         0.74793E+06         0.00000E+00
    0.00000E+00         0.00000E+00         0.00000E+00
 
   -0.51632E+06         0.47274E+06         0.00000E+00
    0.47274E+06         0.74458E+06         0.00000E+00
    0.00000E+00         0.00000E+00         0.00000E+00
 
   -0.50589E+06         0.50581E+06         0.00000E+00
    0.50581E+06         0.74100E+06         0.00000E+00
    0.00000E+00         0.00000E+00         0.00000E+00
 
   -0.49519E+06         0.53859E+06         0.00000E+00
    0.53859E+06         0.73721E+06         0.00000E+00
    0.00000E+00         0.00000E+00         0.00000E+00
 
   -0.48424E+06         0.57105E+06         0.00000E+00
    0.57105E+06         0.73321E+06         0.00000E+00
    0.00000E+00         0.00000E+00         0.00000E+00
 
   -0.47303E+06         0.60319E+06         0.00000E+00
    0.60319E+06         0.72900E+06         0.00000E+00
    0.00000E+00         0.00000E+00         0.00000E+00
 
   -0.46158E+06         0.63502E+06         0.00000E+00
    0.63502E+06         0.72459E+06         0.00000E+00
    0.00000E+00         0.00000E+00         0.00000E+00
 
   -0.44989E+06         0.66651E+06         0.00000E+00
    0.66651E+06         0.71998E+06         0.00000E+00
    0.00000E+00         0.00000E+00         0.00000E+00
 
   -0.43796E+06         0.69768E+06         0.00000E+00
    0.69768E+06         0.71518E+06         0.00000E+00
    0.00000E+00         0.00000E+00         0.00000E+00
 
   -0.42580E+06         0.72850E+06         0.00000E+00
    0.72850E+06         0.71020E+06         0.00000E+00
    0.00000E+00         0.00000E+00         0.00000E+00
 
   -0.41342E+06         0.75898E+06         0.00000E+00
    0.75898E+06         0.70503E+06         0.00000E+00
    0.00000E+00         0.00000E+00         0.00000E+00
 
   -0.40081E+06         0.78911E+06         0.00000E+00
    0.78911E+06         0.69969E+06         0.00000E+00
    0.00000E+00         0.00000E+00         0.00000E+00
 
   -0.38799E+06         0.81889E+06         0.00000E+00
    0.81889E+06         0.69417E+06         0.00000E+00
    0.00000E+00         0.00000E+00         0.00000E+00
 
   -0.37496E+06         0.84831E+06         0.00000E+00
    0.84831E+06         0.68849E+06         0.00000E+00
    0.00000E+00         0.00000E+00         0.00000E+00
 
   -0.36172E+06         0.87736E+06         0.00000E+00
    0.87736E+06         0.68265E+06         0.00000E+00
    0.00000E+00         0.00000E+00         0.00000E+00
 
   -0.34828E+06         0.90606E+06         0.00000E+00
    0.90606E+06         0.67665E+06         0.00000E+00
    0.00000E+00         0.00000E+00         0.00000E+00
 
   -0.33464E+06         0.93438E+06         0.00000E+00
    0.93438E+06         0.67049E+06         0.00000E+00
    0.00000E+00         0.00000E+00         0.00000E+00
 
   -0.32080E+06         0.96233E+06         0.00000E+00
    0.96233E+06         0.66419E+06         0.00000E+00
    0.00000E+00         0.00000E+00         0.00000E+00
 
   -0.30678E+06         0.98990E+06         0.00000E+00
    0.98990E+06         0.65773E+06         0.00000E+00
    0.00000E+00         0.00000E+00         0.00000E+00
 
   -0.29257E+06         0.10171E+07         0.00000E+00
    0.10171E+07         0.65114E+06         0.00000E+00
    0.00000E+00         0.00000E+00         0.00000E+00
 
   -0.27818E+06         0.10439E+07         0.00000E+00
    0.10439E+07         0.64441E+06         0.00000E+00
    0.00000E+00         0.00000E+00         0.00000E+00
 
   -0.26360E+06         0.10703E+07         0.00000E+00
    0.10703E+07         0.63755E+06         0.00000E+00
    0.00000E+00         0.00000E+00         0.00000E+00
 
   -0.24886E+06         0.10963E+07         0.00000E+00
    0.10963E+07         0.63056E+06         0.00000E+00
    0.00000E+00         0.00000E+00         0.00000E+00
 
   -0.23394E+06         0.11220E+07         0.00000E+00
    0.11220E+07         0.62345E+06         0.00000E+00
    0.00000E+00         0.00000E+00         0.00000E+00
 
   -0.21885E+06         0.11472E+07         0.00000E+00
    0.11472E+07         0.61621E+06         0.00000E+00
    0.00000E+00         0.00000E+00         0.00000E+00
 
   -0.20359E+06         0.11720E+07         0.00000E+00
    0.11720E+07         0.60885E+06         0.00000E+00
    0.00000E+00         0.00000E+00         0.00000E+00
 
   -0.18817E+06         0.11965E+07         0.00000E+00
    0.11965E+07         0.60138E+06         0.00000E+00
    0.00000E+00         0.00000E+00         0.00000E+00
 
   -0.17260E+06         0.12205E+07         0.00000E+00
    0.12205E+07         0.59380E+06         0.00000E+00
    0.00000E+00         0.00000E+00         0.00000E+00
 
   -0.15686E+06         0.12441E+07         0.00000E+00
    0.12441E+07         0.58612E+06         0.00000E+00
    0.00000E+00         0.00000E+00         0.00000E+00
 
   -0.14097E+06         0.12673E+07         0.00000E+00
    0.12673E+07         0.57833E+06         0.00000E+00
    0.00000E+00         0.00000E+00         0.00000E+00
 
   -0.12493E+06         0.12901E+07         0.00000E+00
    0.12901E+07         0.57043E+06         0.00000E+00
    0.00000E+00         0.00000E+00         0.00000E+00
 
   -0.10874E+06         0.13125E+07         0.00000E+00
    0.13125E+07         0.56244E+06         0.00000E+00
    0.00000E+00         0.00000E+00         0.00000E+00
 
   -0.92398E+05         0.13345E+07         0.00000E+00
    0.13345E+07         0.55436E+06         0.00000E+00
    0.00000E+00         0.00000E+00         0.00000E+00
 
   -0.75913E+05         0.13560E+07         0.00000E+00
    0.13560E+07         0.54618E+06         0.00000E+00
    0.00000E+00         0.00000E+00         0.00000E+00
 
   -0.59285E+05         0.13772E+07         0.00000E+00
    0.13772E+07         0.53792E+06         0.00000E+00
    0.00000E+00         0.00000E+00         0.00000E+00
 
   -0.42515E+05         0.13979E+07         0.00000E+00
    0.13979E+07         0.52956E+06         0.00000E+00
    0.00000E+00         0.00000E+00         0.00000E+00
 
   -0.25605E+05         0.14182E+07         0.00000E+00
    0.14182E+07         0.52113E+06         0.00000E+00
    0.00000E+00         0.00000E+00         0.00000E+00
 
   -0.85579E+04         0.14380E+07         0.00000E+00
    0.14380E+07         0.51261E+06         0.00000E+00
    0.00000E+00         0.00000E+00         0.00000E+00
 
   -0.54465E+06         0.17849E+05         0.00000E+00
    0.17849E+05         0.67043E+06         0.00000E+00
    0.00000E+00         0.00000E+00         0.00000E+00
 
   -0.53909E+06         0.53078E+05         0.00000E+00
    0.53078E+05         0.67017E+06         0.00000E+00
    0.00000E+00         0.00000E+00         0.00000E+00
 
   -0.53324E+06         0.88122E+05         0.00000E+00
    0.88122E+05         0.66967E+06         0.00000E+00
    0.00000E+00         0.00000E+00         0.00000E+00
 
   -0.52709E+06         0.12297E+06         0.00000E+00
    0.12297E+06         0.66893E+06         0.00000E+00
    0.00000E+00         0.00000E+00         0.00000E+00
 
   -0.52065E+06         0.15762E+06         0.00000E+00
    0.15762E+06         0.66795E+06         0.00000E+00
    0.00000E+00         0.00000E+00         0.00000E+00
 
   -0.51393E+06         0.19206E+06         0.00000E+00
    0.19206E+06         0.66673E+06         0.00000E+00
    0.00000E+00         0.00000E+00         0.00000E+00
 
   -0.50693E+06         0.22627E+06         0.00000E+00
    0.22627E+06         0.66529E+06         0.00000E+00
    0.00000E+00         0.00000E+00         0.00000E+00
 
   -0.49966E+06         0.26026E+06         0.00000E+00
    0.26026E+06         0.66362E+06         0.00000E+00
    0.00000E+00         0.00000E+00         0.00000E+00
 
   -0.49212E+06         0.29401E+06         0.00000E+00
    0.29401E+06         0.66173E+06         0.00000E+00
    0.00000E+00         0.00000E+00         0.00000E+00
 
   -0.48432E+06         0.32751E+06         0.00000E+00
    0.32751E+06         0.65962E+06         0.00000E+00
    0.00000E+00         0.00000E+00         0.00000E+00
 
   -0.47627E+06         0.36075E+06         0.00000E+00
    0.36075E+06         0.65730E+06         0.00000E+00
    0.00000E+00         0.00000E+00         0.00000E+00
 
   -0.46795E+06         0.39374E+06         0.00000E+00
    0.39374E+06         0.65477E+06         0.00000E+00
    0.00000E+00         0.00000E+00         0.00000E+00
 
   -0.45940E+06         0.42646E+06         0.00000E+00
    0.42646E+06         0.65204E+06         0.00000E+00
    0.00000E+00         0.00000E+00         0.00000E+00
 
   -0.45060E+06         0.45890E+06         0.00000E+00
    0.45890E+06         0.64911E+06         0.00000E+00
    0.00000E+00         0.00000E+00         0.00000E+00
 
   -0.44156E+06         0.49105E+06         0.00000E+00
    0.49105E+06         0.64598E+06         0.00000E+00
    0.00000E+00         0.00000E+00         0.00000E+00
 
   -0.43229E+06         0.52292E+06         0.00000E+00
    0.52292E+06         0.64267E+06         0.00000E+00
    0.00000E+00         0.00000E+00         0.00000E+00
 
   -0.42279E+06         0.55449E+06         0.00000E+00
    0.55449E+06         0.63917E+06         0.00000E+00
    0.00000E+00         0.00000E+00         0.00000E+00
 
   -0.41307E+06         0.58576E+06         0.00000E+00
    0.58576E+06         0.63549E+06         0.00000E+00
    0.00000E+00         0.00000E+00         0.00000E+00
 
   -0.40313E+06         0.61672E+06         0.00000E+00
    0.61672E+06         0.63163E+06         0.00000E+00
    0.00000E+00         0.00000E+00         0.00000E+00
 
   -0.39297E+06         0.64736E+06         0.00000E+00
    0.64736E+06         0.62760E+06         0.00000E+00
    0.00000E+00         0.00000E+00         0.00000E+00
 
   -0.38261E+06         0.67768E+06         0.00000E+00
    0.67768E+06         0.62340E+06         0.00000E+00
    0.00000E+00         0.00000E+00         0.00000E+00
 
   -0.37204E+06         0.70768E+06         0.00000E+00
    0.70768E+06         0.61904E+06         0.00000E+00
    0.00000E+00         0.00000E+00         0.00000E+00
 
   -0.36127E+06         0.73734E+06         0.00000E+00
    0.73734E+06         0.61452E+06         0.00000E+00
    0.00000E+00         0.00000E+00         0.00000E+00
 
   -0.35030E+06         0.76667E+06         0.00000E+00
    0.76667E+06         0.60984E+06         0.00000E+00
    0.00000E+00         0.00000E+00         0.00000E+00
 
   -0.33914E+06         0.79566E+06         0.00000E+00
    0.79566E+06         0.60501E+06         0.00000E+00
    0.00000E+00         0.00000E+00         0.00000E+00
 
   -0.32779E+06         0.82430E+06         0.00000E+00
    0.82430E+06         0.60004E+06         0.00000E+00
    0.00000E+00         0.00000E+00         0.00000E+00
 
   -0.31626E+06         0.85259E+06         0.00000E+00
    0.85259E+06         0.59492E+06         0.00000E+00
    0.00000E+00         0.00000E+00         0.00000E+00
 
   -0.30454E+06         0.88052E+06         0.00000E+00
    0.88052E+06         0.58966E+06         0.00000E+00
    0.00000E+00         0.00000E+00         0.00000E+00
 
   -0.29265E+06         0.90810E+06         0.00000E+00
    0.90810E+06         0.58427E+06         0.00000E+00
    0.00000E+00         0.00000E+00         0.00000E+00
 
   -0.28058E+06         0.93531E+06         0.00000E+00
    0.93531E+06         0.57874E+06         0.00000E+00
    0.00000E+00         0.00000E+00         0.00000E+00
 
   -0.26835E+06         0.96215E+06         0.00000E+00
    0.96215E+06         0.57309E+06         0.00000E+00
    0.00000E+00         0.00000E+00         0.00000E+00
 
   -0.25595E+06         0.98863E+06         0.00000E+00
    0.98863E+06         0.56731E+06         0.00000E+00
    0.00000E+00         0.00000E+00         0.00000E+00
 
   -0.24338E+06         0.10147E+07         0.00000E+00
    0.10147E+07         0.56141E+06         0.00000E+00
    0.00000E+00         0.00000E+00         0.00000E+00
 
   -0.23066E+06         0.10404E+07         0.00000E+00
    0.10404E+07         0.55540E+06         0.00000E+00
    0.00000E+00         0.00000E+00         0.00000E+00
 
   -0.21777E+06         0.10658E+07         0.00000E+00
    0.10658E+07         0.54927E+06         0.00000E+00
    0.00000E+00         0.00000E+00         0.00000E+00
 
   -0.20474E+06         0.10907E+07         0.00000E+00
    0.10907E+07         0.54303E+06         0.00000E+00
    0.00000E+00         0.00000E+00         0.00000E+00
 
   -0.19155E+06         0.11153E+07         0.00000E+00
    0.11153E+07         0.53668E+06         0.00000E+00
    0.00000E+00         0.00000E+00         0.00000E+00
 
   -0.17821E+06         0.11395E+07         0.00000E+00
    0.11395E+07         0.53024E+06         0.00000E+00
    0.00000E+00         0.00000E+00         0.00000E+00
 
   -0.16473E+06         0.11632E+07         0.00000E+00
    0.11632E+07         0.52369E+06         0.00000E+00
    0.00000E+00         0.00000E+00         0.00000E+00
 
   -0.15111E+06         0.11866E+07         0.00000E+00
    0.11866E+07         0.51704E+06         0.00000E+00
    0.00000E+00         0.00000E+00         0.00000E+00
 
   -0.13734E+06         0.12096E+07         0.00000E+00
    0.12096E+07         0.51030E+06         0.00000E+00
    0.00000E+00         0.00000E+00         0.00000E+00
 
   -0.12344E+06         0.12322E+07         0.00000E+00
    0.12322E+07         0.50347E+06         0.00000E+00
    0.00000E+00         0.00000E+00         0.00000E+00
 
   -0.10940E+06         0.12544E+07         0.00000E+00
    0.12544E+07         0.49655E+06         0.00000E+00
    0.00000E+00         0.00000E+00         0.00000E+00
 
   -0.95229E+05         0.12761E+07         0.00000E+00
    0.12761E+07         0.48954E+06         0.00000E+00
    0.00000E+00         0.00000E+00         0.00000E+00
 
   -0.80925E+05         0.12975E+07         0.00000E+00
    0.12975E+07         0.48246E+06         0.00000E+00
    0.00000E+00         0.00000E+00         0.00000E+00
 
   -0.66491E+05         0.13184E+07         0.00000E+00
    0.13184E+07         0.47529E+06         0.00000E+00
    0.00000E+00         0.00000E+00         0.00000E+00
 
   -0.51929E+05         0.13390E+07         0.00000E+00
    0.13390E+07         0.46805E+06         0.00000E+00
    0.00000E+00         0.00000E+00         0.00000E+00
 
   -0.37242E+05         0.13591E+07         0.00000E+00
    0.13591E+07         0.46073E+06         0.00000E+00
    0.00000E+00         0.00000E+00         0.00000E+00
 
   -0.22431E+05         0.13788E+07         0.00000E+00
    0.13788E+07         0.45334E+06         0.00000E+00
    0.00000E+00         0.00000E+00         0.00000E+00
 
   -0.74972E+04         0.13980E+07         0.00000E+00
    0.13980E+07         0.44587E+06         0.00000E+00
    0.00000E+00         0.00000E+00         0.00000E+00
 
   -0.46630E+06         0.17355E+05         0.00000E+00
    0.17355E+05         0.57464E+06         0.00000E+00
    0.00000E+00         0.00000E+00         0.00000E+00
 
   -0.46161E+06         0.51626E+05         0.00000E+00
    0.51626E+05         0.57443E+06         0.00000E+00
    0.00000E+00         0.00000E+00         0.00000E+00
 
   -0.45665E+06         0.85724E+05         0.00000E+00
    0.85724E+05         0.57400E+06         0.00000E+00
    0.00000E+00         0.00000E+00         0.00000E+00
 
   -0.45144E+06         0.11964E+06         0.00000E+00
    0.11964E+06         0.57337E+06         0.00000E+00
    0.00000E+00         0.00000E+00         0.00000E+00
 
   -0.44599E+06         0.15337E+06         0.00000E+00
    0.15337E+06         0.57253E+06         0.00000E+00
    0.00000E+00         0.00000E+00         0.00000E+00
 
   -0.44029E+06         0.18689E+06         0.00000E+00
    0.18689E+06         0.57149E+06         0.00000E+00
    0.00000E+00         0.00000E+00         0.00000E+00
 
   -0.43435E+06         0.22021E+06         0.00000E+00
    0.22021E+06         0.57025E+06         0.00000E+00
    0.00000E+00         0.00000E+00         0.00000E+00
 
   -0.42818E+06         0.25331E+06         0.00000E+00
    0.25331E+06         0.56882E+06         0.00000E+00
    0.00000E+00         0.00000E+00         0.00000E+00
 
   -0.42177E+06         0.28618E+06         0.00000E+00
    0.28618E+06         0.56720E+06         0.00000E+00
    0.00000E+00         0.00000E+00         0.00000E+00
 
   -0.41514E+06         0.31882E+06         0.00000E+00
    0.31882E+06         0.56539E+06         0.00000E+00
    0.00000E+00         0.00000E+00         0.00000E+00
 
   -0.40828E+06         0.35122E+06         0.00000E+00
    0.35122E+06         0.56340E+06         0.00000E+00
    0.00000E+00         0.00000E+00         0.00000E+00
 
   -0.40121E+06         0.38337E+06         0.00000E+00
    0.38337E+06         0.56123E+06         0.00000E+00
    0.00000E+00         0.00000E+00         0.00000E+00
 
   -0.39392E+06         0.41526E+06         0.00000E+00
    0.41526E+06         0.55889E+06         0.00000E+00
    0.00000E+00         0.00000E+00         0.00000E+00
 
   -0.38643E+06         0.44688E+06         0.00000E+00
    0.44688E+06         0.55637E+06         0.00000E+00
    0.00000E+00         0.00000E+00         0.00000E+00
 
   -0.37872E+06         0.47824E+06         0.00000E+00
    0.47824E+06         0.55369E+06         0.00000E+00
    0.00000E+00         0.00000E+00         0.00000E+00
 
   -0.37082E+06         0.50932E+06         0.00000E+00
    0.50932E+06         0.55085E+06         0.00000E+00
    0.00000E+00         0.00000E+00         0.00000E+00
 
   -0.36271E+06         0.54011E+06         0.00000E+00
    0.54011E+06         0.54784E+06         0.00000E+00
    0.00000E+00         0.00000E+00         0.00000E+00
 
   -0.35442E+06         0.57061E+06         0.00000E+00
    0.57061E+06         0.54468E+06         0.00000E+00
    0.00000E+00         0.00000E+00         0.00000E+00
 
   -0.34593E+06         0.60081E+06         0.00000E+00
    0.60081E+06         0.54137E+06         0.00000E+00
    0.00000E+00         0.00000E+00         0.00000E+00
 
   -0.33725E+06         0.63071E+06         0.00000E+00
    0.63071E+06         0.53790E+06         0.00000E+00
    0.00000E+00         0.00000E+00         0.00000E+00
 
   -0.32840E+06         0.66030E+06         0.00000E+00
    0.66030E+06         0.53430E+06         0.00000E+00
    0.00000E+00         0.00000E+00         0.00000E+00
 
   -0.31936E+06         0.68958E+06         0.00000E+00
    0.68958E+06         0.53055E+06         0.00000E+00
    0.00000E+00         0.00000E+00         0.00000E+00
 
   -0.31015E+06         0.71853E+06         0.00000E+00
    0.71853E+06         0.52666E+06         0.00000E+00
    0.00000E+00         0.00000E+00         0.00000E+00
 
   -0.30076E+06         0.74716E+06         0.00000E+00
    0.74716E+06         0.52264E+06         0.00000E+00
    0.00000E+00         0.00000E+00         0.00000E+00
 
   -0.29121E+06         0.77546E+06         0.00000E+00
    0.77546E+06         0.51849E+06         0.00000E+00
    0.00000E+00         0.00000E+00         0.00000E+00
 
   -0.28150E+06         0.80342E+06         0.00000E+00
    0.80342E+06         0.51421E+06         0.00000E+00
    0.00000E+00         0.00000E+00         0.00000E+00
 
   -0.27162E+06         0.83104E+06         0.00000E+00
    0.83104E+06         0.50981E+06         0.00000E+00
    0.00000E+00         0.00000E+00         0.00000E+00
 
   -0.26158E+06         0.85831E+06         0.00000E+00
    0.85831E+06         0.50528E+06         0.00000E+00
    0.00000E+00         0.00000E+00         0.00000E+00
 
   -0.25139E+06         0.88524E+06         0.00000E+00
    0.88524E+06         0.50064E+06         0.00000E+00
    0.00000E+00         0.00000E+00         0.00000E+00
 
   -0.24105E+06         0.91181E+06         0.00000E+00
    0.91181E+06         0.49589E+06         0.00000E+00
    0.00000E+00         0.00000E+00         0.00000E+00
 
   -0.23056E+06         0.93802E+06         0.00000E+00
    0.93802E+06         0.49103E+06         0.00000E+00
    0.00000E+00         0.00000E+00         0.00000E+00
 
   -0.21993E+06         0.96387E+06         0.00000E+00
    0.96387E+06         0.48606E+06         0.00000E+00
    0.00000E+00         0.00000E+00         0.00000E+00
 
   -0.20915E+06         0.98935E+06         0.00000E+00
    0.98935E+06         0.48098E+06         0.00000E+00
    0.00000E+00         0.00000E+00         0.00000E+00
 
   -0.19823E+06         0.10145E+07         0.00000E+00
    0.10145E+07         0.47581E+06         0.00000E+00
    0.00000E+00         0.00000E+00         0.00000E+00
 
   -0.18717E+06         0.10392E+07         0.00000E+00
    0.10392E+07         0.47053E+06         0.00000E+00
    0.00000E+00         0.00000E+00         0.00000E+00
 
   -0.17598E+06         0.10636E+07         0.00000E+00
    0.10636E+07         0.46516E+06         0.00000E+00
    0.00000E+00         0.00000E+00         0.00000E+00
 
   -0.16466E+06         0.10875E+07         0.00000E+00
    0.10875E+07         0.45970E+06         0.00000E+00
    0.00000E+00         0.00000E+00         0.00000E+00
 
   -0.15321E+06         0.11111E+07         0.00000E+00
    0.11111E+07         0.45415E+06         0.00000E+00
    0.00000E+00         0.00000E+00         0.00000E+00
 
   -0.14163E+06         0.11343E+07         0.00000E+00
    0.11343E+07         0.44851E+06         0.00000E+00
    0.00000E+00         0.00000E+00         0.00000E+00
 
   -0.12992E+06         0.11572E+07         0.00000E+00
    0.11572E+07         0.44279E+06         0.00000E+00
    0.00000E+00         0.00000E+00         0.00000E+00
 
   -0.11810E+06         0.11796E+07         0.00000E+00
    0.11796E+07         0.43699E+06         0.00000E+00
    0.00000E+00         0.00000E+00         0.00000E+00
 
   -0.10615E+06         0.12016E+07         0.00000E+00
    0.12016E+07         0.43111E+06         0.00000E+00
    0.00000E+00         0.00000E+00         0.00000E+00
 
   -0.94081E+05         0.12232E+07         0.00000E+00
    0.12232E+07         0.42516E+06         0.00000E+00
    0.00000E+00         0.00000E+00         0.00000E+00
 
   -0.81898E+05         0.12445E+07         0.00000E+00
    0.12445E+07         0.41913E+06         0.00000E+00
    0.00000E+00         0.00000E+00         0.00000E+00
 
   -0.69600E+05         0.12653E+07         0.00000E+00
    0.12653E+07         0.41303E+06         0.00000E+00
    0.00000E+00         0.00000E+00         0.00000E+00
 
   -0.57189E+05         0.12857E+07         0.00000E+00
    0.12857E+07         0.40686E+06         0.00000E+00
    0.00000E+00         0.00000E+00         0.00000E+00
 
   -0.44666E+05         0.13057E+07         0.00000E+00
    0.13057E+07         0.40063E+06         0.00000E+00
    0.00000E+00         0.00000E+00         0.00000E+00
 
   -0.32035E+05         0.13253E+07         0.00000E+00
    0.13253E+07         0.39433E+06         0.00000E+00
    0.00000E+00         0.00000E+00         0.00000E+00
 
   -0.19295E+05         0.13445E+07         0.00000E+00
    0.13445E+07         0.38797E+06         0.00000E+00
    0.00000E+00         0.00000E+00         0.00000E+00
 
   -0.64493E+04         0.13633E+07         0.00000E+00
    0.13633E+07         0.38155E+06         0.00000E+00
    0.00000E+00         0.00000E+00         0.00000E+00
 
   -0.39001E+06         0.16936E+05         0.00000E+00
    0.16936E+05         0.48126E+06         0.00000E+00
    0.00000E+00         0.00000E+00         0.00000E+00
 
   -0.38612E+06         0.50395E+05         0.00000E+00
    0.50395E+05         0.48108E+06         0.00000E+00
    0.00000E+00         0.00000E+00         0.00000E+00
 
   -0.38201E+06         0.83690E+05         0.00000E+00
    0.83690E+05         0.48072E+06         0.00000E+00
    0.00000E+00         0.00000E+00         0.00000E+00
 
   -0.37770E+06         0.11681E+06         0.00000E+00
    0.11681E+06         0.48019E+06         0.00000E+00
    0.00000E+00         0.00000E+00         0.00000E+00
 
   -0.37317E+06         0.14975E+06         0.00000E+00
    0.14975E+06         0.47949E+06         0.00000E+00
    0.00000E+00         0.00000E+00         0.00000E+00
 
   -0.36844E+06         0.18251E+06         0.00000E+00
    0.18251E+06         0.47862E+06         0.00000E+00
    0.00000E+00         0.00000E+00         0.00000E+00
 
   -0.36351E+06         0.21506E+06         0.00000E+00
    0.21506E+06         0.47758E+06         0.00000E+00
    0.00000E+00         0.00000E+00         0.00000E+00
 
   -0.35838E+06         0.24740E+06         0.00000E+00
    0.24740E+06         0.47639E+06         0.00000E+00
    0.00000E+00         0.00000E+00         0.00000E+00
 
   -0.35305E+06         0.27953E+06         0.00000E+00
    0.27953E+06         0.47503E+06         0.00000E+00
    0.00000E+00         0.00000E+00         0.00000E+00
 
   -0.34753E+06         0.31144E+06         0.00000E+00
    0.31144E+06         0.47352E+06         0.00000E+00
    0.00000E+00         0.00000E+00         0.00000E+00
 
   -0.34183E+06         0.34311E+06         0.00000E+00
    0.34311E+06         0.47185E+06         0.00000E+00
    0.00000E+00         0.00000E+00         0.00000E+00
 
   -0.33594E+06         0.37454E+06         0.00000E+00
    0.37454E+06         0.47004E+06         0.00000E+00
    0.00000E+00         0.00000E+00         0.00000E+00
 
   -0.32987E+06         0.40573E+06         0.00000E+00
    0.40573E+06         0.46807E+06         0.00000E+00
    0.00000E+00         0.00000E+00         0.00000E+00
 
   -0.32362E+06         0.43667E+06         0.00000E+00
    0.43667E+06         0.46597E+06         0.00000E+00
    0.00000E+00         0.00000E+00         0.00000E+00
 
   -0.31720E+06         0.46734E+06         0.00000E+00
    0.46734E+06         0.46372E+06         0.00000E+00
    0.00000E+00         0.00000E+00         0.00000E+00
 
   -0.31061E+06         0.49774E+06         0.00000E+00
    0.49774E+06         0.46133E+06         0.00000E+00
    0.00000E+00         0.00000E+00         0.00000E+00
 
   -0.30385E+06         0.52787E+06         0.00000E+00
    0.52787E+06         0.45882E+06         0.00000E+00
    0.00000E+00         0.00000E+00         0.00000E+00
 
   -0.29692E+06         0.55772E+06         0.00000E+00
    0.55772E+06         0.45617E+06         0.00000E+00
    0.00000E+00         0.00000E+00         0.00000E+00
 
   -0.28984E+06         0.58728E+06         0.00000E+00
    0.58728E+06         0.45339E+06         0.00000E+00
    0.00000E+00         0.00000E+00         0.00000E+00
 
   -0.28259E+06         0.61654E+06         0.00000E+00
    0.61654E+06         0.45048E+06         0.00000E+00
    0.00000E+00         0.00000E+00         0.00000E+00
 
   -0.27520E+06         0.64551E+06         0.00000E+00
    0.64551E+06         0.44746E+06         0.00000E+00
    0.00000E+00         0.00000E+00         0.00000E+00
 
   -0.26765E+06         0.67417E+06         0.00000E+00
    0.67417E+06         0.44431E+06         0.00000E+00
    0.00000E+00         0.00000E+00         0.00000E+00
 
   -0.25995E+06         0.70252E+06         0.00000E+00
    0.70252E+06         0.44105E+06         0.00000E+00
    0.00000E+00         0.00000E+00         0.00000E+00
 
   -0.25210E+06         0.73055E+06         0.00000E+00
    0.73055E+06         0.43768E+06         0.00000E+00
    0.00000E+00         0.00000E+00         0.00000E+00
 
   -0.24412E+06         0.75826E+06         0.00000E+00
    0.75826E+06         0.43420E+06         0.00000E+00
    0.00000E+00         0.00000E+00         0.00000E+00
 
   -0.23599E+06         0.78564E+06         0.00000E+00
    0.78564E+06         0.43061E+06         0.00000E+00
    0.00000E+00         0.00000E+00         0.00000E+00
 
   -0.22773E+06         0.81269E+06         0.00000E+00
    0.81269E+06         0.42691E+06         0.00000E+00
    0.00000E+00         0.00000E+00         0.00000E+00
 
   -0.21933E+06         0.83940E+06         0.00000E+00
    0.83940E+06         0.42312E+06         0.00000E+00
    0.00000E+00         0.00000E+00         0.00000E+00
 
   -0.21080E+06         0.86577E+06         0.00000E+00
    0.86577E+06         0.41922E+06         0.00000E+00
    0.00000E+00         0.00000E+00         0.00000E+00
 
   -0.20214E+06         0.89179E+06         0.00000E+00
    0.89179E+06         0.41523E+06         0.00000E+00
    0.00000E+00         0.00000E+00         0.00000E+00
 
   -0.19336E+06         0.91747E+06         0.00000E+00
    0.91747E+06         0.41115E+06         0.00000E+00
    0.00000E+00         0.00000E+00         0.00000E+00
 
   -0.18445E+06         0.94278E+06         0.00000E+00
    0.94278E+06         0.40698E+06         0.00000E+00
    0.00000E+00         0.00000E+00         0.00000E+00
 
   -0.17542E+06         0.96774E+06         0.00000E+00
    0.96774E+06         0.40272E+06         0.00000E+00
    0.00000E+00         0.00000E+00         0.00000E+00
 
   -0.16628E+06         0.99234E+06         0.00000E+00
    0.99234E+06         0.39837E+06         0.00000E+00
    0.00000E+00         0.00000E+00         0.00000E+00
 
   -0.15701E+06         0.10166E+07         0.00000E+00
    0.10166E+07         0.39394E+06         0.00000E+00
    0.00000E+00         0.00000E+00         0.00000E+00
 
   -0.14763E+06         0.10404E+07         0.00000E+00
    0.10404E+07         0.38943E+06         0.00000E+00
    0.00000E+00         0.00000E+00         0.00000E+00
 
   -0.13814E+06         0.10639E+07         0.00000E+00
    0.10639E+07         0.38485E+06         0.00000E+00
    0.00000E+00         0.00000E+00         0.00000E+00
 
   -0.12854E+06         0.10870E+07         0.00000E+00
    0.10870E+07         0.38019E+06         0.00000E+00
    0.00000E+00         0.00000E+00         0.00000E+00
 
   -0.11883E+06         0.11097E+07         0.00000E+00
    0.11097E+07         0.37546E+06         0.00000E+00
    0.00000E+00         0.00000E+00         0.00000E+00
 
   -0.10902E+06         0.11321E+07         0.00000E+00
    0.11321E+07         0.37065E+06         0.00000E+00
    0.00000E+00         0.00000E+00         0.00000E+00
 
   -0.99097E+05         0.11540E+07         0.00000E+00
    0.11540E+07         0.36578E+06         0.00000E+00
    0.00000E+00         0.00000E+00         0.00000E+00
 
   -0.89075E+05         0.11756E+07         0.00000E+00
    0.11756E+07         0.36084E+06         0.00000E+00
    0.00000E+00         0.00000E+00         0.00000E+00
 
   -0.78953E+05         0.11968E+07         0.00000E+00
    0.11968E+07         0.35584E+06         0.00000E+00
    0.00000E+00         0.00000E+00         0.00000E+00
 
   -0.68731E+05         0.12175E+07         0.00000E+00
    0.12175E+07         0.35078E+06         0.00000E+00
    0.00000E+00         0.00000E+00         0.00000E+00
 
   -0.58413E+05         0.12379E+07         0.00000E+00
    0.12379E+07         0.34566E+06         0.00000E+00
    0.00000E+00         0.00000E+00         0.00000E+00
 
   -0.47998E+05         0.12579E+07         0.00000E+00
    0.12579E+07         0.34048E+06         0.00000E+00
    0.00000E+00         0.00000E+00         0.00000E+00
 
   -0.37490E+05         0.12774E+07         0.00000E+00
    0.12774E+07         0.33525E+06         0.00000E+00
    0.00000E+00         0.00000E+00         0.00000E+00
 
   -0.26888E+05         0.12966E+07         0.00000E+00
    0.12966E+07         0.32996E+06         0.00000E+00
    0.00000E+00         0.00000E+00         0.00000E+00
 
   -0.16196E+05         0.13154E+07         0.00000E+00
    0.13154E+07         0.32462E+06         0.00000E+00
    0.00000E+00         0.00000E+00         0.00000E+00
 
   -0.54135E+04         0.13337E+07         0.00000E+00
    0.13337E+07         0.31923E+06         0.00000E+00
    0.00000E+00         0.00000E+00         0.00000E+00
 
   -0.31545E+06         0.16591E+05         0.00000E+00
    0.16591E+05         0.38988E+06         0.00000E+00
    0.00000E+00         0.00000E+00         0.00000E+00
 
   -0.31232E+06         0.49379E+05         0.00000E+00
    0.49379E+05         0.38973E+06         0.00000E+00
    0.00000E+00         0.00000E+00         0.00000E+00
 
   -0.30902E+06         0.82011E+05         0.00000E+00
    0.82011E+05         0.38944E+06         0.00000E+00
    0.00000E+00         0.00000E+00         0.00000E+00
 
   -0.30555E+06         0.11448E+06         0.00000E+00
    0.11448E+06         0.38901E+06         0.00000E+00
    0.00000E+00         0.00000E+00         0.00000E+00
 
   -0.30191E+06         0.14677E+06         0.00000E+00
    0.14677E+06         0.38844E+06         0.00000E+00
    0.00000E+00         0.00000E+00         0.00000E+00
 
   -0.29811E+06         0.17888E+06         0.00000E+00
    0.17888E+06         0.38774E+06         0.00000E+00
    0.00000E+00         0.00000E+00         0.00000E+00
 
   -0.29414E+06         0.21080E+06         0.00000E+00
    0.21080E+06         0.38690E+06         0.00000E+00
    0.00000E+00         0.00000E+00         0.00000E+00
 
   -0.29000E+06         0.24252E+06         0.00000E+00
    0.24252E+06         0.38593E+06         0.00000E+00
    0.00000E+00         0.00000E+00         0.00000E+00
 
   -0.28571E+06         0.27404E+06         0.00000E+00
    0.27404E+06         0.38483E+06         0.00000E+00
    0.00000E+00         0.00000E+00         0.00000E+00
 
   -0.28127E+06         0.30534E+06         0.00000E+00
    0.30534E+06         0.38361E+06         0.00000E+00
    0.00000E+00         0.00000E+00         0.00000E+00
 
   -0.27667E+06         0.33641E+06         0.00000E+00
    0.33641E+06         0.38226E+06         0.00000E+00
    0.00000E+00         0.00000E+00         0.00000E+00
 
   -0.27192E+06         0.36725E+06         0.00000E+00
    0.36725E+06         0.38079E+06         0.00000E+00
    0.00000E+00         0.00000E+00         0.00000E+00
 
   -0.26702E+06         0.39786E+06         0.00000E+00
    0.39786E+06         0.37920E+06         0.00000E+00
    0.00000E+00         0.00000E+00         0.00000E+00
 
   -0.26198E+06         0.42822E+06         0.00000E+00
    0.42822E+06         0.37750E+06         0.00000E+00
    0.00000E+00         0.00000E+00         0.00000E+00
 
   -0.25680E+06         0.45833E+06         0.00000E+00
    0.45833E+06         0.37568E+06         0.00000E+00
    0.00000E+00         0.00000E+00         0.00000E+00
 
   -0.25148E+06         0.48817E+06         0.00000E+00
    0.48817E+06         0.37374E+06         0.00000E+00
    0.00000E+00         0.00000E+00         0.00000E+00
 
   -0.24602E+06         0.51775E+06         0.00000E+00
    0.51775E+06         0.37170E+06         0.00000E+00
    0.00000E+00         0.00000E+00         0.00000E+00
 
   -0.24043E+06         0.54706E+06         0.00000E+00
    0.54706E+06         0.36956E+06         0.00000E+00
    0.00000E+00         0.00000E+00         0.00000E+00
 
   -0.23470E+06         0.57608E+06         0.00000E+00
    0.57608E+06         0.36730E+06         0.00000E+00
    0.00000E+00         0.00000E+00         0.00000E+00
 
   -0.22885E+06         0.60482E+06         0.00000E+00
    0.60482E+06         0.36495E+06         0.00000E+00
    0.00000E+00         0.00000E+00         0.00000E+00
 
   -0.22287E+06         0.63327E+06         0.00000E+00
    0.63327E+06         0.36250E+06         0.00000E+00
    0.00000E+00         0.00000E+00         0.00000E+00
 
   -0.21676E+06         0.66142E+06         0.00000E+00
    0.66142E+06         0.35995E+06         0.00000E+00
    0.00000E+00         0.00000E+00         0.00000E+00
 
   -0.21054E+06         0.68927E+06         0.00000E+00
    0.68927E+06         0.35731E+06         0.00000E+00
    0.00000E+00         0.00000E+00         0.00000E+00
 
   -0.20420E+06         0.71681E+06         0.00000E+00
    0.71681E+06         0.35458E+06         0.00000E+00
    0.00000E+00         0.00000E+00         0.00000E+00
 
   -0.19774E+06         0.74403E+06         0.00000E+00
    0.74403E+06         0.35175E+06         0.00000E+00
    0.00000E+00         0.00000E+00         0.00000E+00
 
   -0.19116E+06         0.77093E+06         0.00000E+00
    0.77093E+06         0.34884E+06         0.00000E+00
    0.00000E+00         0.00000E+00         0.00000E+00
 
   -0.18448E+06         0.79751E+06         0.00000E+00
    0.79751E+06         0.34585E+06         0.00000E+00
    0.00000E+00         0.00000E+00         0.00000E+00
 
   -0.17768E+06         0.82375E+06         0.00000E+00
    0.82375E+06         0.34277E+06         0.00000E+00
    0.00000E+00         0.00000E+00         0.00000E+00
 
   -0.17078E+06         0.84966E+06         0.00000E+00
    0.84966E+06         0.33961E+06         0.00000E+00
    0.00000E+00         0.00000E+00         0.00000E+00
 
   -0.16377E+06         0.87524E+06         0.00000E+00
    0.87524E+06         0.33638E+06         0.00000E+00
    0.00000E+00         0.00000E+00         0.00000E+00
 
   -0.15666E+06         0.90046E+06         0.00000E+00
    0.90046E+06         0.33307E+06         0.00000E+00
    0.00000E+00         0.00000E+00         0.00000E+00
 
   -0.14945E+06         0.92534E+06         0.00000E+00
    0.92534E+06         0.32969E+06         0.00000E+00
    0.00000E+00         0.00000E+00         0.00000E+00
 
   -0.14214E+06         0.94987E+06         0.00000E+00
    0.94987E+06         0.32623E+06         0.00000E+00
    0.00000E+00         0.00000E+00         0.00000E+00
 
   -0.13473E+06         0.97403E+06         0.00000E+00
    0.97403E+06         0.32271E+06         0.00000E+00
    0.00000E+00         0.00000E+00         0.00000E+00
 
   -0.12723E+06         0.99784E+06         0.00000E+00
    0.99784E+06         0.31912E+06         0.00000E+00
    0.00000E+00         0.00000E+00         0.00000E+00
 
   -0.11963E+06         0.10213E+07         0.00000E+00
    0.10213E+07         0.31547E+06         0.00000E+00
    0.00000E+00         0.00000E+00         0.00000E+00
 
   -0.11195E+06         0.10444E+07         0.00000E+00
    0.10444E+07         0.31175E+06         0.00000E+00
    0.00000E+00         0.00000E+00         0.00000E+00
 
   -0.10417E+06         0.10671E+07         0.00000E+00
    0.10671E+07         0.30797E+06         0.00000E+00
    0.00000E+00         0.00000E+00         0.00000E+00
 
   -0.96304E+05         0.10894E+07         0.00000E+00
    0.10894E+07         0.30414E+06         0.00000E+00
    0.00000E+00         0.00000E+00         0.00000E+00
 
   -0.88352E+05         0.11113E+07         0.00000E+00
    0.11113E+07         0.30024E+06         0.00000E+00
    0.00000E+00         0.00000E+00         0.00000E+00
 
   -0.80315E+05         0.11329E+07         0.00000E+00
    0.11329E+07         0.29629E+06         0.00000E+00
    0.00000E+00         0.00000E+00         0.00000E+00
 
   -0.72195E+05         0.11541E+07         0.00000E+00
    0.11541E+07         0.29229E+06         0.00000E+00
    0.00000E+00         0.00000E+00         0.00000E+00
 
   -0.63992E+05         0.11749E+07         0.00000E+00
    0.11749E+07         0.28824E+06         0.00000E+00
    0.00000E+00         0.00000E+00         0.00000E+00
 
   -0.55709E+05         0.11953E+07         0.00000E+00
    0.11953E+07         0.28413E+06         0.00000E+00
    0.00000E+00         0.00000E+00         0.00000E+00
 
   -0.47346E+05         0.12153E+07         0.00000E+00
    0.12153E+07         0.27998E+06         0.00000E+00
    0.00000E+00         0.00000E+00         0.00000E+00
 
   -0.38906E+05         0.12349E+07         0.00000E+00
    0.12349E+07         0.27578E+06         0.00000E+00
    0.00000E+00         0.00000E+00         0.00000E+00
 
   -0.30388E+05         0.12541E+07         0.00000E+00
    0.12541E+07         0.27154E+06         0.00000E+00
    0.00000E+00         0.00000E+00         0.00000E+00
 
   -0.21796E+05         0.12729E+07         0.00000E+00
    0.12729E+07         0.26725E+06         0.00000E+00
    0.00000E+00         0.00000E+00         0.00000E+00
 
   -0.13129E+05         0.12913E+07         0.00000E+00
    0.12913E+07         0.26293E+06         0.00000E+00
    0.00000E+00         0.00000E+00         0.00000E+00
 
   -0.43883E+04         0.13093E+07         0.00000E+00
    0.13093E+07         0.25856E+06         0.00000E+00
    0.00000E+00         0.00000E+00         0.00000E+00
 
   -0.24229E+06         0.16317E+05         0.00000E+00
    0.16317E+05         0.30011E+06         0.00000E+00
    0.00000E+00         0.00000E+00         0.00000E+00
 
   -0.23990E+06         0.48573E+05         0.00000E+00
    0.48573E+05         0.29999E+06         0.00000E+00
    0.00000E+00         0.00000E+00         0.00000E+00
 
   -0.23738E+06         0.80680E+05         0.00000E+00
    0.80680E+05         0.29977E+06         0.00000E+00
    0.00000E+00         0.00000E+00         0.00000E+00
 
   -0.23472E+06         0.11263E+06         0.00000E+00
    0.11263E+06         0.29944E+06         0.00000E+00
    0.00000E+00         0.00000E+00         0.00000E+00
 
   -0.23193E+06         0.14441E+06         0.00000E+00
    0.14441E+06         0.29900E+06         0.00000E+00
    0.00000E+00         0.00000E+00         0.00000E+00
 
   -0.22901E+06         0.17601E+06         0.00000E+00
    0.17601E+06         0.29846E+06         0.00000E+00
    0.00000E+00         0.00000E+00         0.00000E+00
 
   -0.22597E+06         0.20743E+06         0.00000E+00
    0.20743E+06         0.29782E+06         0.00000E+00
    0.00000E+00         0.00000E+00         0.00000E+00
 
   -0.22280E+06         0.23866E+06         0.00000E+00
    0.23866E+06         0.29707E+06         0.00000E+00
    0.00000E+00         0.00000E+00         0.00000E+00
 
   -0.21951E+06         0.26968E+06         0.00000E+00
    0.26968E+06         0.29623E+06         0.00000E+00
    0.00000E+00         0.00000E+00         0.00000E+00
 
   -0.21610E+06         0.30050E+06         0.00000E+00
    0.30050E+06         0.29529E+06         0.00000E+00
    0.00000E+00         0.00000E+00         0.00000E+00
 
   -0.21257E+06         0.33110E+06         0.00000E+00
    0.33110E+06         0.29425E+06         0.00000E+00
    0.00000E+00         0.00000E+00         0.00000E+00
 
   -0.20893E+06         0.36147E+06         0.00000E+00
    0.36147E+06         0.29312E+06         0.00000E+00
    0.00000E+00         0.00000E+00         0.00000E+00
 
   -0.20517E+06         0.39161E+06         0.00000E+00
    0.39161E+06         0.29190E+06         0.00000E+00
    0.00000E+00         0.00000E+00         0.00000E+00
 
   -0.20130E+06         0.42152E+06         0.00000E+00
    0.42152E+06         0.29058E+06         0.00000E+00
    0.00000E+00         0.00000E+00         0.00000E+00
 
   -0.19732E+06         0.45118E+06         0.00000E+00
    0.45118E+06         0.28919E+06         0.00000E+00
    0.00000E+00         0.00000E+00         0.00000E+00
 
   -0.19323E+06         0.48058E+06         0.00000E+00
    0.48058E+06         0.28770E+06         0.00000E+00
    0.00000E+00         0.00000E+00         0.00000E+00
 
   -0.18904E+06         0.50972E+06         0.00000E+00
    0.50972E+06         0.28613E+06         0.00000E+00
    0.00000E+00         0.00000E+00         0.00000E+00
 
   -0.18475E+06         0.53860E+06         0.00000E+00
    0.53860E+06         0.28448E+06         0.00000E+00
    0.00000E+00         0.00000E+00         0.00000E+00
 
   -0.18035E+06         0.56720E+06         0.00000E+00
    0.56720E+06         0.28275E+06         0.00000E+00
    0.00000E+00         0.00000E+00         0.00000E+00
 
   -0.17585E+06         0.59553E+06         0.00000E+00
    0.59553E+06         0.28094E+06         0.00000E+00
    0.00000E+00         0.00000E+00         0.00000E+00
 
   -0.17126E+06         0.62357E+06         0.00000E+00
    0.62357E+06         0.27905E+06         0.00000E+00
    0.00000E+00         0.00000E+00         0.00000E+00
 
   -0.16657E+06         0.65131E+06         0.00000E+00
    0.65131E+06         0.27710E+06         0.00000E+00
    0.00000E+00         0.00000E+00         0.00000E+00
 
   -0.16179E+06         0.67876E+06         0.00000E+00
    0.67876E+06         0.27506E+06         0.00000E+00
    0.00000E+00         0.00000E+00         0.00000E+00
 
   -0.15691E+06         0.70591E+06         0.00000E+00
    0.70591E+06         0.27296E+06         0.00000E+00
    0.00000E+00         0.00000E+00         0.00000E+00
 
   -0.15195E+06         0.73274E+06         0.00000E+00
    0.73274E+06         0.27079E+06         0.00000E+00
    0.00000E+00         0.00000E+00         0.00000E+00
 
   -0.14690E+06         0.75927E+06         0.00000E+00
    0.75927E+06         0.26856E+06         0.00000E+00
    0.00000E+00         0.00000E+00         0.00000E+00
 
   -0.14176E+06         0.78547E+06         0.00000E+00
    0.78547E+06         0.26625E+06         0.00000E+00
    0.00000E+00         0.00000E+00         0.00000E+00
 
   -0.13654E+06         0.81135E+06         0.00000E+00
    0.81135E+06         0.26389E+06         0.00000E+00
    0.00000E+00         0.00000E+00         0.00000E+00
 
   -0.13123E+06         0.83689E+06         0.00000E+00
    0.83689E+06         0.26146E+06         0.00000E+00
    0.00000E+00         0.00000E+00         0.00000E+00
 
   -0.12585E+06         0.86211E+06         0.00000E+00
    0.86211E+06         0.25898E+06         0.00000E+00
    0.00000E+00         0.00000E+00         0.00000E+00
 
   -0.12038E+06         0.88698E+06         0.00000E+00
    0.88698E+06         0.25643E+06         0.00000E+00
    0.00000E+00         0.00000E+00         0.00000E+00
 
   -0.11484E+06         0.91151E+06         0.00000E+00
    0.91151E+06         0.25383E+06         0.00000E+00
    0.00000E+00         0.00000E+00         0.00000E+00
 
   -0.10922E+06         0.93570E+06         0.00000E+00
    0.93570E+06         0.25118E+06         0.00000E+00
    0.00000E+00         0.00000E+00         0.00000E+00
 
   -0.10353E+06         0.95953E+06         0.00000E+00
    0.95953E+06         0.24847E+06         0.00000E+00
    0.00000E+00         0.00000E+00         0.00000E+00
 
   -0.97766E+05         0.98300E+06         0.00000E+00
    0.98300E+06         0.24572E+06         0.00000E+00
    0.00000E+00         0.00000E+00         0.00000E+00
 
   -0.91928E+05         0.10061E+07         0.00000E+00
    0.10061E+07         0.24291E+06         0.00000E+00
    0.00000E+00         0.00000E+00         0.00000E+00
 
   -0.86021E+05         0.10289E+07         0.00000E+00
    0.10289E+07         0.24005E+06         0.00000E+00
    0.00000E+00         0.00000E+00         0.00000E+00
 
   -0.80044E+05         0.10512E+07         0.00000E+00
    0.10512E+07         0.23715E+06         0.00000E+00
    0.00000E+00         0.00000E+00         0.00000E+00
 
   -0.74000E+05         0.10733E+07         0.00000E+00
    0.10733E+07         0.23420E+06         0.00000E+00
    0.00000E+00         0.00000E+00         0.00000E+00
 
   -0.67889E+05         0.10949E+07         0.00000E+00
    0.10949E+07         0.23121E+06         0.00000E+00
    0.00000E+00         0.00000E+00         0.00000E+00
 
   -0.61713E+05         0.11161E+07         0.00000E+00
    0.11161E+07         0.22818E+06         0.00000E+00
    0.00000E+00         0.00000E+00         0.00000E+00
 
   -0.55473E+05         0.11370E+07         0.00000E+00
    0.11370E+07         0.22510E+06         0.00000E+00
    0.00000E+00         0.00000E+00         0.00000E+00
 
   -0.49170E+05         0.11575E+07         0.00000E+00
    0.11575E+07         0.22199E+06         0.00000E+00
    0.00000E+00         0.00000E+00         0.00000E+00
 
   -0.42805E+05         0.11776E+07         0.00000E+00
    0.11776E+07         0.21884E+06         0.00000E+00
    0.00000E+00         0.00000E+00         0.00000E+00
 
   -0.36380E+05         0.11973E+07         0.00000E+00
    0.11973E+07         0.21565E+06         0.00000E+00
    0.00000E+00         0.00000E+00         0.00000E+00
 
   -0.29894E+05         0.12166E+07         0.00000E+00
    0.12166E+07         0.21242E+06         0.00000E+00
    0.00000E+00         0.00000E+00         0.00000E+00
 
   -0.23350E+05         0.12356E+07         0.00000E+00
    0.12356E+07         0.20916E+06         0.00000E+00
    0.00000E+00         0.00000E+00         0.00000E+00
 
   -0.16747E+05         0.12541E+07         0.00000E+00
    0.12541E+07         0.20587E+06         0.00000E+00
    0.00000E+00         0.00000E+00         0.00000E+00
 
   -0.10088E+05         0.12722E+07         0.00000E+00
    0.12722E+07         0.20254E+06         0.00000E+00
    0.00000E+00         0.00000E+00         0.00000E+00
 
   -0.33718E+04         0.12899E+07         0.00000E+00
    0.12899E+07         0.19919E+06         0.00000E+00
    0.00000E+00         0.00000E+00         0.00000E+00
 
   -0.17022E+06         0.16114E+05         0.00000E+00
    0.16114E+05         0.21158E+06         0.00000E+00
    0.00000E+00         0.00000E+00         0.00000E+00
 
   -0.16854E+06         0.47974E+05         0.00000E+00
    0.47974E+05         0.21150E+06         0.00000E+00
    0.00000E+00         0.00000E+00         0.00000E+00
 
   -0.16677E+06         0.79689E+05         0.00000E+00
    0.79689E+05         0.21134E+06         0.00000E+00
    0.00000E+00         0.00000E+00         0.00000E+00
 
   -0.16490E+06         0.11125E+06         0.00000E+00
    0.11125E+06         0.21111E+06         0.00000E+00
    0.00000E+00         0.00000E+00         0.00000E+00
 
   -0.16293E+06         0.14265E+06         0.00000E+00
    0.14265E+06         0.21080E+06         0.00000E+00
    0.00000E+00         0.00000E+00         0.00000E+00
 
   -0.16088E+06         0.17387E+06         0.00000E+00
    0.17387E+06         0.21042E+06         0.00000E+00
    0.00000E+00         0.00000E+00         0.00000E+00
 
   -0.15874E+06         0.20492E+06         0.00000E+00
    0.20492E+06         0.20996E+06         0.00000E+00
    0.00000E+00         0.00000E+00         0.00000E+00
 
   -0.15651E+06         0.23578E+06         0.00000E+00
    0.23578E+06         0.20944E+06         0.00000E+00
    0.00000E+00         0.00000E+00         0.00000E+00
 
   -0.15419E+06         0.26644E+06         0.00000E+00
    0.26644E+06         0.20884E+06         0.00000E+00
    0.00000E+00         0.00000E+00         0.00000E+00
 
   -0.15179E+06         0.29690E+06         0.00000E+00
    0.29690E+06         0.20818E+06         0.00000E+00
    0.00000E+00         0.00000E+00         0.00000E+00
 
   -0.14930E+06         0.32715E+06         0.00000E+00
    0.32715E+06         0.20745E+06         0.00000E+00
    0.00000E+00         0.00000E+00         0.00000E+00
 
   -0.14673E+06         0.35718E+06         0.00000E+00
    0.35718E+06         0.20665E+06         0.00000E+00
    0.00000E+00         0.00000E+00         0.00000E+00
 
   -0.14409E+06         0.38698E+06         0.00000E+00
    0.38698E+06         0.20579E+06         0.00000E+00
    0.00000E+00         0.00000E+00         0.00000E+00
 
   -0.14136E+06         0.41654E+06         0.00000E+00
    0.41654E+06         0.20487E+06         0.00000E+00
    0.00000E+00         0.00000E+00         0.00000E+00
 
   -0.13856E+06         0.44587E+06         0.00000E+00
    0.44587E+06         0.20389E+06         0.00000E+00
    0.00000E+00         0.00000E+00         0.00000E+00
 
   -0.13568E+06         0.47494E+06         0.00000E+00
    0.47494E+06         0.20284E+06         0.00000E+00
    0.00000E+00         0.00000E+00         0.00000E+00
 
   -0.13272E+06         0.50377E+06         0.00000E+00
    0.50377E+06         0.20174E+06         0.00000E+00
    0.00000E+00         0.00000E+00         0.00000E+00
 
   -0.12970E+06         0.53233E+06         0.00000E+00
    0.53233E+06         0.20058E+06         0.00000E+00
    0.00000E+00         0.00000E+00         0.00000E+00
 
   -0.12660E+06         0.56062E+06         0.00000E+00
    0.56062E+06         0.19936E+06         0.00000E+00
    0.00000E+00         0.00000E+00         0.00000E+00
 
   -0.12344E+06         0.58863E+06         0.00000E+00
    0.58863E+06         0.19809E+06         0.00000E+00
    0.00000E+00         0.00000E+00         0.00000E+00
 
   -0.12020E+06         0.61637E+06         0.00000E+00
    0.61637E+06         0.19676E+06         0.00000E+00
    0.00000E+00         0.00000E+00         0.00000E+00
 
   -0.11690E+06         0.64382E+06         0.00000E+00
    0.64382E+06         0.19539E+06         0.00000E+00
    0.00000E+00         0.00000E+00         0.00000E+00
 
   -0.11354E+06         0.67097E+06         0.00000E+00
    0.67097E+06         0.19396E+06         0.00000E+00
    0.00000E+00         0.00000E+00         0.00000E+00
 
   -0.11011E+06         0.69783E+06         0.00000E+00
    0.69783E+06         0.19249E+06         0.00000E+00
    0.00000E+00         0.00000E+00         0.00000E+00
 
   -0.10661E+06         0.72438E+06         0.00000E+00
    0.72438E+06         0.19096E+06         0.00000E+00
    0.00000E+00         0.00000E+00         0.00000E+00
 
   -0.10306E+06         0.75062E+06         0.00000E+00
    0.75062E+06         0.18939E+06         0.00000E+00
    0.00000E+00         0.00000E+00         0.00000E+00
 
   -0.99449E+05         0.77655E+06         0.00000E+00
    0.77655E+06         0.18778E+06         0.00000E+00
    0.00000E+00         0.00000E+00         0.00000E+00
 
   -0.95778E+05         0.80216E+06         0.00000E+00
    0.80216E+06         0.18612E+06         0.00000E+00
    0.00000E+00         0.00000E+00         0.00000E+00
 
   -0.92049E+05         0.82744E+06         0.00000E+00
    0.82744E+06         0.18442E+06         0.00000E+00
    0.00000E+00         0.00000E+00         0.00000E+00
 
   -0.88265E+05         0.85239E+06         0.00000E+00
    0.85239E+06         0.18268E+06         0.00000E+00
    0.00000E+00         0.00000E+00         0.00000E+00
 
   -0.84426E+05         0.87700E+06         0.00000E+00
    0.87700E+06         0.18090E+06         0.00000E+00
    0.00000E+00         0.00000E+00         0.00000E+00
 
   -0.80533E+05         0.90128E+06         0.00000E+00
    0.90128E+06         0.17907E+06         0.00000E+00
    0.00000E+00         0.00000E+00         0.00000E+00
 
   -0.76587E+05         0.92521E+06         0.00000E+00
    0.92521E+06         0.17721E+06         0.00000E+00
    0.00000E+00         0.00000E+00         0.00000E+00
 
   -0.72590E+05         0.94879E+06         0.00000E+00
    0.94879E+06         0.17532E+06         0.00000E+00
    0.00000E+00         0.00000E+00         0.00000E+00
 
   -0.68542E+05         0.97202E+06         0.00000E+00
    0.97202E+06         0.17339E+06         0.00000E+00
    0.00000E+00         0.00000E+00         0.00000E+00
 
   -0.64445E+05         0.99489E+06         0.00000E+00
    0.99489E+06         0.17142E+06         0.00000E+00
    0.00000E+00         0.00000E+00         0.00000E+00
 
   -0.60299E+05         0.10174E+07         0.00000E+00
    0.10174E+07         0.16942E+06         0.00000E+00
    0.00000E+00         0.00000E+00         0.00000E+00
 
   -0.56106E+05         0.10396E+07         0.00000E+00
    0.10396E+07         0.16739E+06         0.00000E+00
    0.00000E+00         0.00000E+00         0.00000E+00
 
   -0.51865E+05         0.10613E+07         0.00000E+00
    0.10613E+07         0.16532E+06         0.00000E+00
    0.00000E+00         0.00000E+00         0.00000E+00
 
   -0.47579E+05         0.10827E+07         0.00000E+00
    0.10827E+07         0.16323E+06         0.00000E+00
    0.00000E+00         0.00000E+00         0.00000E+00
 
   -0.43248E+05         0.11038E+07         0.00000E+00
    0.11038E+07         0.16111E+06         0.00000E+00
    0.00000E+00         0.00000E+00         0.00000E+00
 
   -0.38873E+05         0.11244E+07         0.00000E+00
    0.11244E+07         0.15895E+06         0.00000E+00
    0.00000E+00         0.00000E+00         0.00000E+00
 
   -0.34454E+05         0.11447E+07         0.00000E+00
    0.11447E+07         0.15677E+06         0.00000E+00
    0.00000E+00         0.00000E+00         0.00000E+00
 
   -0.29993E+05         0.11646E+07         0.00000E+00
    0.11646E+07         0.15457E+06         0.00000E+00
    0.00000E+00         0.00000E+00         0.00000E+00
 
   -0.25489E+05         0.11841E+07         0.00000E+00
    0.11841E+07         0.15234E+06         0.00000E+00
    0.00000E+00         0.00000E+00         0.00000E+00
 
   -0.20944E+05         0.12032E+07         0.00000E+00
    0.12032E+07         0.15008E+06         0.00000E+00
    0.00000E+00         0.00000E+00         0.00000E+00
 
   -0.16358E+05         0.12219E+07         0.00000E+00
    0.12219E+07         0.14780E+06         0.00000E+00
    0.00000E+00         0.00000E+00         0.00000E+00
 
   -0.11732E+05         0.12402E+07         0.00000E+00
    0.12402E+07         0.14549E+06         0.00000E+00
    0.00000E+00         0.00000E+00         0.00000E+00
 
   -0.70666E+04         0.12581E+07         0.00000E+00
    0.12581E+07         0.14316E+06         0.00000E+00
    0.00000E+00         0.00000E+00         0.00000E+00
 
   -0.23620E+04         0.12756E+07         0.00000E+00
    0.12756E+07         0.14081E+06         0.00000E+00
    0.00000E+00         0.00000E+00         0.00000E+00
 
   -0.98935E+05         0.15979E+05         0.00000E+00
    0.15979E+05         0.12392E+06         0.00000E+00
    0.00000E+00         0.00000E+00         0.00000E+00
 
   -0.97946E+05         0.47579E+05         0.00000E+00
    0.47579E+05         0.12387E+06         0.00000E+00
    0.00000E+00         0.00000E+00         0.00000E+00
 
   -0.96900E+05         0.79036E+05         0.00000E+00
    0.79036E+05         0.12378E+06         0.00000E+00
    0.00000E+00         0.00000E+00         0.00000E+00
 
   -0.95799E+05         0.11034E+06         0.00000E+00
    0.11034E+06         0.12364E+06         0.00000E+00
    0.00000E+00         0.00000E+00         0.00000E+00
 
   -0.94642E+05         0.14149E+06         0.00000E+00
    0.14149E+06         0.12346E+06         0.00000E+00
    0.00000E+00         0.00000E+00         0.00000E+00
 
   -0.93432E+05         0.17247E+06         0.00000E+00
    0.17247E+06         0.12324E+06         0.00000E+00
    0.00000E+00         0.00000E+00         0.00000E+00
 
   -0.92169E+05         0.20327E+06         0.00000E+00
    0.20327E+06         0.12297E+06         0.00000E+00
    0.00000E+00         0.00000E+00         0.00000E+00
 
   -0.90854E+05         0.23389E+06         0.00000E+00
    0.23389E+06         0.12266E+06         0.00000E+00
    0.00000E+00         0.00000E+00         0.00000E+00
 
   -0.89489E+05         0.26431E+06         0.00000E+00
    0.26431E+06         0.12231E+06         0.00000E+00
    0.00000E+00         0.00000E+00         0.00000E+00
 
   -0.88073E+05         0.29454E+06         0.00000E+00
    0.29454E+06         0.12193E+06         0.00000E+00
    0.00000E+00         0.00000E+00         0.00000E+00
 
   -0.86610E+05         0.32455E+06         0.00000E+00
    0.32455E+06         0.12150E+06         0.00000E+00
    0.00000E+00         0.00000E+00         0.00000E+00
 
   -0.85099E+05         0.35435E+06         0.00000E+00
    0.35435E+06         0.12103E+06         0.00000E+00
    0.00000E+00         0.00000E+00         0.00000E+00
 
   -0.83541E+05         0.38393E+06         0.00000E+00
    0.38393E+06         0.12053E+06         0.00000E+00
    0.00000E+00         0.00000E+00         0.00000E+00
 
   -0.81938E+05         0.41328E+06         0.00000E+00
    0.41328E+06         0.11999E+06         0.00000E+00
    0.00000E+00         0.00000E+00         0.00000E+00
 
   -0.80290E+05         0.44238E+06         0.00000E+00
    0.44238E+06         0.11942E+06         0.00000E+00
    0.00000E+00         0.00000E+00         0.00000E+00
 
   -0.78599E+05         0.47125E+06         0.00000E+00
    0.47125E+06         0.11881E+06         0.00000E+00
    0.00000E+00         0.00000E+00         0.00000E+00
 
   -0.76866E+05         0.49986E+06         0.00000E+00
    0.49986E+06         0.11817E+06         0.00000E+00
    0.00000E+00         0.00000E+00         0.00000E+00
 
   -0.75092E+05         0.52822E+06         0.00000E+00
    0.52822E+06         0.11750E+06         0.00000E+00
    0.00000E+00         0.00000E+00         0.00000E+00
 
   -0.73277E+05         0.55630E+06         0.00000E+00
    0.55630E+06         0.11679E+06         0.00000E+00
    0.00000E+00         0.00000E+00         0.00000E+00
 
   -0.71422E+05         0.58412E+06         0.00000E+00
    0.58412E+06         0.11605E+06         0.00000E+00
    0.00000E+00         0.00000E+00         0.00000E+00
 
   -0.69530E+05         0.61166E+06         0.00000E+00
    0.61166E+06         0.11529E+06         0.00000E+00
    0.00000E+00         0.00000E+00         0.00000E+00
 
   -0.67600E+05         0.63892E+06         0.00000E+00
    0.63892E+06         0.11449E+06         0.00000E+00
    0.00000E+00         0.00000E+00         0.00000E+00
 
   -0.65633E+05         0.66588E+06         0.00000E+00
    0.66588E+06         0.11366E+06         0.00000E+00
    0.00000E+00         0.00000E+00         0.00000E+00
 
   -0.63630E+05         0.69255E+06         0.00000E+00
    0.69255E+06         0.11281E+06         0.00000E+00
    0.00000E+00         0.00000E+00         0.00000E+00
 
   -0.61593E+05         0.71892E+06         0.00000E+00
    0.71892E+06         0.11193E+06         0.00000E+00
    0.00000E+00         0.00000E+00         0.00000E+00
 
   -0.59522E+05         0.74498E+06         0.00000E+00
    0.74498E+06         0.11102E+06         0.00000E+00
    0.00000E+00         0.00000E+00         0.00000E+00
 
   -0.57417E+05         0.77073E+06         0.00000E+00
    0.77073E+06         0.11009E+06         0.00000E+00
    0.00000E+00         0.00000E+00         0.00000E+00
 
   -0.55281E+05         0.79617E+06         0.00000E+00
    0.79617E+06         0.10914E+06         0.00000E+00
    0.00000E+00         0.00000E+00         0.00000E+00
 
   -0.53112E+05         0.82128E+06         0.00000E+00
    0.82128E+06         0.10816E+06         0.00000E+00
    0.00000E+00         0.00000E+00         0.00000E+00
 
   -0.50913E+05         0.84606E+06         0.00000E+00
    0.84606E+06         0.10715E+06         0.00000E+00
    0.00000E+00         0.00000E+00         0.00000E+00
 
   -0.48684E+05         0.87051E+06         0.00000E+00
    0.87051E+06         0.10613E+06         0.00000E+00
    0.00000E+00         0.00000E+00         0.00000E+00
 
   -0.46425E+05         0.89462E+06         0.00000E+00
    0.89462E+06         0.10508E+06         0.00000E+00
    0.00000E+00         0.00000E+00         0.00000E+00
 
   -0.44137E+05         0.91839E+06         0.00000E+00
    0.91839E+06         0.10401E+06         0.00000E+00
    0.00000E+00         0.00000E+00         0.00000E+00
 
   -0.41822E+05         0.94181E+06         0.00000E+00
    0.94181E+06         0.10292E+06         0.00000E+00
    0.00000E+00         0.00000E+00         0.00000E+00
 
   -0.39479E+05         0.96488E+06         0.00000E+00
    0.96488E+06         0.10181E+06         0.00000E+00
    0.00000E+00         0.00000E+00         0.00000E+00
 
   -0.37109E+05         0.98760E+06         0.00000E+00
    0.98760E+06         0.10069E+06         0.00000E+00
    0.00000E+00         0.00000E+00         0.00000E+00
 
   -0.34712E+05         0.10100E+07         0.00000E+00
    0.10100E+07         0.99539E+05         0.00000E+00
    0.00000E+00         0.00000E+00         0.00000E+00
 
   -0.32290E+05         0.10320E+07         0.00000E+00
    0.10320E+07         0.98374E+05         0.00000E+00
    0.00000E+00         0.00000E+00         0.00000E+00
 
   -0.29842E+05         0.10536E+07         0.00000E+00
    0.10536E+07         0.97191E+05         0.00000E+00
    0.00000E+00         0.00000E+00         0.00000E+00
 
   -0.27369E+05         0.10748E+07         0.00000E+00
    0.10748E+07         0.95991E+05         0.00000E+00
    0.00000E+00         0.00000E+00         0.00000E+00
 
   -0.24872E+05         0.10957E+07         0.00000E+00
    0.10957E+07         0.94774E+05         0.00000E+00
    0.00000E+00         0.00000E+00         0.00000E+00
 
   -0.22351E+05         0.11162E+07         0.00000E+00
    0.11162E+07         0.93541E+05         0.00000E+00
    0.00000E+00         0.00000E+00         0.00000E+00
 
   -0.19806E+05         0.11364E+07         0.00000E+00
    0.11364E+07         0.92292E+05         0.00000E+00
    0.00000E+00         0.00000E+00         0.00000E+00
 
   -0.17238E+05         0.11561E+07         0.00000E+00
    0.11561E+07         0.91028E+05         0.00000E+00
    0.00000E+00         0.00000E+00         0.00000E+00
 
   -0.14647E+05         0.11755E+07         0.00000E+00
    0.11755E+07         0.89748E+05         0.00000E+00
    0.00000E+00         0.00000E+00         0.00000E+00
 
   -0.12033E+05         0.11944E+07         0.00000E+00
    0.11944E+07         0.88455E+05         0.00000E+00
    0.00000E+00         0.00000E+00         0.00000E+00
 
   -0.93967E+04         0.12130E+07         0.00000E+00
    0.12130E+07         0.87147E+05         0.00000E+00
    0.00000E+00         0.00000E+00         0.00000E+00
 
   -0.67384E+04         0.12312E+07         0.00000E+00
    0.12312E+07         0.85825E+05         0.00000E+00
    0.00000E+00         0.00000E+00         0.00000E+00
 
   -0.40582E+04         0.12490E+07         0.00000E+00
    0.12490E+07         0.84489E+05         0.00000E+00
    0.00000E+00         0.00000E+00         0.00000E+00
 
   -0.13563E+04         0.12664E+07         0.00000E+00
    0.12664E+07         0.83140E+05         0.00000E+00
    0.00000E+00         0.00000E+00         0.00000E+00
 
   -0.28115E+05         0.15913E+05         0.00000E+00
    0.15913E+05         0.36767E+05         0.00000E+00
    0.00000E+00         0.00000E+00         0.00000E+00
 
   -0.27805E+05         0.47384E+05         0.00000E+00
    0.47384E+05         0.36752E+05         0.00000E+00
    0.00000E+00         0.00000E+00         0.00000E+00
 
   -0.27477E+05         0.78715E+05         0.00000E+00
    0.78715E+05         0.36724E+05         0.00000E+00
    0.00000E+00         0.00000E+00         0.00000E+00
 
   -0.27131E+05         0.10990E+06         0.00000E+00
    0.10990E+06         0.36682E+05         0.00000E+00
    0.00000E+00         0.00000E+00         0.00000E+00
 
   -0.26767E+05         0.14092E+06         0.00000E+00
    0.14092E+06         0.36627E+05         0.00000E+00
    0.00000E+00         0.00000E+00         0.00000E+00
 
   -0.26387E+05         0.17178E+06         0.00000E+00
    0.17178E+06         0.36560E+05         0.00000E+00
    0.00000E+00         0.00000E+00         0.00000E+00
 
   -0.25991E+05         0.20246E+06         0.00000E+00
    0.20246E+06         0.36480E+05         0.00000E+00
    0.00000E+00         0.00000E+00         0.00000E+00
 
   -0.25579E+05         0.23297E+06         0.00000E+00
    0.23297E+06         0.36388E+05         0.00000E+00
    0.00000E+00         0.00000E+00         0.00000E+00
 
   -0.25152E+05         0.26328E+06         0.00000E+00
    0.26328E+06         0.36284E+05         0.00000E+00
    0.00000E+00         0.00000E+00         0.00000E+00
 
   -0.24711E+05         0.29339E+06         0.00000E+00
    0.29339E+06         0.36170E+05         0.00000E+00
    0.00000E+00         0.00000E+00         0.00000E+00
 
   -0.24255E+05         0.32330E+06         0.00000E+00
    0.32330E+06         0.36044E+05         0.00000E+00
    0.00000E+00         0.00000E+00         0.00000E+00
 
   -0.23787E+05         0.35299E+06         0.00000E+00
    0.35299E+06         0.35908E+05         0.00000E+00
    0.00000E+00         0.00000E+00         0.00000E+00
 
   -0.23306E+05         0.38246E+06         0.00000E+00
    0.38246E+06         0.35762E+05         0.00000E+00
    0.00000E+00         0.00000E+00         0.00000E+00
 
   -0.22813E+05         0.41171E+06         0.00000E+00
    0.41171E+06         0.35607E+05         0.00000E+00
    0.00000E+00         0.00000E+00         0.00000E+00
 
   -0.22308E+05         0.44072E+06         0.00000E+00
    0.44072E+06         0.35442E+05         0.00000E+00
    0.00000E+00         0.00000E+00         0.00000E+00
 
   -0.21792E+05         0.46948E+06         0.00000E+00
    0.46948E+06         0.35268E+05         0.00000E+00
    0.00000E+00         0.00000E+00         0.00000E+00
 
   -0.21266E+05         0.49800E+06         0.00000E+00
    0.49800E+06         0.35086E+05         0.00000E+00
    0.00000E+00         0.00000E+00         0.00000E+00
 
   -0.20730E+05         0.52626E+06         0.00000E+00
    0.52626E+06         0.34895E+05         0.00000E+00
    0.00000E+00         0.00000E+00         0.00000E+00
 
   -0.20184E+05         0.55426E+06         0.00000E+00
    0.55426E+06         0.34697E+05         0.00000E+00
    0.00000E+00         0.00000E+00         0.00000E+00
 
   -0.19629E+05         0.58198E+06         0.00000E+00
    0.58198E+06         0.34491E+05         0.00000E+00
    0.00000E+00         0.00000E+00         0.00000E+00
 
   -0.19066E+05         0.60943E+06         0.00000E+00
    0.60943E+06         0.34278E+05         0.00000E+00
    0.00000E+00         0.00000E+00         0.00000E+00
 
   -0.18494E+05         0.63660E+06         0.00000E+00
    0.63660E+06         0.34058E+05         0.00000E+00
    0.00000E+00         0.00000E+00         0.00000E+00
 
   -0.17915E+05         0.66348E+06         0.00000E+00
    0.66348E+06         0.33831E+05         0.00000E+00
    0.00000E+00         0.00000E+00         0.00000E+00
 
   -0.17328E+05         0.69007E+06         0.00000E+00
    0.69007E+06         0.33598E+05         0.00000E+00
    0.00000E+00         0.00000E+00         0.00000E+00
 
   -0.16734E+05         0.71636E+06         0.00000E+00
    0.71636E+06         0.33360E+05         0.00000E+00
    0.00000E+00         0.00000E+00         0.00000E+00
 
   -0.16134E+05         0.74234E+06         0.00000E+00
    0.74234E+06         0.33115E+05         0.00000E+00
    0.00000E+00         0.00000E+00         0.00000E+00
 
   -0.15528E+05         0.76801E+06         0.00000E+00
    0.76801E+06         0.32865E+05         0.00000E+00
    0.00000E+00         0.00000E+00         0.00000E+00
 
   -0.14916E+05         0.79337E+06         0.00000E+00
    0.79337E+06         0.32609E+05         0.00000E+00
    0.00000E+00         0.00000E+00         0.00000E+00
 
   -0.14298E+05         0.81840E+06         0.00000E+00
    0.81840E+06         0.32349E+05         0.00000E+00
    0.00000E+00         0.00000E+00         0.00000E+00
 
   -0.13675E+05         0.84311E+06         0.00000E+00
    0.84311E+06         0.32083E+05         0.00000E+00
    0.00000E+00         0.00000E+00         0.00000E+00
 
   -0.13047E+05         0.86749E+06         0.00000E+00
    0.86749E+06         0.31813E+05         0.00000E+00
    0.00000E+00         0.00000E+00         0.00000E+00
 
   -0.12414E+05         0.89153E+06         0.00000E+00
    0.89153E+06         0.31539E+05         0.00000E+00
    0.00000E+00         0.00000E+00         0.00000E+00
 
   -0.11777E+05         0.91523E+06         0.00000E+00
    0.91523E+06         0.31260E+05         0.00000E+00
    0.00000E+00         0.00000E+00         0.00000E+00
 
   -0.11135E+05         0.93858E+06         0.00000E+00
    0.93858E+06         0.30976E+05         0.00000E+00
    0.00000E+00         0.00000E+00         0.00000E+00
 
   -0.10489E+05         0.96158E+06         0.00000E+00
    0.96158E+06         0.30689E+05         0.00000E+00
    0.00000E+00         0.00000E+00         0.00000E+00
 
   -0.98394E+04         0.98423E+06         0.00000E+00
    0.98423E+06         0.30397E+05         0.00000E+00
    0.00000E+00         0.00000E+00         0.00000E+00
 
   -0.91856E+04         0.10065E+07         0.00000E+00
    0.10065E+07         0.30102E+05         0.00000E+00
    0.00000E+00         0.00000E+00         0.00000E+00
 
   -0.85280E+04         0.10285E+07         0.00000E+00
    0.10285E+07         0.29802E+05         0.00000E+00
    0.00000E+00         0.00000E+00         0.00000E+00
 
   -0.78668E+04         0.10500E+07         0.00000E+00
    0.10500E+07         0.29499E+05         0.00000E+00
    0.00000E+00         0.00000E+00         0.00000E+00
 
   -0.72018E+04         0.10712E+07         0.00000E+00
    0.10712E+07         0.29191E+05         0.00000E+00
    0.00000E+00         0.00000E+00         0.00000E+00
 
   -0.65333E+04         0.10920E+07         0.00000E+00
    0.10920E+07         0.28880E+05         0.00000E+00
    0.00000E+00         0.00000E+00         0.00000E+00
 
   -0.58612E+04         0.11125E+07         0.00000E+00
    0.11125E+07         0.28565E+05         0.00000E+00
    0.00000E+00         0.00000E+00         0.00000E+00
 
   -0.51856E+04         0.11326E+07         0.00000E+00
    0.11326E+07         0.28246E+05         0.00000E+00
    0.00000E+00         0.00000E+00         0.00000E+00
 
   -0.45063E+04         0.11522E+07         0.00000E+00
    0.11522E+07         0.27923E+05         0.00000E+00
    0.00000E+00         0.00000E+00         0.00000E+00
 
   -0.38234E+04         0.11715E+07         0.00000E+00
    0.11715E+07         0.27596E+05         0.00000E+00
    0.00000E+00         0.00000E+00         0.00000E+00
 
   -0.31369E+04         0.11904E+07         0.00000E+00
    0.11904E+07         0.27265E+05         0.00000E+00
    0.00000E+00         0.00000E+00         0.00000E+00
 
   -0.24466E+04         0.12090E+07         0.00000E+00
    0.12090E+07         0.26930E+05         0.00000E+00
    0.00000E+00         0.00000E+00         0.00000E+00
 
   -0.17524E+04         0.12271E+07         0.00000E+00
    0.12271E+07         0.26590E+05         0.00000E+00
    0.00000E+00         0.00000E+00         0.00000E+00
 
   -0.10543E+04         0.12448E+07         0.00000E+00
    0.12448E+07         0.26246E+05         0.00000E+00
    0.00000E+00         0.00000E+00         0.00000E+00
 
   -0.35214E+03         0.12621E+07         0.00000E+00
    0.12621E+07         0.25898E+05         0.00000E+00
    0.00000E+00         0.00000E+00         0.00000E+00
 
    0.42541E+05         0.15913E+05         0.00000E+00
    0.15913E+05        -0.50232E+05         0.00000E+00
    0.00000E+00         0.00000E+00         0.00000E+00
 
    0.42179E+05         0.47389E+05         0.00000E+00
    0.47389E+05        -0.50214E+05         0.00000E+00
    0.00000E+00         0.00000E+00         0.00000E+00
 
    0.41798E+05         0.78725E+05         0.00000E+00
    0.78725E+05        -0.50179E+05         0.00000E+00
    0.00000E+00         0.00000E+00         0.00000E+00
 
    0.41396E+05         0.10991E+06         0.00000E+00
    0.10991E+06        -0.50126E+05         0.00000E+00
    0.00000E+00         0.00000E+00         0.00000E+00
 
    0.40974E+05         0.14094E+06         0.00000E+00
    0.14094E+06        -0.50056E+05         0.00000E+00
    0.00000E+00         0.00000E+00         0.00000E+00
 
    0.40532E+05         0.17181E+06         0.00000E+00
    0.17181E+06        -0.49968E+05         0.00000E+00
    0.00000E+00         0.00000E+00         0.00000E+00
 
    0.40069E+05         0.20250E+06         0.00000E+00
    0.20250E+06        -0.49862E+05         0.00000E+00
    0.00000E+00         0.00000E+00         0.00000E+00
 
    0.39585E+05         0.23302E+06         0.00000E+00
    0.23302E+06        -0.49739E+05         0.00000E+00
    0.00000E+00         0.00000E+00         0.00000E+00
 
    0.39081E+05         0.26334E+06         0.00000E+00
    0.26334E+06        -0.49599E+05         0.00000E+00
    0.00000E+00         0.00000E+00         0.00000E+00
 
    0.38556E+05         0.29346E+06         0.00000E+00
    0.29346E+06        -0.49441E+05         0.00000E+00
    0.00000E+00         0.00000E+00         0.00000E+00
 
    0.38009E+05         0.32338E+06         0.00000E+00
    0.32338E+06        -0.49266E+05         0.00000E+00
    0.00000E+00         0.00000E+00         0.00000E+00
 
    0.37442E+05         0.35309E+06         0.00000E+00
    0.35309E+06        -0.49074E+05         0.00000E+00
    0.00000E+00         0.00000E+00         0.00000E+00
 
    0.36853E+05         0.38258E+06         0.00000E+00
    0.38258E+06        -0.48864E+05         0.00000E+00
    0.00000E+00         0.00000E+00         0.00000E+00
 
    0.36243E+05         0.41184E+06         0.00000E+00
    0.41184E+06        -0.48638E+05         0.00000E+00
    0.00000E+00         0.00000E+00         0.00000E+00
 
    0.35612E+05         0.44086E+06         0.00000E+00
    0.44086E+06        -0.48395E+05         0.00000E+00
    0.00000E+00         0.00000E+00         0.00000E+00
 
    0.34959E+05         0.46964E+06         0.00000E+00
    0.46964E+06        -0.48135E+05         0.00000E+00
    0.00000E+00         0.00000E+00         0.00000E+00
 
    0.34284E+05         0.49817E+06         0.00000E+00
    0.49817E+06        -0.47859E+05         0.00000E+00
    0.00000E+00         0.00000E+00         0.00000E+00
 
    0.33588E+05         0.52645E+06         0.00000E+00
    0.52645E+06        -0.47566E+05         0.00000E+00
    0.00000E+00         0.00000E+00         0.00000E+00
 
    0.32871E+05         0.55447E+06         0.00000E+00
    0.55447E+06        -0.47257E+05         0.00000E+00
    0.00000E+00         0.00000E+00         0.00000E+00
 
    0.32132E+05         0.58221E+06         0.00000E+00
    0.58221E+06        -0.46932E+05         0.00000E+00
    0.00000E+00         0.00000E+00         0.00000E+00
 
    0.31372E+05         0.60968E+06         0.00000E+00
    0.60968E+06        -0.46591E+05         0.00000E+00
    0.00000E+00         0.00000E+00         0.00000E+00
 
    0.30590E+05         0.63687E+06         0.00000E+00
    0.63687E+06        -0.46235E+05         0.00000E+00
    0.00000E+00         0.00000E+00         0.00000E+00
 
    0.29786E+05         0.66377E+06         0.00000E+00
    0.66377E+06        -0.45863E+05         0.00000E+00
    0.00000E+00         0.00000E+00         0.00000E+00
 
    0.28961E+05         0.69038E+06         0.00000E+00
    0.69038E+06        -0.45475E+05         0.00000E+00
    0.00000E+00         0.00000E+00         0.00000E+00
 
    0.28115E+05         0.71669E+06         0.00000E+00
    0.71669E+06        -0.45073E+05         0.00000E+00
    0.00000E+00         0.00000E+00         0.00000E+00
 
    0.27248E+05         0.74269E+06         0.00000E+00
    0.74269E+06        -0.44656E+05         0.00000E+00
    0.00000E+00         0.00000E+00         0.00000E+00
 
    0.26360E+05         0.76838E+06         0.00000E+00
    0.76838E+06        -0.44225E+05         0.00000E+00
    0.00000E+00         0.00000E+00         0.00000E+00
 
    0.25451E+05         0.79376E+06         0.00000E+00
    0.79376E+06        -0.43779E+05         0.00000E+00
    0.00000E+00         0.00000E+00         0.00000E+00
 
    0.24521E+05         0.81882E+06         0.00000E+00
    0.81882E+06        -0.43320E+05         0.00000E+00
    0.00000E+00         0.00000E+00         0.00000E+00
 
    0.23570E+05         0.84354E+06         0.00000E+00
    0.84354E+06        -0.42847E+05         0.00000E+00
    0.00000E+00         0.00000E+00         0.00000E+00
 
    0.22599E+05         0.86794E+06         0.00000E+00
    0.86794E+06        -0.42361E+05         0.00000E+00
    0.00000E+00         0.00000E+00         0.00000E+00
 
    0.21608E+05         0.89200E+06         0.00000E+00
    0.89200E+06        -0.41863E+05         0.00000E+00
    0.00000E+00         0.00000E+00         0.00000E+00
 
    0.20597E+05         0.91572E+06         0.00000E+00
    0.91572E+06        -0.41351E+05         0.00000E+00
    0.00000E+00         0.00000E+00         0.00000E+00
 
    0.19566E+05         0.93910E+06         0.00000E+00
    0.93910E+06        -0.40828E+05         0.00000E+00
    0.00000E+00         0.00000E+00         0.00000E+00
 
    0.18516E+05         0.96212E+06         0.00000E+00
    0.96212E+06        -0.40293E+05         0.00000E+00
    0.00000E+00         0.00000E+00         0.00000E+00
 
    0.17447E+05         0.98479E+06         0.00000E+00
    0.98479E+06        -0.39747E+05         0.00000E+00
    0.00000E+00         0.00000E+00         0.00000E+00
 
    0.16358E+05         0.10071E+07         0.00000E+00
    0.10071E+07        -0.39190E+05         0.00000E+00
    0.00000E+00         0.00000E+00         0.00000E+00
 
    0.15251E+05         0.10291E+07         0.00000E+00
    0.10291E+07        -0.38623E+05         0.00000E+00
    0.00000E+00         0.00000E+00         0.00000E+00
 
    0.14126E+05         0.10506E+07         0.00000E+00
    0.10506E+07        -0.38045E+05         0.00000E+00
    0.00000E+00         0.00000E+00         0.00000E+00
 
    0.12983E+05         0.10718E+07         0.00000E+00
    0.10718E+07        -0.37459E+05         0.00000E+00
    0.00000E+00         0.00000E+00         0.00000E+00
 
    0.11822E+05         0.10927E+07         0.00000E+00
    0.10927E+07        -0.36863E+05         0.00000E+00
    0.00000E+00         0.00000E+00         0.00000E+00
 
    0.10645E+05         0.11131E+07         0.00000E+00
    0.11131E+07        -0.36259E+05         0.00000E+00
    0.00000E+00         0.00000E+00         0.00000E+00
 
    0.94499E+04         0.11332E+07         0.00000E+00
    0.11332E+07        -0.35646E+05         0.00000E+00
    0.00000E+00         0.00000E+00         0.00000E+00
 
    0.82389E+04         0.11529E+07         0.00000E+00
    0.11529E+07        -0.35027E+05         0.00000E+00
    0.00000E+00         0.00000E+00         0.00000E+00
 
    0.70119E+04         0.11722E+07         0.00000E+00
    0.11722E+07        -0.34400E+05         0.00000E+00
    0.00000E+00         0.00000E+00         0.00000E+00
 
    0.57694E+04         0.11912E+07         0.00000E+00
    0.11912E+07        -0.33767E+05         0.00000E+00
    0.00000E+00         0.00000E+00         0.00000E+00
 
    0.45118E+04         0.12097E+07         0.00000E+00
    0.12097E+07        -0.33128E+05         0.00000E+00
    0.00000E+00         0.00000E+00         0.00000E+00
 
    0.32396E+04         0.12278E+07         0.00000E+00
    0.12278E+07        -0.32483E+05         0.00000E+00
    0.00000E+00         0.00000E+00         0.00000E+00
 
    0.19533E+04         0.12455E+07         0.00000E+00
    0.12455E+07        -0.31834E+05         0.00000E+00
    0.00000E+00         0.00000E+00         0.00000E+00
 
    0.65334E+03         0.12629E+07         0.00000E+00
    0.12629E+07        -0.31181E+05         0.00000E+00
    0.00000E+00         0.00000E+00         0.00000E+00
 
    0.11334E+06         0.15982E+05         0.00000E+00
    0.15982E+05        -0.13744E+06         0.00000E+00
    0.00000E+00         0.00000E+00         0.00000E+00
 
    0.11231E+06         0.47593E+05         0.00000E+00
    0.47593E+05        -0.13739E+06         0.00000E+00
    0.00000E+00         0.00000E+00         0.00000E+00
 
    0.11122E+06         0.79066E+05         0.00000E+00
    0.79066E+05        -0.13729E+06         0.00000E+00
    0.00000E+00         0.00000E+00         0.00000E+00
 
    0.11007E+06         0.11039E+06         0.00000E+00
    0.11039E+06        -0.13714E+06         0.00000E+00
    0.00000E+00         0.00000E+00         0.00000E+00
 
    0.10887E+06         0.14156E+06         0.00000E+00
    0.14156E+06        -0.13695E+06         0.00000E+00
    0.00000E+00         0.00000E+00         0.00000E+00
 
    0.10760E+06         0.17256E+06         0.00000E+00
    0.17256E+06        -0.13670E+06         0.00000E+00
    0.00000E+00         0.00000E+00         0.00000E+00
 
    0.10628E+06         0.20339E+06         0.00000E+00
    0.20339E+06        -0.13641E+06         0.00000E+00
    0.00000E+00         0.00000E+00         0.00000E+00
 
    0.10491E+06         0.23404E+06         0.00000E+00
    0.23404E+06        -0.13607E+06         0.00000E+00
    0.00000E+00         0.00000E+00         0.00000E+00
 
    0.10347E+06         0.26449E+06         0.00000E+00
    0.26449E+06        -0.13569E+06         0.00000E+00
    0.00000E+00         0.00000E+00         0.00000E+00
 
    0.10198E+06         0.29475E+06         0.00000E+00
    0.29475E+06        -0.13526E+06         0.00000E+00
    0.00000E+00         0.00000E+00         0.00000E+00
 
    0.10043E+06         0.32481E+06         0.00000E+00
    0.32481E+06        -0.13478E+06         0.00000E+00
    0.00000E+00         0.00000E+00         0.00000E+00
 
    0.98831E+05         0.35465E+06         0.00000E+00
    0.35465E+06        -0.13426E+06         0.00000E+00
    0.00000E+00         0.00000E+00         0.00000E+00
 
    0.97173E+05         0.38427E+06         0.00000E+00
    0.38427E+06        -0.13369E+06         0.00000E+00
    0.00000E+00         0.00000E+00         0.00000E+00
 
    0.95460E+05         0.41366E+06         0.00000E+00
    0.41366E+06        -0.13308E+06         0.00000E+00
    0.00000E+00         0.00000E+00         0.00000E+00
 
    0.93693E+05         0.44281E+06         0.00000E+00
    0.44281E+06        -0.13243E+06         0.00000E+00
    0.00000E+00         0.00000E+00         0.00000E+00
 
    0.91871E+05         0.47173E+06         0.00000E+00
    0.47173E+06        -0.13174E+06         0.00000E+00
    0.00000E+00         0.00000E+00         0.00000E+00
 
    0.89996E+05         0.50039E+06         0.00000E+00
    0.50039E+06        -0.13100E+06         0.00000E+00
    0.00000E+00         0.00000E+00         0.00000E+00
 
    0.88067E+05         0.52880E+06         0.00000E+00
    0.52880E+06        -0.13022E+06         0.00000E+00
    0.00000E+00         0.00000E+00         0.00000E+00
 
    0.86085E+05         0.55694E+06         0.00000E+00
    0.55694E+06        -0.12941E+06         0.00000E+00
    0.00000E+00         0.00000E+00         0.00000E+00
 
    0.84051E+05         0.58482E+06         0.00000E+00
    0.58482E+06        -0.12855E+06         0.00000E+00
    0.00000E+00         0.00000E+00         0.00000E+00
 
    0.81966E+05         0.61242E+06         0.00000E+00
    0.61242E+06        -0.12765E+06         0.00000E+00
    0.00000E+00         0.00000E+00         0.00000E+00
 
    0.79828E+05         0.63973E+06         0.00000E+00
    0.63973E+06        -0.12672E+06         0.00000E+00
    0.00000E+00         0.00000E+00         0.00000E+00
 
    0.77640E+05         0.66676E+06         0.00000E+00
    0.66676E+06        -0.12574E+06         0.00000E+00
    0.00000E+00         0.00000E+00         0.00000E+00
 
    0.75402E+05         0.69349E+06         0.00000E+00
    0.69349E+06        -0.12474E+06         0.00000E+00
    0.00000E+00         0.00000E+00         0.00000E+00
 
    0.73114E+05         0.71992E+06         0.00000E+00
    0.71992E+06        -0.12369E+06         0.00000E+00
    0.00000E+00         0.00000E+00         0.00000E+00
 
    0.70777E+05         0.74604E+06         0.00000E+00
    0.74604E+06        -0.12261E+06         0.00000E+00
    0.00000E+00         0.00000E+00         0.00000E+00
 
    0.68391E+05         0.77186E+06         0.00000E+00
    0.77186E+06        -0.12149E+06         0.00000E+00
    0.00000E+00         0.00000E+00         0.00000E+00
 
    0.65957E+05         0.79735E+06         0.00000E+00
    0.79735E+06        -0.12034E+06         0.00000E+00
    0.00000E+00         0.00000E+00         0.00000E+00
 
    0.63476E+05         0.82253E+06         0.00000E+00
    0.82253E+06        -0.11916E+06         0.00000E+00
    0.00000E+00         0.00000E+00         0.00000E+00
 
    0.60948E+05         0.84737E+06         0.00000E+00
    0.84737E+06        -0.11795E+06         0.00000E+00
    0.00000E+00         0.00000E+00         0.00000E+00
 
    0.58374E+05         0.87188E+06         0.00000E+00
    0.87188E+06        -0.11670E+06         0.00000E+00
    0.00000E+00         0.00000E+00         0.00000E+00
 
    0.55755E+05         0.89606E+06         0.00000E+00
    0.89606E+06        -0.11543E+06         0.00000E+00
    0.00000E+00         0.00000E+00         0.00000E+00
 
    0.53091E+05         0.91989E+06         0.00000E+00
    0.91989E+06        -0.11412E+06         0.00000E+00
    0.00000E+00         0.00000E+00         0.00000E+00
 
    0.50383E+05         0.94337E+06         0.00000E+00
    0.94337E+06        -0.11279E+06         0.00000E+00
    0.00000E+00         0.00000E+00         0.00000E+00
 
    0.47631E+05         0.96650E+06         0.00000E+00
    0.96650E+06        -0.11143E+06         0.00000E+00
    0.00000E+00         0.00000E+00         0.00000E+00
 
    0.44837E+05         0.98928E+06         0.00000E+00
    0.98928E+06        -0.11004E+06         0.00000E+00
    0.00000E+00         0.00000E+00         0.00000E+00
 
    0.42001E+05         0.10117E+07         0.00000E+00
    0.10117E+07        -0.10863E+06         0.00000E+00
    0.00000E+00         0.00000E+00         0.00000E+00
 
    0.39123E+05         0.10337E+07         0.00000E+00
    0.10337E+07        -0.10719E+06         0.00000E+00
    0.00000E+00         0.00000E+00         0.00000E+00
 
    0.36205E+05         0.10554E+07         0.00000E+00
    0.10554E+07        -0.10573E+06         0.00000E+00
    0.00000E+00         0.00000E+00         0.00000E+00
 
    0.33248E+05         0.10767E+07         0.00000E+00
    0.10767E+07        -0.10424E+06         0.00000E+00
    0.00000E+00         0.00000E+00         0.00000E+00
 
    0.30251E+05         0.10977E+07         0.00000E+00
    0.10977E+07        -0.10274E+06         0.00000E+00
    0.00000E+00         0.00000E+00         0.00000E+00
 
    0.27217E+05         0.11182E+07         0.00000E+00
    0.11182E+07        -0.10121E+06         0.00000E+00
    0.00000E+00         0.00000E+00         0.00000E+00
 
    0.24145E+05         0.11384E+07         0.00000E+00
    0.11384E+07        -0.99662E+05         0.00000E+00
    0.00000E+00         0.00000E+00         0.00000E+00
 
    0.21036E+05         0.11582E+07         0.00000E+00
    0.11582E+07        -0.98096E+05         0.00000E+00
    0.00000E+00         0.00000E+00         0.00000E+00
 
    0.17892E+05         0.11776E+07         0.00000E+00
    0.11776E+07        -0.96511E+05         0.00000E+00
    0.00000E+00         0.00000E+00         0.00000E+00
 
    0.14712E+05         0.11966E+07         0.00000E+00
    0.11966E+07        -0.94910E+05         0.00000E+00
    0.00000E+00         0.00000E+00         0.00000E+00
 
    0.11499E+05         0.12152E+07         0.00000E+00
    0.12152E+07        -0.93292E+05         0.00000E+00
    0.00000E+00         0.00000E+00         0.00000E+00
 
    0.82525E+04         0.12334E+07         0.00000E+00
    0.12334E+07        -0.91659E+05         0.00000E+00
    0.00000E+00         0.00000E+00         0.00000E+00
 
    0.49736E+04         0.12512E+07         0.00000E+00
    0.12512E+07        -0.90013E+05         0.00000E+00
    0.00000E+00         0.00000E+00         0.00000E+00
 
    0.16630E+04         0.12687E+07         0.00000E+00
    0.12687E+07        -0.88354E+05         0.00000E+00
    0.00000E+00         0.00000E+00         0.00000E+00
 
    0.18459E+06         0.16117E+05         0.00000E+00
    0.16117E+05        -0.22521E+06         0.00000E+00
    0.00000E+00         0.00000E+00         0.00000E+00
 
    0.18289E+06         0.47998E+05         0.00000E+00
    0.47998E+05        -0.22513E+06         0.00000E+00
    0.00000E+00         0.00000E+00         0.00000E+00
 
    0.18109E+06         0.79738E+05         0.00000E+00
    0.79738E+05        -0.22496E+06         0.00000E+00
    0.00000E+00         0.00000E+00         0.00000E+00
 
    0.17919E+06         0.11133E+06         0.00000E+00
    0.11133E+06        -0.22472E+06         0.00000E+00
    0.00000E+00         0.00000E+00         0.00000E+00
 
    0.17720E+06         0.14276E+06         0.00000E+00
    0.14276E+06        -0.22440E+06         0.00000E+00
    0.00000E+00         0.00000E+00         0.00000E+00
 
    0.17511E+06         0.17403E+06         0.00000E+00
    0.17403E+06        -0.22400E+06         0.00000E+00
    0.00000E+00         0.00000E+00         0.00000E+00
 
    0.17293E+06         0.20512E+06         0.00000E+00
    0.20512E+06        -0.22352E+06         0.00000E+00
    0.00000E+00         0.00000E+00         0.00000E+00
 
    0.17065E+06         0.23603E+06         0.00000E+00
    0.23603E+06        -0.22296E+06         0.00000E+00
    0.00000E+00         0.00000E+00         0.00000E+00
 
    0.16828E+06         0.26675E+06         0.00000E+00
    0.26675E+06        -0.22233E+06         0.00000E+00
    0.00000E+00         0.00000E+00         0.00000E+00
 
    0.16582E+06         0.29726E+06         0.00000E+00
    0.29726E+06        -0.22163E+06         0.00000E+00
    0.00000E+00         0.00000E+00         0.00000E+00
 
    0.16327E+06         0.32757E+06         0.00000E+00
    0.32757E+06        -0.22085E+06         0.00000E+00
    0.00000E+00         0.00000E+00         0.00000E+00
 
    0.16063E+06         0.35767E+06         0.00000E+00
    0.35767E+06        -0.22000E+06         0.00000E+00
    0.00000E+00         0.00000E+00         0.00000E+00
 
    0.15789E+06         0.38754E+06         0.00000E+00
    0.38754E+06        -0.21907E+06         0.00000E+00
    0.00000E+00         0.00000E+00         0.00000E+00
 
    0.15507E+06         0.41719E+06         0.00000E+00
    0.41719E+06        -0.21808E+06         0.00000E+00
    0.00000E+00         0.00000E+00         0.00000E+00
 
    0.15216E+06         0.44659E+06         0.00000E+00
    0.44659E+06        -0.21701E+06         0.00000E+00
    0.00000E+00         0.00000E+00         0.00000E+00
 
    0.14916E+06         0.47575E+06         0.00000E+00
    0.47575E+06        -0.21588E+06         0.00000E+00
    0.00000E+00         0.00000E+00         0.00000E+00
 
    0.14608E+06         0.50466E+06         0.00000E+00
    0.50466E+06        -0.21468E+06         0.00000E+00
    0.00000E+00         0.00000E+00         0.00000E+00
 
    0.14291E+06         0.53331E+06         0.00000E+00
    0.53331E+06        -0.21342E+06         0.00000E+00
    0.00000E+00         0.00000E+00         0.00000E+00
 
    0.13966E+06         0.56170E+06         0.00000E+00
    0.56170E+06        -0.21209E+06         0.00000E+00
    0.00000E+00         0.00000E+00         0.00000E+00
 
    0.13632E+06         0.58981E+06         0.00000E+00
    0.58981E+06        -0.21069E+06         0.00000E+00
    0.00000E+00         0.00000E+00         0.00000E+00
 
    0.13290E+06         0.61764E+06         0.00000E+00
    0.61764E+06        -0.20924E+06         0.00000E+00
    0.00000E+00         0.00000E+00         0.00000E+00
 
    0.12940E+06         0.64519E+06         0.00000E+00
    0.64519E+06        -0.20772E+06         0.00000E+00
    0.00000E+00         0.00000E+00         0.00000E+00
 
    0.12582E+06         0.67245E+06         0.00000E+00
    0.67245E+06        -0.20614E+06         0.00000E+00
    0.00000E+00         0.00000E+00         0.00000E+00
 
    0.12216E+06         0.69941E+06         0.00000E+00
    0.69941E+06        -0.20451E+06         0.00000E+00
    0.00000E+00         0.00000E+00         0.00000E+00
 
    0.11842E+06         0.72607E+06         0.00000E+00
    0.72607E+06        -0.20281E+06         0.00000E+00
    0.00000E+00         0.00000E+00         0.00000E+00
 
    0.11461E+06         0.75242E+06         0.00000E+00
    0.75242E+06        -0.20106E+06         0.00000E+00
    0.00000E+00         0.00000E+00         0.00000E+00
 
    0.11071E+06         0.77845E+06         0.00000E+00
    0.77845E+06        -0.19926E+06         0.00000E+00
    0.00000E+00         0.00000E+00         0.00000E+00
 
    0.10674E+06         0.80416E+06         0.00000E+00
    0.80416E+06        -0.19740E+06         0.00000E+00
    0.00000E+00         0.00000E+00         0.00000E+00
 
    0.10270E+06         0.82955E+06         0.00000E+00
    0.82955E+06        -0.19549E+06         0.00000E+00
    0.00000E+00         0.00000E+00         0.00000E+00
 
    0.98586E+05         0.85461E+06         0.00000E+00
    0.85461E+06        -0.19353E+06         0.00000E+00
    0.00000E+00         0.00000E+00         0.00000E+00
 
    0.94399E+05         0.87933E+06         0.00000E+00
    0.87933E+06        -0.19152E+06         0.00000E+00
    0.00000E+00         0.00000E+00         0.00000E+00
 
    0.90140E+05         0.90371E+06         0.00000E+00
    0.90371E+06        -0.18946E+06         0.00000E+00
    0.00000E+00         0.00000E+00         0.00000E+00
 
    0.85812E+05         0.92774E+06         0.00000E+00
    0.92774E+06        -0.18736E+06         0.00000E+00
    0.00000E+00         0.00000E+00         0.00000E+00
 
    0.81415E+05         0.95143E+06         0.00000E+00
    0.95143E+06        -0.18521E+06         0.00000E+00
    0.00000E+00         0.00000E+00         0.00000E+00
 
    0.76951E+05         0.97476E+06         0.00000E+00
    0.97476E+06        -0.18302E+06         0.00000E+00
    0.00000E+00         0.00000E+00         0.00000E+00
 
    0.72420E+05         0.99773E+06         0.00000E+00
    0.99773E+06        -0.18078E+06         0.00000E+00
    0.00000E+00         0.00000E+00         0.00000E+00
 
    0.67824E+05         0.10203E+07         0.00000E+00
    0.10203E+07        -0.17851E+06         0.00000E+00
    0.00000E+00         0.00000E+00         0.00000E+00
 
    0.63164E+05         0.10426E+07         0.00000E+00
    0.10426E+07        -0.17619E+06         0.00000E+00
    0.00000E+00         0.00000E+00         0.00000E+00
 
    0.58441E+05         0.10644E+07         0.00000E+00
    0.10644E+07        -0.17384E+06         0.00000E+00
    0.00000E+00         0.00000E+00         0.00000E+00
 
    0.53656E+05         0.10859E+07         0.00000E+00
    0.10859E+07        -0.17145E+06         0.00000E+00
    0.00000E+00         0.00000E+00         0.00000E+00
 
    0.48811E+05         0.11071E+07         0.00000E+00
    0.11071E+07        -0.16903E+06         0.00000E+00
    0.00000E+00         0.00000E+00         0.00000E+00
 
    0.43907E+05         0.11278E+07         0.00000E+00
    0.11278E+07        -0.16657E+06         0.00000E+00
    0.00000E+00         0.00000E+00         0.00000E+00
 
    0.38944E+05         0.11481E+07         0.00000E+00
    0.11481E+07        -0.16408E+06         0.00000E+00
    0.00000E+00         0.00000E+00         0.00000E+00
 
    0.33924E+05         0.11681E+07         0.00000E+00
    0.11681E+07        -0.16156E+06         0.00000E+00
    0.00000E+00         0.00000E+00         0.00000E+00
 
    0.28849E+05         0.11877E+07         0.00000E+00
    0.11877E+07        -0.15901E+06         0.00000E+00
    0.00000E+00         0.00000E+00         0.00000E+00
 
    0.23719E+05         0.12068E+07         0.00000E+00
    0.12068E+07        -0.15643E+06         0.00000E+00
    0.00000E+00         0.00000E+00         0.00000E+00
 
    0.18536E+05         0.12256E+07         0.00000E+00
    0.12256E+07        -0.15383E+06         0.00000E+00
    0.00000E+00         0.00000E+00         0.00000E+00
 
    0.13301E+05         0.12440E+07         0.00000E+00
    0.12440E+07        -0.15120E+06         0.00000E+00
    0.00000E+00         0.00000E+00         0.00000E+00
 
    0.80155E+04         0.12619E+07         0.00000E+00
    0.12619E+07        -0.14855E+06         0.00000E+00
    0.00000E+00         0.00000E+00         0.00000E+00
 
    0.26800E+04         0.12795E+07         0.00000E+00
    0.12795E+07        -0.14588E+06         0.00000E+00
    0.00000E+00         0.00000E+00         0.00000E+00
 
    0.25660E+06         0.16321E+05         0.00000E+00
    0.16321E+05        -0.31390E+06         0.00000E+00
    0.00000E+00         0.00000E+00         0.00000E+00
 
    0.25421E+06         0.48605E+05         0.00000E+00
    0.48605E+05        -0.31379E+06         0.00000E+00
    0.00000E+00         0.00000E+00         0.00000E+00
 
    0.25169E+06         0.80746E+05         0.00000E+00
    0.80746E+05        -0.31356E+06         0.00000E+00
    0.00000E+00         0.00000E+00         0.00000E+00
 
    0.24904E+06         0.11274E+06         0.00000E+00
    0.11274E+06        -0.31322E+06         0.00000E+00
    0.00000E+00         0.00000E+00         0.00000E+00
 
    0.24625E+06         0.14456E+06         0.00000E+00
    0.14456E+06        -0.31277E+06         0.00000E+00
    0.00000E+00         0.00000E+00         0.00000E+00
 
    0.24333E+06         0.17623E+06         0.00000E+00
    0.17623E+06        -0.31221E+06         0.00000E+00
    0.00000E+00         0.00000E+00         0.00000E+00
 
    0.24028E+06         0.20771E+06         0.00000E+00
    0.20771E+06        -0.31154E+06         0.00000E+00
    0.00000E+00         0.00000E+00         0.00000E+00
 
    0.23709E+06         0.23901E+06         0.00000E+00
    0.23901E+06        -0.31077E+06         0.00000E+00
    0.00000E+00         0.00000E+00         0.00000E+00
 
    0.23378E+06         0.27011E+06         0.00000E+00
    0.27011E+06        -0.30989E+06         0.00000E+00
    0.00000E+00         0.00000E+00         0.00000E+00
 
    0.23034E+06         0.30101E+06         0.00000E+00
    0.30101E+06        -0.30891E+06         0.00000E+00
    0.00000E+00         0.00000E+00         0.00000E+00
 
    0.22677E+06         0.33170E+06         0.00000E+00
    0.33170E+06        -0.30782E+06         0.00000E+00
    0.00000E+00         0.00000E+00         0.00000E+00
 
    0.22307E+06         0.36217E+06         0.00000E+00
    0.36217E+06        -0.30663E+06         0.00000E+00
    0.00000E+00         0.00000E+00         0.00000E+00
 
    0.21925E+06         0.39242E+06         0.00000E+00
    0.39242E+06        -0.30535E+06         0.00000E+00
    0.00000E+00         0.00000E+00         0.00000E+00
 
    0.21531E+06         0.42243E+06         0.00000E+00
    0.42243E+06        -0.30396E+06         0.00000E+00
    0.00000E+00         0.00000E+00         0.00000E+00
 
    0.21125E+06         0.45221E+06         0.00000E+00
    0.45221E+06        -0.30248E+06         0.00000E+00
    0.00000E+00         0.00000E+00         0.00000E+00
 
    0.20706E+06         0.48173E+06         0.00000E+00
    0.48173E+06        -0.30091E+06         0.00000E+00
    0.00000E+00         0.00000E+00         0.00000E+00
 
    0.20276E+06         0.51100E+06         0.00000E+00
    0.51100E+06        -0.29924E+06         0.00000E+00
    0.00000E+00         0.00000E+00         0.00000E+00
 
    0.19833E+06         0.54001E+06         0.00000E+00
    0.54001E+06        -0.29748E+06         0.00000E+00
    0.00000E+00         0.00000E+00         0.00000E+00
 
    0.19379E+06         0.56875E+06         0.00000E+00
    0.56875E+06        -0.29563E+06         0.00000E+00
    0.00000E+00         0.00000E+00         0.00000E+00
 
    0.18914E+06         0.59721E+06         0.00000E+00
    0.59721E+06        -0.29370E+06         0.00000E+00
    0.00000E+00         0.00000E+00         0.00000E+00
 
    0.18437E+06         0.62539E+06         0.00000E+00
    0.62539E+06        -0.29168E+06         0.00000E+00
    0.00000E+00         0.00000E+00         0.00000E+00
 
    0.17949E+06         0.65328E+06         0.00000E+00
    0.65328E+06        -0.28957E+06         0.00000E+00
    0.00000E+00         0.00000E+00         0.00000E+00
 
    0.17451E+06         0.68088E+06         0.00000E+00
    0.68088E+06        -0.28738E+06         0.00000E+00
    0.00000E+00         0.00000E+00         0.00000E+00
 
    0.16941E+06         0.70817E+06         0.00000E+00
    0.70817E+06        -0.28511E+06         0.00000E+00
    0.00000E+00         0.00000E+00         0.00000E+00
 
    0.16420E+06         0.73516E+06         0.00000E+00
    0.73516E+06        -0.28276E+06         0.00000E+00
    0.00000E+00         0.00000E+00         0.00000E+00
 
    0.15889E+06         0.76183E+06         0.00000E+00
    0.76183E+06        -0.28034E+06         0.00000E+00
    0.00000E+00         0.00000E+00         0.00000E+00
 
    0.15347E+06         0.78819E+06         0.00000E+00
    0.78819E+06        -0.27784E+06         0.00000E+00
    0.00000E+00         0.00000E+00         0.00000E+00
 
    0.14795E+06         0.81422E+06         0.00000E+00
    0.81422E+06        -0.27526E+06         0.00000E+00
    0.00000E+00         0.00000E+00         0.00000E+00
 
    0.14233E+06         0.83992E+06         0.00000E+00
    0.83992E+06        -0.27262E+06         0.00000E+00
    0.00000E+00         0.00000E+00         0.00000E+00
 
    0.13661E+06         0.86529E+06         0.00000E+00
    0.86529E+06        -0.26990E+06         0.00000E+00
    0.00000E+00         0.00000E+00         0.00000E+00
 
    0.13080E+06         0.89031E+06         0.00000E+00
    0.89031E+06        -0.26712E+06         0.00000E+00
    0.00000E+00         0.00000E+00         0.00000E+00
 
    0.12488E+06         0.91500E+06         0.00000E+00
    0.91500E+06        -0.26427E+06         0.00000E+00
    0.00000E+00         0.00000E+00         0.00000E+00
 
    0.11887E+06         0.93933E+06         0.00000E+00
    0.93933E+06        -0.26136E+06         0.00000E+00
    0.00000E+00         0.00000E+00         0.00000E+00
 
    0.11277E+06         0.96330E+06         0.00000E+00
    0.96330E+06        -0.25839E+06         0.00000E+00
    0.00000E+00         0.00000E+00         0.00000E+00
 
    0.10657E+06         0.98692E+06         0.00000E+00
    0.98692E+06        -0.25535E+06         0.00000E+00
    0.00000E+00         0.00000E+00         0.00000E+00
 
    0.10029E+06         0.10102E+07         0.00000E+00
    0.10102E+07        -0.25226E+06         0.00000E+00
    0.00000E+00         0.00000E+00         0.00000E+00
 
    0.93912E+05         0.10331E+07         0.00000E+00
    0.10331E+07        -0.24911E+06         0.00000E+00
    0.00000E+00         0.00000E+00         0.00000E+00
 
    0.87451E+05         0.10556E+07         0.00000E+00
    0.10556E+07        -0.24591E+06         0.00000E+00
    0.00000E+00         0.00000E+00         0.00000E+00
 
    0.80904E+05         0.10777E+07         0.00000E+00
    0.10777E+07        -0.24266E+06         0.00000E+00
    0.00000E+00         0.00000E+00         0.00000E+00
 
    0.74273E+05         0.10995E+07         0.00000E+00
    0.10995E+07        -0.23936E+06         0.00000E+00
    0.00000E+00         0.00000E+00         0.00000E+00
 
    0.67560E+05         0.11209E+07         0.00000E+00
    0.11209E+07        -0.23601E+06         0.00000E+00
    0.00000E+00         0.00000E+00         0.00000E+00
 
    0.60767E+05         0.11418E+07         0.00000E+00
    0.11418E+07        -0.23261E+06         0.00000E+00
    0.00000E+00         0.00000E+00         0.00000E+00
 
    0.53894E+05         0.11624E+07         0.00000E+00
    0.11624E+07        -0.22917E+06         0.00000E+00
    0.00000E+00         0.00000E+00         0.00000E+00
 
    0.46944E+05         0.11826E+07         0.00000E+00
    0.11826E+07        -0.22568E+06         0.00000E+00
    0.00000E+00         0.00000E+00         0.00000E+00
 
    0.39918E+05         0.12025E+07         0.00000E+00
    0.12025E+07        -0.22216E+06         0.00000E+00
    0.00000E+00         0.00000E+00         0.00000E+00
 
    0.32818E+05         0.12219E+07         0.00000E+00
    0.12219E+07        -0.21860E+06         0.00000E+00
    0.00000E+00         0.00000E+00         0.00000E+00
 
    0.25645E+05         0.12409E+07         0.00000E+00
    0.12409E+07        -0.21500E+06         0.00000E+00
    0.00000E+00         0.00000E+00         0.00000E+00
 
    0.18401E+05         0.12595E+07         0.00000E+00
    0.12595E+07        -0.21136E+06         0.00000E+00
    0.00000E+00         0.00000E+00         0.00000E+00
 
    0.11088E+05         0.12776E+07         0.00000E+00
    0.12776E+07        -0.20770E+06         0.00000E+00
    0.00000E+00         0.00000E+00         0.00000E+00
 
    0.37072E+04         0.12954E+07         0.00000E+00
    0.12954E+07        -0.20400E+06         0.00000E+00
    0.00000E+00         0.00000E+00         0.00000E+00
 
    0.32968E+06         0.16595E+05         0.00000E+00
    0.16595E+05        -0.40389E+06         0.00000E+00
    0.00000E+00         0.00000E+00         0.00000E+00
 
    0.32660E+06         0.49417E+05         0.00000E+00
    0.49417E+05        -0.40374E+06         0.00000E+00
    0.00000E+00         0.00000E+00         0.00000E+00
 
    0.32335E+06         0.82093E+05         0.00000E+00
    0.82093E+05        -0.40344E+06         0.00000E+00
    0.00000E+00         0.00000E+00         0.00000E+00
 
    0.31992E+06         0.11462E+06         0.00000E+00
    0.11462E+06        -0.40301E+06         0.00000E+00
    0.00000E+00         0.00000E+00         0.00000E+00
 
    0.31633E+06         0.14697E+06         0.00000E+00
    0.14697E+06        -0.40243E+06         0.00000E+00
    0.00000E+00         0.00000E+00         0.00000E+00
 
    0.31256E+06         0.17916E+06         0.00000E+00
    0.17916E+06        -0.40171E+06         0.00000E+00
    0.00000E+00         0.00000E+00         0.00000E+00
 
    0.30862E+06         0.21116E+06         0.00000E+00
    0.21116E+06        -0.40085E+06         0.00000E+00
    0.00000E+00         0.00000E+00         0.00000E+00
 
    0.30451E+06         0.24298E+06         0.00000E+00
    0.24298E+06        -0.39985E+06         0.00000E+00
    0.00000E+00         0.00000E+00         0.00000E+00
 
    0.30023E+06         0.27460E+06         0.00000E+00
    0.27460E+06        -0.39872E+06         0.00000E+00
    0.00000E+00         0.00000E+00         0.00000E+00
 
    0.29579E+06         0.30601E+06         0.00000E+00
    0.30601E+06        -0.39745E+06         0.00000E+00
    0.00000E+00         0.00000E+00         0.00000E+00
 
    0.29119E+06         0.33720E+06         0.00000E+00
    0.33720E+06        -0.39605E+06         0.00000E+00
    0.00000E+00         0.00000E+00         0.00000E+00
 
    0.28642E+06         0.36818E+06         0.00000E+00
    0.36818E+06        -0.39453E+06         0.00000E+00
    0.00000E+00         0.00000E+00         0.00000E+00
 
    0.28150E+06         0.39892E+06         0.00000E+00
    0.39892E+06        -0.39287E+06         0.00000E+00
    0.00000E+00         0.00000E+00         0.00000E+00
 
    0.27642E+06         0.42942E+06         0.00000E+00
    0.42942E+06        -0.39109E+06         0.00000E+00
    0.00000E+00         0.00000E+00         0.00000E+00
 
    0.27118E+06         0.45968E+06         0.00000E+00
    0.45968E+06        -0.38919E+06         0.00000E+00
    0.00000E+00         0.00000E+00         0.00000E+00
 
    0.26578E+06         0.48969E+06         0.00000E+00
    0.48969E+06        -0.38716E+06         0.00000E+00
    0.00000E+00         0.00000E+00         0.00000E+00
 
    0.26024E+06         0.51944E+06         0.00000E+00
    0.51944E+06        -0.38502E+06         0.00000E+00
    0.00000E+00         0.00000E+00         0.00000E+00
 
    0.25454E+06         0.54892E+06         0.00000E+00
    0.54892E+06        -0.38276E+06         0.00000E+00
    0.00000E+00         0.00000E+00         0.00000E+00
 
    0.24870E+06         0.57812E+06         0.00000E+00
    0.57812E+06        -0.38039E+06         0.00000E+00
    0.00000E+00         0.00000E+00         0.00000E+00
 
    0.24270E+06         0.60705E+06         0.00000E+00
    0.60705E+06        -0.37790E+06         0.00000E+00
    0.00000E+00         0.00000E+00         0.00000E+00
 
    0.23657E+06         0.63568E+06         0.00000E+00
    0.63568E+06        -0.37530E+06         0.00000E+00
    0.00000E+00         0.00000E+00         0.00000E+00
 
    0.23029E+06         0.66403E+06         0.00000E+00
    0.66403E+06        -0.37260E+06         0.00000E+00
    0.00000E+00         0.00000E+00         0.00000E+00
 
    0.22387E+06         0.69207E+06         0.00000E+00
    0.69207E+06        -0.36979E+06         0.00000E+00
    0.00000E+00         0.00000E+00         0.00000E+00
 
    0.21731E+06         0.71980E+06         0.00000E+00
    0.71980E+06        -0.36688E+06         0.00000E+00
    0.00000E+00         0.00000E+00         0.00000E+00
 
    0.21062E+06         0.74723E+06         0.00000E+00
    0.74723E+06        -0.36387E+06         0.00000E+00
    0.00000E+00         0.00000E+00         0.00000E+00
 
    0.20379E+06         0.77433E+06         0.00000E+00
    0.77433E+06        -0.36075E+06         0.00000E+00
    0.00000E+00         0.00000E+00         0.00000E+00
 
    0.19682E+06         0.80111E+06         0.00000E+00
    0.80111E+06        -0.35755E+06         0.00000E+00
    0.00000E+00         0.00000E+00         0.00000E+00
 
    0.18973E+06         0.82756E+06         0.00000E+00
    0.82756E+06        -0.35425E+06         0.00000E+00
    0.00000E+00         0.00000E+00         0.00000E+00
 
    0.18251E+06         0.85368E+06         0.00000E+00
    0.85368E+06        -0.35086E+06         0.00000E+00
    0.00000E+00         0.00000E+00         0.00000E+00
 
    0.17516E+06         0.87945E+06         0.00000E+00
    0.87945E+06        -0.34738E+06         0.00000E+00
    0.00000E+00         0.00000E+00         0.00000E+00
 
    0.16769E+06         0.90488E+06         0.00000E+00
    0.90488E+06        -0.34381E+06         0.00000E+00
    0.00000E+00         0.00000E+00         0.00000E+00
 
    0.16009E+06         0.92996E+06         0.00000E+00
    0.92996E+06        -0.34016E+06         0.00000E+00
    0.00000E+00         0.00000E+00         0.00000E+00
 
    0.15238E+06         0.95468E+06         0.00000E+00
    0.95468E+06        -0.33643E+06         0.00000E+00
    0.00000E+00         0.00000E+00         0.00000E+00
 
    0.14454E+06         0.97904E+06         0.00000E+00
    0.97904E+06        -0.33262E+06         0.00000E+00
    0.00000E+00         0.00000E+00         0.00000E+00
 
    0.13659E+06         0.10030E+07         0.00000E+00
    0.10030E+07        -0.32874E+06         0.00000E+00
    0.00000E+00         0.00000E+00         0.00000E+00
 
    0.12853E+06         0.10267E+07         0.00000E+00
    0.10267E+07        -0.32478E+06         0.00000E+00
    0.00000E+00         0.00000E+00         0.00000E+00
 
    0.12035E+06         0.10499E+07         0.00000E+00
    0.10499E+07        -0.32075E+06         0.00000E+00
    0.00000E+00         0.00000E+00         0.00000E+00
 
    0.11206E+06         0.10728E+07         0.00000E+00
    0.10728E+07        -0.31665E+06         0.00000E+00
    0.00000E+00         0.00000E+00         0.00000E+00
 
    0.10367E+06         0.10953E+07         0.00000E+00
    0.10953E+07        -0.31248E+06         0.00000E+00
    0.00000E+00         0.00000E+00         0.00000E+00
 
    0.95164E+05         0.11174E+07         0.00000E+00
    0.11174E+07        -0.30825E+06         0.00000E+00
    0.00000E+00         0.00000E+00         0.00000E+00
 
    0.86558E+05         0.11391E+07         0.00000E+00
    0.11391E+07        -0.30396E+06         0.00000E+00
    0.00000E+00         0.00000E+00         0.00000E+00
 
    0.77850E+05         0.11604E+07         0.00000E+00
    0.11604E+07        -0.29961E+06         0.00000E+00
    0.00000E+00         0.00000E+00         0.00000E+00
 
    0.69041E+05         0.11814E+07         0.00000E+00
    0.11814E+07        -0.29521E+06         0.00000E+00
    0.00000E+00         0.00000E+00         0.00000E+00
 
    0.60135E+05         0.12019E+07         0.00000E+00
    0.12019E+07        -0.29075E+06         0.00000E+00
    0.00000E+00         0.00000E+00         0.00000E+00
 
    0.51132E+05         0.12220E+07         0.00000E+00
    0.12220E+07        -0.28624E+06         0.00000E+00
    0.00000E+00         0.00000E+00         0.00000E+00
 
    0.42036E+05         0.12417E+07         0.00000E+00
    0.12417E+07        -0.28168E+06         0.00000E+00
    0.00000E+00         0.00000E+00         0.00000E+00
 
    0.32847E+05         0.12611E+07         0.00000E+00
    0.12611E+07        -0.27707E+06         0.00000E+00
    0.00000E+00         0.00000E+00         0.00000E+00
 
    0.23568E+05         0.12800E+07         0.00000E+00
    0.12800E+07        -0.27242E+06         0.00000E+00
    0.00000E+00         0.00000E+00         0.00000E+00
 
    0.14201E+05         0.12984E+07         0.00000E+00
    0.12984E+07        -0.26772E+06         0.00000E+00
    0.00000E+00         0.00000E+00         0.00000E+00
 
    0.47479E+04         0.13165E+07         0.00000E+00
    0.13165E+07        -0.26299E+06         0.00000E+00
    0.00000E+00         0.00000E+00         0.00000E+00
 
    0.40414E+06         0.16938E+05         0.00000E+00
    0.16938E+05        -0.49553E+06         0.00000E+00
    0.00000E+00         0.00000E+00         0.00000E+00
 
    0.40036E+06         0.50438E+05         0.00000E+00
    0.50438E+05        -0.49534E+06         0.00000E+00
    0.00000E+00         0.00000E+00         0.00000E+00
 
    0.39636E+06         0.83787E+05         0.00000E+00
    0.83787E+05        -0.49498E+06         0.00000E+00
    0.00000E+00         0.00000E+00         0.00000E+00
 
    0.39214E+06         0.11698E+06         0.00000E+00
    0.11698E+06        -0.49445E+06         0.00000E+00
    0.00000E+00         0.00000E+00         0.00000E+00
 
    0.38771E+06         0.15000E+06         0.00000E+00
    0.15000E+06        -0.49373E+06         0.00000E+00
    0.00000E+00         0.00000E+00         0.00000E+00
 
    0.38308E+06         0.18284E+06         0.00000E+00
    0.18284E+06        -0.49285E+06         0.00000E+00
    0.00000E+00         0.00000E+00         0.00000E+00
 
    0.37823E+06         0.21550E+06         0.00000E+00
    0.21550E+06        -0.49179E+06         0.00000E+00
    0.00000E+00         0.00000E+00         0.00000E+00
 
    0.37317E+06         0.24797E+06         0.00000E+00
    0.24797E+06        -0.49057E+06         0.00000E+00
    0.00000E+00         0.00000E+00         0.00000E+00
 
    0.36791E+06         0.28023E+06         0.00000E+00
    0.28023E+06        -0.48917E+06         0.00000E+00
    0.00000E+00         0.00000E+00         0.00000E+00
 
    0.36245E+06         0.31228E+06         0.00000E+00
    0.31228E+06        -0.48762E+06         0.00000E+00
    0.00000E+00         0.00000E+00         0.00000E+00
 
    0.35679E+06         0.34410E+06         0.00000E+00
    0.34410E+06        -0.48590E+06         0.00000E+00
    0.00000E+00         0.00000E+00         0.00000E+00
 
    0.35093E+06         0.37570E+06         0.00000E+00
    0.37570E+06        -0.48403E+06         0.00000E+00
    0.00000E+00         0.00000E+00         0.00000E+00
 
    0.34488E+06         0.40707E+06         0.00000E+00
    0.40707E+06        -0.48200E+06         0.00000E+00
    0.00000E+00         0.00000E+00         0.00000E+00
 
    0.33863E+06         0.43819E+06         0.00000E+00
    0.43819E+06        -0.47982E+06         0.00000E+00
    0.00000E+00         0.00000E+00         0.00000E+00
 
    0.33219E+06         0.46906E+06         0.00000E+00
    0.46906E+06        -0.47748E+06         0.00000E+00
    0.00000E+00         0.00000E+00         0.00000E+00
 
    0.32556E+06         0.49967E+06         0.00000E+00
    0.49967E+06        -0.47500E+06         0.00000E+00
    0.00000E+00         0.00000E+00         0.00000E+00
 
    0.31875E+06         0.53001E+06         0.00000E+00
    0.53001E+06        -0.47237E+06         0.00000E+00
    0.00000E+00         0.00000E+00         0.00000E+00
 
    0.31175E+06         0.56008E+06         0.00000E+00
    0.56008E+06        -0.46960E+06         0.00000E+00
    0.00000E+00         0.00000E+00         0.00000E+00
 
    0.30457E+06         0.58987E+06         0.00000E+00
    0.58987E+06        -0.46669E+06         0.00000E+00
    0.00000E+00         0.00000E+00         0.00000E+00
 
    0.29721E+06         0.61937E+06         0.00000E+00
    0.61937E+06        -0.46364E+06         0.00000E+00
    0.00000E+00         0.00000E+00         0.00000E+00
 
    0.28968E+06         0.64857E+06         0.00000E+00
    0.64857E+06        -0.46046E+06         0.00000E+00
    0.00000E+00         0.00000E+00         0.00000E+00
 
    0.28197E+06         0.67748E+06         0.00000E+00
    0.67748E+06        -0.45715E+06         0.00000E+00
    0.00000E+00         0.00000E+00         0.00000E+00
 
    0.27409E+06         0.70607E+06         0.00000E+00
    0.70607E+06        -0.45371E+06         0.00000E+00
    0.00000E+00         0.00000E+00         0.00000E+00
 
    0.26604E+06         0.73436E+06         0.00000E+00
    0.73436E+06        -0.45014E+06         0.00000E+00
    0.00000E+00         0.00000E+00         0.00000E+00
 
    0.25783E+06         0.76232E+06         0.00000E+00
    0.76232E+06        -0.44645E+06         0.00000E+00
    0.00000E+00         0.00000E+00         0.00000E+00
 
    0.24945E+06         0.78996E+06         0.00000E+00
    0.78996E+06        -0.44265E+06         0.00000E+00
    0.00000E+00         0.00000E+00         0.00000E+00
 
    0.24091E+06         0.81727E+06         0.00000E+00
    0.81727E+06        -0.43872E+06         0.00000E+00
    0.00000E+00         0.00000E+00         0.00000E+00
 
    0.23222E+06         0.84424E+06         0.00000E+00
    0.84424E+06        -0.43468E+06         0.00000E+00
    0.00000E+00         0.00000E+00         0.00000E+00
 
    0.22336E+06         0.87087E+06         0.00000E+00
    0.87087E+06        -0.43053E+06         0.00000E+00
    0.00000E+00         0.00000E+00         0.00000E+00
 
    0.21436E+06         0.89715E+06         0.00000E+00
    0.89715E+06        -0.42627E+06         0.00000E+00
    0.00000E+00         0.00000E+00         0.00000E+00
 
    0.20520E+06         0.92308E+06         0.00000E+00
    0.92308E+06        -0.42191E+06         0.00000E+00
    0.00000E+00         0.00000E+00         0.00000E+00
 
    0.19589E+06         0.94865E+06         0.00000E+00
    0.94865E+06        -0.41745E+06         0.00000E+00
    0.00000E+00         0.00000E+00         0.00000E+00
 
    0.18644E+06         0.97385E+06         0.00000E+00
    0.97385E+06        -0.41288E+06         0.00000E+00
    0.00000E+00         0.00000E+00         0.00000E+00
 
    0.17684E+06         0.99869E+06         0.00000E+00
    0.99869E+06        -0.40823E+06         0.00000E+00
    0.00000E+00         0.00000E+00         0.00000E+00
 
    0.16711E+06         0.10232E+07         0.00000E+00
    0.10232E+07        -0.40348E+06         0.00000E+00
    0.00000E+00         0.00000E+00         0.00000E+00
 
    0.15723E+06         0.10473E+07         0.00000E+00
    0.10473E+07        -0.39863E+06         0.00000E+00
    0.00000E+00         0.00000E+00         0.00000E+00
 
    0.14722E+06         0.10710E+07         0.00000E+00
    0.10710E+07        -0.39371E+06         0.00000E+00
    0.00000E+00         0.00000E+00         0.00000E+00
 
    0.13707E+06         0.10943E+07         0.00000E+00
    0.10943E+07        -0.38870E+06         0.00000E+00
    0.00000E+00         0.00000E+00         0.00000E+00
 
    0.12680E+06         0.11172E+07         0.00000E+00
    0.11172E+07        -0.38360E+06         0.00000E+00
    0.00000E+00         0.00000E+00         0.00000E+00
 
    0.11639E+06         0.11398E+07         0.00000E+00
    0.11398E+07        -0.37843E+06         0.00000E+00
    0.00000E+00         0.00000E+00         0.00000E+00
 
    0.10586E+06         0.11619E+07         0.00000E+00
    0.11619E+07        -0.37319E+06         0.00000E+00
    0.00000E+00         0.00000E+00         0.00000E+00
 
    0.95208E+05         0.11837E+07         0.00000E+00
    0.11837E+07        -0.36787E+06         0.00000E+00
    0.00000E+00         0.00000E+00         0.00000E+00
 
    0.84432E+05         0.12050E+07         0.00000E+00
    0.12050E+07        -0.36249E+06         0.00000E+00
    0.00000E+00         0.00000E+00         0.00000E+00
 
    0.73537E+05         0.12259E+07         0.00000E+00
    0.12259E+07        -0.35703E+06         0.00000E+00
    0.00000E+00         0.00000E+00         0.00000E+00
 
    0.62525E+05         0.12465E+07         0.00000E+00
    0.12465E+07        -0.35152E+06         0.00000E+00
    0.00000E+00         0.00000E+00         0.00000E+00
 
    0.51400E+05         0.12666E+07         0.00000E+00
    0.12666E+07        -0.34595E+06         0.00000E+00
    0.00000E+00         0.00000E+00         0.00000E+00
 
    0.40163E+05         0.12863E+07         0.00000E+00
    0.12863E+07        -0.34031E+06         0.00000E+00
    0.00000E+00         0.00000E+00         0.00000E+00
 
    0.28816E+05         0.13055E+07         0.00000E+00
    0.13055E+07        -0.33463E+06         0.00000E+00
    0.00000E+00         0.00000E+00         0.00000E+00
 
    0.17363E+05         0.13244E+07         0.00000E+00
    0.13244E+07        -0.32889E+06         0.00000E+00
    0.00000E+00         0.00000E+00         0.00000E+00
 
    0.58049E+04         0.13428E+07         0.00000E+00
    0.13428E+07        -0.32310E+06         0.00000E+00
    0.00000E+00         0.00000E+00         0.00000E+00
 
    0.48033E+06         0.17355E+05         0.00000E+00
    0.17355E+05        -0.58920E+06         0.00000E+00
    0.00000E+00         0.00000E+00         0.00000E+00
 
    0.47581E+06         0.51672E+05         0.00000E+00
    0.51672E+05        -0.58898E+06         0.00000E+00
    0.00000E+00         0.00000E+00         0.00000E+00
 
    0.47104E+06         0.85835E+05         0.00000E+00
    0.85835E+05        -0.58855E+06         0.00000E+00
    0.00000E+00         0.00000E+00         0.00000E+00
 
    0.46601E+06         0.11983E+06         0.00000E+00
    0.11983E+06        -0.58791E+06         0.00000E+00
    0.00000E+00         0.00000E+00         0.00000E+00
 
    0.46072E+06         0.15366E+06         0.00000E+00
    0.15366E+06        -0.58706E+06         0.00000E+00
    0.00000E+00         0.00000E+00         0.00000E+00
 
    0.45519E+06         0.18730E+06         0.00000E+00
    0.18730E+06        -0.58601E+06         0.00000E+00
    0.00000E+00         0.00000E+00         0.00000E+00
 
    0.44940E+06         0.22075E+06         0.00000E+00
    0.22075E+06        -0.58475E+06         0.00000E+00
    0.00000E+00         0.00000E+00         0.00000E+00
 
    0.44337E+06         0.25399E+06         0.00000E+00
    0.25399E+06        -0.58329E+06         0.00000E+00
    0.00000E+00         0.00000E+00         0.00000E+00
 
    0.43710E+06         0.28703E+06         0.00000E+00
    0.28703E+06        -0.58164E+06         0.00000E+00
    0.00000E+00         0.00000E+00         0.00000E+00
 
    0.43059E+06         0.31985E+06         0.00000E+00
    0.31985E+06        -0.57979E+06         0.00000E+00
    0.00000E+00         0.00000E+00         0.00000E+00
 
    0.42384E+06         0.35244E+06         0.00000E+00
    0.35244E+06        -0.57774E+06         0.00000E+00
    0.00000E+00         0.00000E+00         0.00000E+00
 
    0.41685E+06         0.38479E+06         0.00000E+00
    0.38479E+06        -0.57551E+06         0.00000E+00
    0.00000E+00         0.00000E+00         0.00000E+00
 
    0.40963E+06         0.41690E+06         0.00000E+00
    0.41690E+06        -0.57310E+06         0.00000E+00
    0.00000E+00         0.00000E+00         0.00000E+00
 
    0.40219E+06         0.44876E+06         0.00000E+00
    0.44876E+06        -0.57050E+06         0.00000E+00
    0.00000E+00         0.00000E+00         0.00000E+00
 
    0.39451E+06         0.48036E+06         0.00000E+00
    0.48036E+06        -0.56773E+06         0.00000E+00
    0.00000E+00         0.00000E+00         0.00000E+00
 
    0.38662E+06         0.51169E+06         0.00000E+00
    0.51169E+06        -0.56478E+06         0.00000E+00
    0.00000E+00         0.00000E+00         0.00000E+00
 
    0.37850E+06         0.54275E+06         0.00000E+00
    0.54275E+06        -0.56165E+06         0.00000E+00
    0.00000E+00         0.00000E+00         0.00000E+00
 
    0.37017E+06         0.57353E+06         0.00000E+00
    0.57353E+06        -0.55836E+06         0.00000E+00
    0.00000E+00         0.00000E+00         0.00000E+00
 
    0.36162E+06         0.60402E+06         0.00000E+00
    0.60402E+06        -0.55490E+06         0.00000E+00
    0.00000E+00         0.00000E+00         0.00000E+00
 
    0.35286E+06         0.63421E+06         0.00000E+00
    0.63421E+06        -0.55128E+06         0.00000E+00
    0.00000E+00         0.00000E+00         0.00000E+00
 
    0.34390E+06         0.66410E+06         0.00000E+00
    0.66410E+06        -0.54750E+06         0.00000E+00
    0.00000E+00         0.00000E+00         0.00000E+00
 
    0.33472E+06         0.69368E+06         0.00000E+00
    0.69368E+06        -0.54357E+06         0.00000E+00
    0.00000E+00         0.00000E+00         0.00000E+00
 
    0.32535E+06         0.72294E+06         0.00000E+00
    0.72294E+06        -0.53948E+06         0.00000E+00
    0.00000E+00         0.00000E+00         0.00000E+00
 
    0.31578E+06         0.75189E+06         0.00000E+00
    0.75189E+06        -0.53525E+06         0.00000E+00
    0.00000E+00         0.00000E+00         0.00000E+00
 
    0.30601E+06         0.78050E+06         0.00000E+00
    0.78050E+06        -0.53087E+06         0.00000E+00
    0.00000E+00         0.00000E+00         0.00000E+00
 
    0.29605E+06         0.80878E+06         0.00000E+00
    0.80878E+06        -0.52635E+06         0.00000E+00
    0.00000E+00         0.00000E+00         0.00000E+00
 
    0.28589E+06         0.83672E+06         0.00000E+00
    0.83672E+06        -0.52169E+06         0.00000E+00
    0.00000E+00         0.00000E+00         0.00000E+00
 
    0.27556E+06         0.86431E+06         0.00000E+00
    0.86431E+06        -0.51690E+06         0.00000E+00
    0.00000E+00         0.00000E+00         0.00000E+00
 
    0.26503E+06         0.89156E+06         0.00000E+00
    0.89156E+06        -0.51197E+06         0.00000E+00
    0.00000E+00         0.00000E+00         0.00000E+00
 
    0.25433E+06         0.91845E+06         0.00000E+00
    0.91845E+06        -0.50692E+06         0.00000E+00
    0.00000E+00         0.00000E+00         0.00000E+00
 
    0.24345E+06         0.94497E+06         0.00000E+00
    0.94497E+06        -0.50175E+06         0.00000E+00
    0.00000E+00         0.00000E+00         0.00000E+00
 
    0.23240E+06         0.97113E+06         0.00000E+00
    0.97113E+06        -0.49645E+06         0.00000E+00
    0.00000E+00         0.00000E+00         0.00000E+00
 
    0.22117E+06         0.99692E+06         0.00000E+00
    0.99692E+06        -0.49104E+06         0.00000E+00
    0.00000E+00         0.00000E+00         0.00000E+00
 
    0.20977E+06         0.10223E+07         0.00000E+00
    0.10223E+07        -0.48552E+06         0.00000E+00
    0.00000E+00         0.00000E+00         0.00000E+00
 
    0.19821E+06         0.10474E+07         0.00000E+00
    0.10474E+07        -0.47988E+06         0.00000E+00
    0.00000E+00         0.00000E+00         0.00000E+00
 
    0.18649E+06         0.10720E+07         0.00000E+00
    0.10720E+07        -0.47414E+06         0.00000E+00
    0.00000E+00         0.00000E+00         0.00000E+00
 
    0.17460E+06         0.10963E+07         0.00000E+00
    0.10963E+07        -0.46830E+06         0.00000E+00
    0.00000E+00         0.00000E+00         0.00000E+00
 
    0.16256E+06         0.11201E+07         0.00000E+00
    0.11201E+07        -0.46236E+06         0.00000E+00
    0.00000E+00         0.00000E+00         0.00000E+00
 
    0.15037E+06         0.11436E+07         0.00000E+00
    0.11436E+07        -0.45633E+06         0.00000E+00
    0.00000E+00         0.00000E+00         0.00000E+00
 
    0.13802E+06         0.11667E+07         0.00000E+00
    0.11667E+07        -0.45020E+06         0.00000E+00
    0.00000E+00         0.00000E+00         0.00000E+00
 
    0.12553E+06         0.11893E+07         0.00000E+00
    0.11893E+07        -0.44398E+06         0.00000E+00
    0.00000E+00         0.00000E+00         0.00000E+00
 
    0.11289E+06         0.12116E+07         0.00000E+00
    0.12116E+07        -0.43768E+06         0.00000E+00
    0.00000E+00         0.00000E+00         0.00000E+00
 
    0.10011E+06         0.12334E+07         0.00000E+00
    0.12334E+07        -0.43130E+06         0.00000E+00
    0.00000E+00         0.00000E+00         0.00000E+00
 
    0.87189E+05         0.12548E+07         0.00000E+00
    0.12548E+07        -0.42484E+06         0.00000E+00
    0.00000E+00         0.00000E+00         0.00000E+00
 
    0.74130E+05         0.12758E+07         0.00000E+00
    0.12758E+07        -0.41830E+06         0.00000E+00
    0.00000E+00         0.00000E+00         0.00000E+00
 
    0.60938E+05         0.12964E+07         0.00000E+00
    0.12964E+07        -0.41169E+06         0.00000E+00
    0.00000E+00         0.00000E+00         0.00000E+00
 
    0.47614E+05         0.13166E+07         0.00000E+00
    0.13166E+07        -0.40502E+06         0.00000E+00
    0.00000E+00         0.00000E+00         0.00000E+00
 
    0.34162E+05         0.13363E+07         0.00000E+00
    0.13363E+07        -0.39828E+06         0.00000E+00
    0.00000E+00         0.00000E+00         0.00000E+00
 
    0.20583E+05         0.13556E+07         0.00000E+00
    0.13556E+07        -0.39148E+06         0.00000E+00
    0.00000E+00         0.00000E+00         0.00000E+00
 
    0.68813E+04         0.13745E+07         0.00000E+00
    0.13745E+07        -0.38462E+06         0.00000E+00
    0.00000E+00         0.00000E+00         0.00000E+00
 
    0.55856E+06         0.17845E+05         0.00000E+00
    0.17845E+05        -0.68529E+06         0.00000E+00
    0.00000E+00         0.00000E+00         0.00000E+00
 
    0.55328E+06         0.53128E+05         0.00000E+00
    0.53128E+05        -0.68504E+06         0.00000E+00
    0.00000E+00         0.00000E+00         0.00000E+00
 
    0.54770E+06         0.88248E+05         0.00000E+00
    0.88248E+05        -0.68454E+06         0.00000E+00
    0.00000E+00         0.00000E+00         0.00000E+00
 
    0.54183E+06         0.12320E+06         0.00000E+00
    0.12320E+06        -0.68379E+06         0.00000E+00
    0.00000E+00         0.00000E+00         0.00000E+00
 
    0.53565E+06         0.15796E+06         0.00000E+00
    0.15796E+06        -0.68280E+06         0.00000E+00
    0.00000E+00         0.00000E+00         0.00000E+00
 
    0.52919E+06         0.19254E+06         0.00000E+00
    0.19254E+06        -0.68157E+06         0.00000E+00
    0.00000E+00         0.00000E+00         0.00000E+00
 
    0.52244E+06         0.22692E+06         0.00000E+00
    0.22692E+06        -0.68011E+06         0.00000E+00
    0.00000E+00         0.00000E+00         0.00000E+00
 
    0.51540E+06         0.26108E+06         0.00000E+00
    0.26108E+06        -0.67841E+06         0.00000E+00
    0.00000E+00         0.00000E+00         0.00000E+00
 
    0.50807E+06         0.29503E+06         0.00000E+00
    0.29503E+06        -0.67648E+06         0.00000E+00
    0.00000E+00         0.00000E+00         0.00000E+00
 
    0.50047E+06         0.32875E+06         0.00000E+00
    0.32875E+06        -0.67432E+06         0.00000E+00
    0.00000E+00         0.00000E+00         0.00000E+00
 
    0.49259E+06         0.36223E+06         0.00000E+00
    0.36223E+06        -0.67195E+06         0.00000E+00
    0.00000E+00         0.00000E+00         0.00000E+00
 
    0.48444E+06         0.39547E+06         0.00000E+00
    0.39547E+06        -0.66935E+06         0.00000E+00
    0.00000E+00         0.00000E+00         0.00000E+00
 
    0.47602E+06         0.42846E+06         0.00000E+00
    0.42846E+06        -0.66654E+06         0.00000E+00
    0.00000E+00         0.00000E+00         0.00000E+00
 
    0.46734E+06         0.46119E+06         0.00000E+00
    0.46119E+06        -0.66352E+06         0.00000E+00
    0.00000E+00         0.00000E+00         0.00000E+00
 
    0.45839E+06         0.49365E+06         0.00000E+00
    0.49365E+06        -0.66029E+06         0.00000E+00
    0.00000E+00         0.00000E+00         0.00000E+00
 
    0.44919E+06         0.52583E+06         0.00000E+00
    0.52583E+06        -0.65686E+06         0.00000E+00
    0.00000E+00         0.00000E+00         0.00000E+00
 
    0.43973E+06         0.55772E+06         0.00000E+00
    0.55772E+06        -0.65323E+06         0.00000E+00
    0.00000E+00         0.00000E+00         0.00000E+00
 
    0.43002E+06         0.58933E+06         0.00000E+00
    0.58933E+06        -0.64940E+06         0.00000E+00
    0.00000E+00         0.00000E+00         0.00000E+00
 
    0.42006E+06         0.62064E+06         0.00000E+00
    0.62064E+06        -0.64538E+06         0.00000E+00
    0.00000E+00         0.00000E+00         0.00000E+00
 
    0.40986E+06         0.65164E+06         0.00000E+00
    0.65164E+06        -0.64117E+06         0.00000E+00
    0.00000E+00         0.00000E+00         0.00000E+00
 
    0.39941E+06         0.68232E+06         0.00000E+00
    0.68232E+06        -0.63678E+06         0.00000E+00
    0.00000E+00         0.00000E+00         0.00000E+00
 
    0.38873E+06         0.71269E+06         0.00000E+00
    0.71269E+06        -0.63221E+06         0.00000E+00
    0.00000E+00         0.00000E+00         0.00000E+00
 
    0.37782E+06         0.74274E+06         0.00000E+00
    0.74274E+06        -0.62746E+06         0.00000E+00
    0.00000E+00         0.00000E+00         0.00000E+00
 
    0.36668E+06         0.77245E+06         0.00000E+00
    0.77245E+06        -0.62254E+06         0.00000E+00
    0.00000E+00         0.00000E+00         0.00000E+00
 
    0.35531E+06         0.80182E+06         0.00000E+00
    0.80182E+06        -0.61746E+06         0.00000E+00
    0.00000E+00         0.00000E+00         0.00000E+00
 
    0.34372E+06         0.83085E+06         0.00000E+00
    0.83085E+06        -0.61221E+06         0.00000E+00
    0.00000E+00         0.00000E+00         0.00000E+00
 
    0.33191E+06         0.85953E+06         0.00000E+00
    0.85953E+06        -0.60680E+06         0.00000E+00
    0.00000E+00         0.00000E+00         0.00000E+00
 
    0.31989E+06         0.88785E+06         0.00000E+00
    0.88785E+06        -0.60123E+06         0.00000E+00
    0.00000E+00         0.00000E+00         0.00000E+00
 
    0.30765E+06         0.91582E+06         0.00000E+00
    0.91582E+06        -0.59552E+06         0.00000E+00
    0.00000E+00         0.00000E+00         0.00000E+00
 
    0.29521E+06         0.94341E+06         0.00000E+00
    0.94341E+06        -0.58966E+06         0.00000E+00
    0.00000E+00         0.00000E+00         0.00000E+00
 
    0.28256E+06         0.97064E+06         0.00000E+00
    0.97064E+06        -0.58365E+06         0.00000E+00
    0.00000E+00         0.00000E+00         0.00000E+00
 
    0.26972E+06         0.99748E+06         0.00000E+00
    0.99748E+06        -0.57751E+06         0.00000E+00
    0.00000E+00         0.00000E+00         0.00000E+00
 
    0.25667E+06         0.10240E+07         0.00000E+00
    0.10240E+07        -0.57123E+06         0.00000E+00
    0.00000E+00         0.00000E+00         0.00000E+00
 
    0.24343E+06         0.10500E+07         0.00000E+00
    0.10500E+07        -0.56482E+06         0.00000E+00
    0.00000E+00         0.00000E+00         0.00000E+00
 
    0.23000E+06         0.10757E+07         0.00000E+00
    0.10757E+07        -0.55829E+06         0.00000E+00
    0.00000E+00         0.00000E+00         0.00000E+00
 
    0.21639E+06         0.11010E+07         0.00000E+00
    0.11010E+07        -0.55163E+06         0.00000E+00
    0.00000E+00         0.00000E+00         0.00000E+00
 
    0.20259E+06         0.11259E+07         0.00000E+00
    0.11259E+07        -0.54486E+06         0.00000E+00
    0.00000E+00         0.00000E+00         0.00000E+00
 
    0.18861E+06         0.11504E+07         0.00000E+00
    0.11504E+07        -0.53797E+06         0.00000E+00
    0.00000E+00         0.00000E+00         0.00000E+00
 
    0.17445E+06         0.11745E+07         0.00000E+00
    0.11745E+07        -0.53097E+06         0.00000E+00
    0.00000E+00         0.00000E+00         0.00000E+00
 
    0.16012E+06         0.11982E+07         0.00000E+00
    0.11982E+07        -0.52386E+06         0.00000E+00
    0.00000E+00         0.00000E+00         0.00000E+00
 
    0.14562E+06         0.12214E+07         0.00000E+00
    0.12214E+07        -0.51665E+06         0.00000E+00
    0.00000E+00         0.00000E+00         0.00000E+00
 
    0.13095E+06         0.12443E+07         0.00000E+00
    0.12443E+07        -0.50935E+06         0.00000E+00
    0.00000E+00         0.00000E+00         0.00000E+00
 
    0.11612E+06         0.12667E+07         0.00000E+00
    0.12667E+07        -0.50195E+06         0.00000E+00
    0.00000E+00         0.00000E+00         0.00000E+00
 
    0.10113E+06         0.12887E+07         0.00000E+00
    0.12887E+07        -0.49445E+06         0.00000E+00
    0.00000E+00         0.00000E+00         0.00000E+00
 
    0.85979E+05         0.13102E+07         0.00000E+00
    0.13102E+07        -0.48688E+06         0.00000E+00
    0.00000E+00         0.00000E+00         0.00000E+00
 
    0.70675E+05         0.13314E+07         0.00000E+00
    0.13314E+07        -0.47922E+06         0.00000E+00
    0.00000E+00         0.00000E+00         0.00000E+00
 
    0.55220E+05         0.13521E+07         0.00000E+00
    0.13521E+07        -0.47148E+06         0.00000E+00
    0.00000E+00         0.00000E+00         0.00000E+00
 
    0.39618E+05         0.13723E+07         0.00000E+00
    0.13723E+07        -0.46366E+06         0.00000E+00
    0.00000E+00         0.00000E+00         0.00000E+00
 
    0.23870E+05         0.13922E+07         0.00000E+00
    0.13922E+07        -0.45578E+06         0.00000E+00
    0.00000E+00         0.00000E+00         0.00000E+00
 
    0.79800E+04         0.14115E+07         0.00000E+00
    0.14115E+07        -0.44783E+06         0.00000E+00
    0.00000E+00         0.00000E+00         0.00000E+00
 
    0.63919E+06         0.18413E+05         0.00000E+00
    0.18413E+05        -0.78420E+06         0.00000E+00
    0.00000E+00         0.00000E+00         0.00000E+00
 
    0.63312E+06         0.54810E+05         0.00000E+00
    0.54810E+05        -0.78391E+06         0.00000E+00
    0.00000E+00         0.00000E+00         0.00000E+00
 
    0.62670E+06         0.91037E+05         0.00000E+00
    0.91037E+05        -0.78334E+06         0.00000E+00
    0.00000E+00         0.00000E+00         0.00000E+00
 
    0.61993E+06         0.12708E+06         0.00000E+00
    0.12708E+06        -0.78248E+06         0.00000E+00
    0.00000E+00         0.00000E+00         0.00000E+00
 
    0.61283E+06         0.16294E+06         0.00000E+00
    0.16294E+06        -0.78134E+06         0.00000E+00
    0.00000E+00         0.00000E+00         0.00000E+00
 
    0.60540E+06         0.19859E+06         0.00000E+00
    0.19859E+06        -0.77993E+06         0.00000E+00
    0.00000E+00         0.00000E+00         0.00000E+00
 
    0.59763E+06         0.23404E+06         0.00000E+00
    0.23404E+06        -0.77825E+06         0.00000E+00
    0.00000E+00         0.00000E+00         0.00000E+00
 
    0.58953E+06         0.26927E+06         0.00000E+00
    0.26927E+06        -0.77631E+06         0.00000E+00
    0.00000E+00         0.00000E+00         0.00000E+00
 
    0.58112E+06         0.30427E+06         0.00000E+00
    0.30427E+06        -0.77410E+06         0.00000E+00
    0.00000E+00         0.00000E+00         0.00000E+00
 
    0.57238E+06         0.33903E+06         0.00000E+00
    0.33903E+06        -0.77163E+06         0.00000E+00
    0.00000E+00         0.00000E+00         0.00000E+00
 
    0.56333E+06         0.37354E+06         0.00000E+00
    0.37354E+06        -0.76890E+06         0.00000E+00
    0.00000E+00         0.00000E+00         0.00000E+00
 
    0.55397E+06         0.40780E+06         0.00000E+00
    0.40780E+06        -0.76593E+06         0.00000E+00
    0.00000E+00         0.00000E+00         0.00000E+00
 
    0.54430E+06         0.44179E+06         0.00000E+00
    0.44179E+06        -0.76271E+06         0.00000E+00
    0.00000E+00         0.00000E+00         0.00000E+00
 
    0.53433E+06         0.47552E+06         0.00000E+00
    0.47552E+06        -0.75925E+06         0.00000E+00
    0.00000E+00         0.00000E+00         0.00000E+00
 
    0.52406E+06         0.50896E+06         0.00000E+00
    0.50896E+06        -0.75556E+06         0.00000E+00
    0.00000E+00         0.00000E+00         0.00000E+00
 
    0.51350E+06         0.54211E+06         0.00000E+00
    0.54211E+06        -0.75163E+06         0.00000E+00
    0.00000E+00         0.00000E+00         0.00000E+00
 
    0.50264E+06         0.57498E+06         0.00000E+00
    0.57498E+06        -0.74747E+06         0.00000E+00
    0.00000E+00         0.00000E+00         0.00000E+00
 
    0.49151E+06         0.60753E+06         0.00000E+00
    0.60753E+06        -0.74309E+06         0.00000E+00
    0.00000E+00         0.00000E+00         0.00000E+00
 
    0.48009E+06         0.63978E+06         0.00000E+00
    0.63978E+06        -0.73850E+06         0.00000E+00
    0.00000E+00         0.00000E+00         0.00000E+00
 
    0.46839E+06         0.67171E+06         0.00000E+00
    0.67171E+06        -0.73368E+06         0.00000E+00
    0.00000E+00         0.00000E+00         0.00000E+00
 
    0.45642E+06         0.70331E+06         0.00000E+00
    0.70331E+06        -0.72866E+06         0.00000E+00
    0.00000E+00         0.00000E+00         0.00000E+00
 
    0.44418E+06         0.73459E+06         0.00000E+00
    0.73459E+06        -0.72344E+06         0.00000E+00
    0.00000E+00         0.00000E+00         0.00000E+00
 
    0.43168E+06         0.76553E+06         0.00000E+00
    0.76553E+06        -0.71801E+06         0.00000E+00
    0.00000E+00         0.00000E+00         0.00000E+00
 
    0.41892E+06         0.79612E+06         0.00000E+00
    0.79612E+06        -0.71239E+06         0.00000E+00
    0.00000E+00         0.00000E+00         0.00000E+00
 
    0.40590E+06         0.82636E+06         0.00000E+00
    0.82636E+06        -0.70658E+06         0.00000E+00
    0.00000E+00         0.00000E+00         0.00000E+00
 
    0.39263E+06         0.85625E+06         0.00000E+00
    0.85625E+06        -0.70058E+06         0.00000E+00
    0.00000E+00         0.00000E+00         0.00000E+00
 
    0.37911E+06         0.88578E+06         0.00000E+00
    0.88578E+06        -0.69441E+06         0.00000E+00
    0.00000E+00         0.00000E+00         0.00000E+00
 
    0.36535E+06         0.91494E+06         0.00000E+00
    0.91494E+06        -0.68805E+06         0.00000E+00
    0.00000E+00         0.00000E+00         0.00000E+00
 
    0.35136E+06         0.94372E+06         0.00000E+00
    0.94372E+06        -0.68153E+06         0.00000E+00
    0.00000E+00         0.00000E+00         0.00000E+00
 
    0.33712E+06         0.97213E+06         0.00000E+00
    0.97213E+06        -0.67483E+06         0.00000E+00
    0.00000E+00         0.00000E+00         0.00000E+00
 
    0.32266E+06         0.10002E+07         0.00000E+00
    0.10002E+07        -0.66798E+06         0.00000E+00
    0.00000E+00         0.00000E+00         0.00000E+00
 
    0.30797E+06         0.10278E+07         0.00000E+00
    0.10278E+07        -0.66097E+06         0.00000E+00
    0.00000E+00         0.00000E+00         0.00000E+00
 
    0.29305E+06         0.10550E+07         0.00000E+00
    0.10550E+07        -0.65380E+06         0.00000E+00
    0.00000E+00         0.00000E+00         0.00000E+00
 
    0.27792E+06         0.10819E+07         0.00000E+00
    0.10819E+07        -0.64649E+06         0.00000E+00
    0.00000E+00         0.00000E+00         0.00000E+00
 
    0.26257E+06         0.11083E+07         0.00000E+00
    0.11083E+07        -0.63903E+06         0.00000E+00
    0.00000E+00         0.00000E+00         0.00000E+00
 
    0.24701E+06         0.11344E+07         0.00000E+00
    0.11344E+07        -0.63144E+06         0.00000E+00
    0.00000E+00         0.00000E+00         0.00000E+00
 
    0.23124E+06         0.11600E+07         0.00000E+00
    0.11600E+07        -0.62371E+06         0.00000E+00
    0.00000E+00         0.00000E+00         0.00000E+00
 
    0.21527E+06         0.11852E+07         0.00000E+00
    0.11852E+07        -0.61585E+06         0.00000E+00
    0.00000E+00         0.00000E+00         0.00000E+00
 
    0.19910E+06         0.12100E+07         0.00000E+00
    0.12100E+07        -0.60786E+06         0.00000E+00
    0.00000E+00         0.00000E+00         0.00000E+00
 
    0.18274E+06         0.12344E+07         0.00000E+00
    0.12344E+07        -0.59976E+06         0.00000E+00
    0.00000E+00         0.00000E+00         0.00000E+00
 
    0.16618E+06         0.12583E+07         0.00000E+00
    0.12583E+07        -0.59153E+06         0.00000E+00
    0.00000E+00         0.00000E+00         0.00000E+00
 
    0.14944E+06         0.12818E+07         0.00000E+00
    0.12818E+07        -0.58320E+06         0.00000E+00
    0.00000E+00         0.00000E+00         0.00000E+00
 
    0.13250E+06         0.13049E+07         0.00000E+00
    0.13049E+07        -0.57476E+06         0.00000E+00
    0.00000E+00         0.00000E+00         0.00000E+00
 
    0.11539E+06         0.13276E+07         0.00000E+00
    0.13276E+07        -0.56621E+06         0.00000E+00
    0.00000E+00         0.00000E+00         0.00000E+00
 
    0.98101E+05         0.13498E+07         0.00000E+00
    0.13498E+07        -0.55757E+06         0.00000E+00
    0.00000E+00         0.00000E+00         0.00000E+00
 
    0.80637E+05         0.13715E+07         0.00000E+00
    0.13715E+07        -0.54883E+06         0.00000E+00
    0.00000E+00         0.00000E+00         0.00000E+00
 
    0.63001E+05         0.13929E+07         0.00000E+00
    0.13929E+07        -0.54001E+06         0.00000E+00
    0.00000E+00         0.00000E+00         0.00000E+00
 
    0.45198E+05         0.14137E+07         0.00000E+00
    0.14137E+07        -0.53110E+06         0.00000E+00
    0.00000E+00         0.00000E+00         0.00000E+00
 
    0.27231E+05         0.14342E+07         0.00000E+00
    0.14342E+07        -0.52210E+06         0.00000E+00
    0.00000E+00         0.00000E+00         0.00000E+00
 
    0.91036E+04         0.14541E+07         0.00000E+00
    0.14541E+07        -0.51303E+06         0.00000E+00
    0.00000E+00         0.00000E+00         0.00000E+00
 
    0.72258E+06         0.19062E+05         0.00000E+00
    0.19062E+05        -0.88634E+06         0.00000E+00
    0.00000E+00         0.00000E+00         0.00000E+00
 
    0.71566E+06         0.56729E+05         0.00000E+00
    0.56729E+05        -0.88601E+06         0.00000E+00
    0.00000E+00         0.00000E+00         0.00000E+00
 
    0.70835E+06         0.94216E+05         0.00000E+00
    0.94216E+05        -0.88536E+06         0.00000E+00
    0.00000E+00         0.00000E+00         0.00000E+00
 
    0.70066E+06         0.13151E+06         0.00000E+00
    0.13151E+06        -0.88439E+06         0.00000E+00
    0.00000E+00         0.00000E+00         0.00000E+00
 
    0.69258E+06         0.16861E+06         0.00000E+00
    0.16861E+06        -0.88310E+06         0.00000E+00
    0.00000E+00         0.00000E+00         0.00000E+00
 
    0.68412E+06         0.20549E+06         0.00000E+00
    0.20549E+06        -0.88150E+06         0.00000E+00
    0.00000E+00         0.00000E+00         0.00000E+00
 
    0.67529E+06         0.24215E+06         0.00000E+00
    0.24215E+06        -0.87960E+06         0.00000E+00
    0.00000E+00         0.00000E+00         0.00000E+00
 
    0.66609E+06         0.27858E+06         0.00000E+00
    0.27858E+06        -0.87739E+06         0.00000E+00
    0.00000E+00         0.00000E+00         0.00000E+00
 
    0.65652E+06         0.31477E+06         0.00000E+00
    0.31477E+06        -0.87489E+06         0.00000E+00
    0.00000E+00         0.00000E+00         0.00000E+00
 
    0.64660E+06         0.35072E+06         0.00000E+00
    0.35072E+06        -0.87210E+06         0.00000E+00
    0.00000E+00         0.00000E+00         0.00000E+00
 
    0.63632E+06         0.38640E+06         0.00000E+00
    0.38640E+06        -0.86902E+06         0.00000E+00
    0.00000E+00         0.00000E+00         0.00000E+00
 
    0.62569E+06         0.42181E+06         0.00000E+00
    0.42181E+06        -0.86565E+06         0.00000E+00
    0.00000E+00         0.00000E+00         0.00000E+00
 
    0.61472E+06         0.45695E+06         0.00000E+00
    0.45695E+06        -0.86201E+06         0.00000E+00
    0.00000E+00         0.00000E+00         0.00000E+00
 
    0.60340E+06         0.49180E+06         0.00000E+00
    0.49180E+06        -0.85810E+06         0.00000E+00
    0.00000E+00         0.00000E+00         0.00000E+00
 
    0.59175E+06         0.52636E+06         0.00000E+00
    0.52636E+06        -0.85392E+06         0.00000E+00
    0.00000E+00         0.00000E+00         0.00000E+00
 
    0.57977E+06         0.56062E+06         0.00000E+00
    0.56062E+06        -0.84948E+06         0.00000E+00
    0.00000E+00         0.00000E+00         0.00000E+00
 
    0.56747E+06         0.59457E+06         0.00000E+00
    0.59457E+06        -0.84479E+06         0.00000E+00
    0.00000E+00         0.00000E+00         0.00000E+00
 
    0.55485E+06         0.62821E+06         0.00000E+00
    0.62821E+06        -0.83984E+06         0.00000E+00
    0.00000E+00         0.00000E+00         0.00000E+00
 
    0.54191E+06         0.66152E+06         0.00000E+00
    0.66152E+06        -0.83465E+06         0.00000E+00
    0.00000E+00         0.00000E+00         0.00000E+00
 
    0.52866E+06         0.69450E+06         0.00000E+00
    0.69450E+06        -0.82921E+06         0.00000E+00
    0.00000E+00         0.00000E+00         0.00000E+00
 
    0.51510E+06         0.72714E+06         0.00000E+00
    0.72714E+06        -0.82355E+06         0.00000E+00
    0.00000E+00         0.00000E+00         0.00000E+00
 
    0.50125E+06         0.75944E+06         0.00000E+00
    0.75944E+06        -0.81765E+06         0.00000E+00
    0.00000E+00         0.00000E+00         0.00000E+00
 
    0.48710E+06         0.79138E+06         0.00000E+00
    0.79138E+06        -0.81152E+06         0.00000E+00
    0.00000E+00         0.00000E+00         0.00000E+00
 
    0.47266E+06         0.82298E+06         0.00000E+00
    0.82298E+06        -0.80518E+06         0.00000E+00
    0.00000E+00         0.00000E+00         0.00000E+00
 
    0.45793E+06         0.85420E+06         0.00000E+00
    0.85420E+06        -0.79862E+06         0.00000E+00
    0.00000E+00         0.00000E+00         0.00000E+00
 
    0.44292E+06         0.88506E+06         0.00000E+00
    0.88506E+06        -0.79186E+06         0.00000E+00
    0.00000E+00         0.00000E+00         0.00000E+00
 
    0.42764E+06         0.91554E+06         0.00000E+00
    0.91554E+06        -0.78489E+06         0.00000E+00
    0.00000E+00         0.00000E+00         0.00000E+00
 
    0.41209E+06         0.94564E+06         0.00000E+00
    0.94564E+06        -0.77773E+06         0.00000E+00
    0.00000E+00         0.00000E+00         0.00000E+00
 
    0.39626E+06         0.97536E+06         0.00000E+00
    0.97536E+06        -0.77037E+06         0.00000E+00
    0.00000E+00         0.00000E+00         0.00000E+00
 
    0.38018E+06         0.10047E+07         0.00000E+00
    0.10047E+07        -0.76282E+06         0.00000E+00
    0.00000E+00         0.00000E+00         0.00000E+00
 
    0.36384E+06         0.10336E+07         0.00000E+00
    0.10336E+07        -0.75510E+06         0.00000E+00
    0.00000E+00         0.00000E+00         0.00000E+00
 
    0.34725E+06         0.10621E+07         0.00000E+00
    0.10621E+07        -0.74719E+06         0.00000E+00
    0.00000E+00         0.00000E+00         0.00000E+00
 
    0.33041E+06         0.10903E+07         0.00000E+00
    0.10903E+07        -0.73912E+06         0.00000E+00
    0.00000E+00         0.00000E+00         0.00000E+00
 
    0.31332E+06         0.11180E+07         0.00000E+00
    0.11180E+07        -0.73088E+06         0.00000E+00
    0.00000E+00         0.00000E+00         0.00000E+00
 
    0.29600E+06         0.11453E+07         0.00000E+00
    0.11453E+07        -0.72248E+06         0.00000E+00
    0.00000E+00         0.00000E+00         0.00000E+00
 
    0.27844E+06         0.11721E+07         0.00000E+00
    0.11721E+07        -0.71392E+06         0.00000E+00
    0.00000E+00         0.00000E+00         0.00000E+00
 
    0.26065E+06         0.11986E+07         0.00000E+00
    0.11986E+07        -0.70521E+06         0.00000E+00
    0.00000E+00         0.00000E+00         0.00000E+00
 
    0.24263E+06         0.12246E+07         0.00000E+00
    0.12246E+07        -0.69636E+06         0.00000E+00
    0.00000E+00         0.00000E+00         0.00000E+00
 
    0.22439E+06         0.12502E+07         0.00000E+00
    0.12502E+07        -0.68736E+06         0.00000E+00
    0.00000E+00         0.00000E+00         0.00000E+00
 
    0.20594E+06         0.12754E+07         0.00000E+00
    0.12754E+07        -0.67823E+06         0.00000E+00
    0.00000E+00         0.00000E+00         0.00000E+00
 
    0.18727E+06         0.13001E+07         0.00000E+00
    0.13001E+07        -0.66897E+06         0.00000E+00
    0.00000E+00         0.00000E+00         0.00000E+00
 
    0.16839E+06         0.13244E+07         0.00000E+00
    0.13244E+07        -0.65959E+06         0.00000E+00
    0.00000E+00         0.00000E+00         0.00000E+00
 
    0.14930E+06         0.13482E+07         0.00000E+00
    0.13482E+07        -0.65008E+06         0.00000E+00
    0.00000E+00         0.00000E+00         0.00000E+00
 
    0.13001E+06         0.13716E+07         0.00000E+00
    0.13716E+07        -0.64046E+06         0.00000E+00
    0.00000E+00         0.00000E+00         0.00000E+00
 
    0.11053E+06         0.13946E+07         0.00000E+00
    0.13946E+07        -0.63073E+06         0.00000E+00
    0.00000E+00         0.00000E+00         0.00000E+00
 
    0.90845E+05         0.14171E+07         0.00000E+00
    0.14171E+07        -0.62089E+06         0.00000E+00
    0.00000E+00         0.00000E+00         0.00000E+00
 
    0.70974E+05         0.14391E+07         0.00000E+00
    0.14391E+07        -0.61095E+06         0.00000E+00
    0.00000E+00         0.00000E+00         0.00000E+00
 
    0.50916E+05         0.14607E+07         0.00000E+00
    0.14607E+07        -0.60091E+06         0.00000E+00
    0.00000E+00         0.00000E+00         0.00000E+00
 
    0.30675E+05         0.14818E+07         0.00000E+00
    0.14818E+07        -0.59078E+06         0.00000E+00
    0.00000E+00         0.00000E+00         0.00000E+00
 
    0.10255E+05         0.15024E+07         0.00000E+00
    0.15024E+07        -0.58056E+06         0.00000E+00
    0.00000E+00         0.00000E+00         0.00000E+00
 
    0.80909E+06         0.19793E+05         0.00000E+00
    0.19793E+05        -0.99213E+06         0.00000E+00
    0.00000E+00         0.00000E+00         0.00000E+00
 
    0.80128E+06         0.58892E+05         0.00000E+00
    0.58892E+05        -0.99176E+06         0.00000E+00
    0.00000E+00         0.00000E+00         0.00000E+00
 
    0.79303E+06         0.97799E+05         0.00000E+00
    0.97799E+05        -0.99103E+06         0.00000E+00
    0.00000E+00         0.00000E+00         0.00000E+00
 
    0.78434E+06         0.13650E+06         0.00000E+00
    0.13650E+06        -0.98994E+06         0.00000E+00
    0.00000E+00         0.00000E+00         0.00000E+00
 
    0.77522E+06         0.17499E+06         0.00000E+00
    0.17499E+06        -0.98849E+06         0.00000E+00
    0.00000E+00         0.00000E+00         0.00000E+00
 
    0.76568E+06         0.21326E+06         0.00000E+00
    0.21326E+06        -0.98670E+06         0.00000E+00
    0.00000E+00         0.00000E+00         0.00000E+00
 
    0.75573E+06         0.25129E+06         0.00000E+00
    0.25129E+06        -0.98457E+06         0.00000E+00
    0.00000E+00         0.00000E+00         0.00000E+00
 
    0.74536E+06         0.28907E+06         0.00000E+00
    0.28907E+06        -0.98209E+06         0.00000E+00
    0.00000E+00         0.00000E+00         0.00000E+00
 
    0.73458E+06         0.32660E+06         0.00000E+00
    0.32660E+06        -0.97929E+06         0.00000E+00
    0.00000E+00         0.00000E+00         0.00000E+00
 
    0.72341E+06         0.36387E+06         0.00000E+00
    0.36387E+06        -0.97616E+06         0.00000E+00
    0.00000E+00         0.00000E+00         0.00000E+00
 
    0.71183E+06         0.40086E+06         0.00000E+00
    0.40086E+06        -0.97271E+06         0.00000E+00
    0.00000E+00         0.00000E+00         0.00000E+00
 
    0.69987E+06         0.43757E+06         0.00000E+00
    0.43757E+06        -0.96894E+06         0.00000E+00
    0.00000E+00         0.00000E+00         0.00000E+00
 
    0.68753E+06         0.47399E+06         0.00000E+00
    0.47399E+06        -0.96486E+06         0.00000E+00
    0.00000E+00         0.00000E+00         0.00000E+00
 
    0.67481E+06         0.51011E+06         0.00000E+00
    0.51011E+06        -0.96048E+06         0.00000E+00
    0.00000E+00         0.00000E+00         0.00000E+00
 
    0.66171E+06         0.54592E+06         0.00000E+00
    0.54592E+06        -0.95581E+06         0.00000E+00
    0.00000E+00         0.00000E+00         0.00000E+00
 
    0.64825E+06         0.58141E+06         0.00000E+00
    0.58141E+06        -0.95084E+06         0.00000E+00
    0.00000E+00         0.00000E+00         0.00000E+00
 
    0.63443E+06         0.61658E+06         0.00000E+00
    0.61658E+06        -0.94558E+06         0.00000E+00
    0.00000E+00         0.00000E+00         0.00000E+00
 
    0.62025E+06         0.65142E+06         0.00000E+00
    0.65142E+06        -0.94005E+06         0.00000E+00
    0.00000E+00         0.00000E+00         0.00000E+00
 
    0.60572E+06         0.68592E+06         0.00000E+00
    0.68592E+06        -0.93424E+06         0.00000E+00
    0.00000E+00         0.00000E+00         0.00000E+00
 
    0.59085E+06         0.72008E+06         0.00000E+00
    0.72008E+06        -0.92817E+06         0.00000E+00
    0.00000E+00         0.00000E+00         0.00000E+00
 
    0.57565E+06         0.75388E+06         0.00000E+00
    0.75388E+06        -0.92183E+06         0.00000E+00
    0.00000E+00         0.00000E+00         0.00000E+00
 
    0.56011E+06         0.78732E+06         0.00000E+00
    0.78732E+06        -0.91524E+06         0.00000E+00
    0.00000E+00         0.00000E+00         0.00000E+00
 
    0.54424E+06         0.82040E+06         0.00000E+00
    0.82040E+06        -0.90839E+06         0.00000E+00
    0.00000E+00         0.00000E+00         0.00000E+00
 
    0.52805E+06         0.85310E+06         0.00000E+00
    0.85310E+06        -0.90131E+06         0.00000E+00
    0.00000E+00         0.00000E+00         0.00000E+00
 
    0.51155E+06         0.88542E+06         0.00000E+00
    0.88542E+06        -0.89399E+06         0.00000E+00
    0.00000E+00         0.00000E+00         0.00000E+00
 
    0.49474E+06         0.91736E+06         0.00000E+00
    0.91736E+06        -0.88643E+06         0.00000E+00
    0.00000E+00         0.00000E+00         0.00000E+00
 
    0.47762E+06         0.94892E+06         0.00000E+00
    0.94892E+06        -0.87865E+06         0.00000E+00
    0.00000E+00         0.00000E+00         0.00000E+00
 
    0.46021E+06         0.98007E+06         0.00000E+00
    0.98007E+06        -0.87065E+06         0.00000E+00
    0.00000E+00         0.00000E+00         0.00000E+00
 
    0.44250E+06         0.10108E+07         0.00000E+00
    0.10108E+07        -0.86244E+06         0.00000E+00
    0.00000E+00         0.00000E+00         0.00000E+00
 
    0.42450E+06         0.10412E+07         0.00000E+00
    0.10412E+07        -0.85402E+06         0.00000E+00
    0.00000E+00         0.00000E+00         0.00000E+00
 
    0.40622E+06         0.10711E+07         0.00000E+00
    0.10711E+07        -0.84540E+06         0.00000E+00
    0.00000E+00         0.00000E+00         0.00000E+00
 
    0.38766E+06         0.11006E+07         0.00000E+00
    0.11006E+07        -0.83658E+06         0.00000E+00
    0.00000E+00         0.00000E+00         0.00000E+00
 
    0.36883E+06         0.11297E+07         0.00000E+00
    0.11297E+07        -0.82757E+06         0.00000E+00
    0.00000E+00         0.00000E+00         0.00000E+00
 
    0.34973E+06         0.11584E+07         0.00000E+00
    0.11584E+07        -0.81838E+06         0.00000E+00
    0.00000E+00         0.00000E+00         0.00000E+00
 
    0.33036E+06         0.11867E+07         0.00000E+00
    0.11867E+07        -0.80901E+06         0.00000E+00
    0.00000E+00         0.00000E+00         0.00000E+00
 
    0.31074E+06         0.12145E+07         0.00000E+00
    0.12145E+07        -0.79946E+06         0.00000E+00
    0.00000E+00         0.00000E+00         0.00000E+00
 
    0.29087E+06         0.12419E+07         0.00000E+00
    0.12419E+07        -0.78975E+06         0.00000E+00
    0.00000E+00         0.00000E+00         0.00000E+00
 
    0.27074E+06         0.12688E+07         0.00000E+00
    0.12688E+07        -0.77988E+06         0.00000E+00
    0.00000E+00         0.00000E+00         0.00000E+00
 
    0.25037E+06         0.12953E+07         0.00000E+00
    0.12953E+07        -0.76985E+06         0.00000E+00
    0.00000E+00         0.00000E+00         0.00000E+00
 
    0.22976E+06         0.13213E+07         0.00000E+00
    0.13213E+07        -0.75967E+06         0.00000E+00
    0.00000E+00         0.00000E+00         0.00000E+00
 
    0.20892E+06         0.13469E+07         0.00000E+00
    0.13469E+07        -0.74935E+06         0.00000E+00
    0.00000E+00         0.00000E+00         0.00000E+00
 
    0.18784E+06         0.13721E+07         0.00000E+00
    0.13721E+07        -0.73889E+06         0.00000E+00
    0.00000E+00         0.00000E+00         0.00000E+00
 
    0.16654E+06         0.13968E+07         0.00000E+00
    0.13968E+07        -0.72829E+06         0.00000E+00
    0.00000E+00         0.00000E+00         0.00000E+00
 
    0.14502E+06         0.14210E+07         0.00000E+00
    0.14210E+07        -0.71756E+06         0.00000E+00
    0.00000E+00         0.00000E+00         0.00000E+00
 
    0.12328E+06         0.14447E+07         0.00000E+00
    0.14447E+07        -0.70671E+06         0.00000E+00
    0.00000E+00         0.00000E+00         0.00000E+00
 
    0.10132E+06         0.14680E+07         0.00000E+00
    0.14680E+07        -0.69574E+06         0.00000E+00
    0.00000E+00         0.00000E+00         0.00000E+00
 
    0.79153E+05         0.14909E+07         0.00000E+00
    0.14909E+07        -0.68466E+06         0.00000E+00
    0.00000E+00         0.00000E+00         0.00000E+00
 
    0.56781E+05         0.15132E+07         0.00000E+00
    0.15132E+07        -0.67347E+06         0.00000E+00
    0.00000E+00         0.00000E+00         0.00000E+00
 
    0.34207E+05         0.15351E+07         0.00000E+00
    0.15351E+07        -0.66218E+06         0.00000E+00
    0.00000E+00         0.00000E+00         0.00000E+00
 
    0.11435E+05         0.15565E+07         0.00000E+00
    0.15565E+07        -0.65079E+06         0.00000E+00
    0.00000E+00         0.00000E+00         0.00000E+00
 
    0.89911E+06         0.20612E+05         0.00000E+00
    0.20612E+05        -0.11020E+07         0.00000E+00
    0.00000E+00         0.00000E+00         0.00000E+00
 
    0.89034E+06         0.61311E+05         0.00000E+00
    0.61311E+05        -0.11016E+07         0.00000E+00
    0.00000E+00         0.00000E+00         0.00000E+00
 
    0.88107E+06         0.10180E+06         0.00000E+00
    0.10180E+06        -0.11008E+07         0.00000E+00
    0.00000E+00         0.00000E+00         0.00000E+00
 
    0.87133E+06         0.14208E+06         0.00000E+00
    0.14208E+06        -0.10996E+07         0.00000E+00
    0.00000E+00         0.00000E+00         0.00000E+00
 
    0.86111E+06         0.18212E+06         0.00000E+00
    0.18212E+06        -0.10980E+07         0.00000E+00
    0.00000E+00         0.00000E+00         0.00000E+00
 
    0.85042E+06         0.22192E+06         0.00000E+00
    0.22192E+06        -0.10960E+07         0.00000E+00
    0.00000E+00         0.00000E+00         0.00000E+00
 
    0.83926E+06         0.26148E+06         0.00000E+00
    0.26148E+06        -0.10936E+07         0.00000E+00
    0.00000E+00         0.00000E+00         0.00000E+00
 
    0.82765E+06         0.30077E+06         0.00000E+00
    0.30077E+06        -0.10908E+07         0.00000E+00
    0.00000E+00         0.00000E+00         0.00000E+00
 
    0.81559E+06         0.33979E+06         0.00000E+00
    0.33979E+06        -0.10877E+07         0.00000E+00
    0.00000E+00         0.00000E+00         0.00000E+00
 
    0.80309E+06         0.37853E+06         0.00000E+00
    0.37853E+06        -0.10842E+07         0.00000E+00
    0.00000E+00         0.00000E+00         0.00000E+00
 
    0.79015E+06         0.41698E+06         0.00000E+00
    0.41698E+06        -0.10804E+07         0.00000E+00
    0.00000E+00         0.00000E+00         0.00000E+00
 
    0.77678E+06         0.45513E+06         0.00000E+00
    0.45513E+06        -0.10762E+07         0.00000E+00
    0.00000E+00         0.00000E+00         0.00000E+00
 
    0.76299E+06         0.49297E+06         0.00000E+00
    0.49297E+06        -0.10717E+07         0.00000E+00
    0.00000E+00         0.00000E+00         0.00000E+00
 
    0.74878E+06         0.53049E+06         0.00000E+00
    0.53049E+06        -0.10668E+07         0.00000E+00
    0.00000E+00         0.00000E+00         0.00000E+00
 
    0.73416E+06         0.56769E+06         0.00000E+00
    0.56769E+06        -0.10616E+07         0.00000E+00
    0.00000E+00         0.00000E+00         0.00000E+00
 
    0.71914E+06         0.60455E+06         0.00000E+00
    0.60455E+06        -0.10561E+07         0.00000E+00
    0.00000E+00         0.00000E+00         0.00000E+00
 
    0.70372E+06         0.64108E+06         0.00000E+00
    0.64108E+06        -0.10503E+07         0.00000E+00
    0.00000E+00         0.00000E+00         0.00000E+00
 
    0.68791E+06         0.67725E+06         0.00000E+00
    0.67725E+06        -0.10441E+07         0.00000E+00
    0.00000E+00         0.00000E+00         0.00000E+00
 
    0.67172E+06         0.71307E+06         0.00000E+00
    0.71307E+06        -0.10377E+07         0.00000E+00
    0.00000E+00         0.00000E+00         0.00000E+00
 
    0.65516E+06         0.74852E+06         0.00000E+00
    0.74852E+06        -0.10310E+07         0.00000E+00
    0.00000E+00         0.00000E+00         0.00000E+00
 
    0.63822E+06         0.78361E+06         0.00000E+00
    0.78361E+06        -0.10239E+07         0.00000E+00
    0.00000E+00         0.00000E+00         0.00000E+00
 
    0.62092E+06         0.81832E+06         0.00000E+00
    0.81832E+06        -0.10166E+07         0.00000E+00
    0.00000E+00         0.00000E+00         0.00000E+00
 
    0.60326E+06         0.85264E+06         0.00000E+00
    0.85264E+06        -0.10091E+07         0.00000E+00
    0.00000E+00         0.00000E+00         0.00000E+00
 
    0.58525E+06         0.88658E+06         0.00000E+00
    0.88658E+06        -0.10012E+07         0.00000E+00
    0.00000E+00         0.00000E+00         0.00000E+00
 
    0.56690E+06         0.92012E+06         0.00000E+00
    0.92012E+06        -0.99309E+06         0.00000E+00
    0.00000E+00         0.00000E+00         0.00000E+00
 
    0.54821E+06         0.95326E+06         0.00000E+00
    0.95326E+06        -0.98472E+06         0.00000E+00
    0.00000E+00         0.00000E+00         0.00000E+00
 
    0.52919E+06         0.98599E+06         0.00000E+00
    0.98599E+06        -0.97611E+06         0.00000E+00
    0.00000E+00         0.00000E+00         0.00000E+00
 
    0.50984E+06         0.10183E+07         0.00000E+00
    0.10183E+07        -0.96725E+06         0.00000E+00
    0.00000E+00         0.00000E+00         0.00000E+00
 
    0.49017E+06         0.10502E+07         0.00000E+00
    0.10502E+07        -0.95816E+06         0.00000E+00
    0.00000E+00         0.00000E+00         0.00000E+00
 
    0.47018E+06         0.10817E+07         0.00000E+00
    0.10817E+07        -0.94884E+06         0.00000E+00
    0.00000E+00         0.00000E+00         0.00000E+00
 
    0.44989E+06         0.11127E+07         0.00000E+00
    0.11127E+07        -0.93930E+06         0.00000E+00
    0.00000E+00         0.00000E+00         0.00000E+00
 
    0.42929E+06         0.11434E+07         0.00000E+00
    0.11434E+07        -0.92954E+06         0.00000E+00
    0.00000E+00         0.00000E+00         0.00000E+00
 
    0.40840E+06         0.11736E+07         0.00000E+00
    0.11736E+07        -0.91958E+06         0.00000E+00
    0.00000E+00         0.00000E+00         0.00000E+00
 
    0.38721E+06         0.12033E+07         0.00000E+00
    0.12033E+07        -0.90941E+06         0.00000E+00
    0.00000E+00         0.00000E+00         0.00000E+00
 
    0.36574E+06         0.12326E+07         0.00000E+00
    0.12326E+07        -0.89904E+06         0.00000E+00
    0.00000E+00         0.00000E+00         0.00000E+00
 
    0.34399E+06         0.12615E+07         0.00000E+00
    0.12615E+07        -0.88849E+06         0.00000E+00
    0.00000E+00         0.00000E+00         0.00000E+00
 
    0.32196E+06         0.12899E+07         0.00000E+00
    0.12899E+07        -0.87775E+06         0.00000E+00
    0.00000E+00         0.00000E+00         0.00000E+00
 
    0.29966E+06         0.13178E+07         0.00000E+00
    0.13178E+07        -0.86683E+06         0.00000E+00
    0.00000E+00         0.00000E+00         0.00000E+00
 
    0.27709E+06         0.13453E+07         0.00000E+00
    0.13453E+07        -0.85574E+06         0.00000E+00
    0.00000E+00         0.00000E+00         0.00000E+00
 
    0.25426E+06         0.13723E+07         0.00000E+00
    0.13723E+07        -0.84449E+06         0.00000E+00
    0.00000E+00         0.00000E+00         0.00000E+00
 
    0.23118E+06         0.13989E+07         0.00000E+00
    0.13989E+07        -0.83308E+06         0.00000E+00
    0.00000E+00         0.00000E+00         0.00000E+00
 
    0.20784E+06         0.14250E+07         0.00000E+00
    0.14250E+07        -0.82151E+06         0.00000E+00
    0.00000E+00         0.00000E+00         0.00000E+00
 
    0.18426E+06         0.14506E+07         0.00000E+00
    0.14506E+07        -0.80979E+06         0.00000E+00
    0.00000E+00         0.00000E+00         0.00000E+00
 
    0.16044E+06         0.14758E+07         0.00000E+00
    0.14758E+07        -0.79793E+06         0.00000E+00
    0.00000E+00         0.00000E+00         0.00000E+00
 
    0.13637E+06         0.15004E+07         0.00000E+00
    0.15004E+07        -0.78594E+06         0.00000E+00
    0.00000E+00         0.00000E+00         0.00000E+00
 
    0.11208E+06         0.15246E+07         0.00000E+00
    0.15246E+07        -0.77381E+06         0.00000E+00
    0.00000E+00         0.00000E+00         0.00000E+00
 
    0.87553E+05         0.15483E+07         0.00000E+00
    0.15483E+07        -0.76156E+06         0.00000E+00
    0.00000E+00         0.00000E+00         0.00000E+00
 
    0.62804E+05         0.15715E+07         0.00000E+00
    0.15715E+07        -0.74918E+06         0.00000E+00
    0.00000E+00         0.00000E+00         0.00000E+00
 
    0.37834E+05         0.15943E+07         0.00000E+00
    0.15943E+07        -0.73670E+06         0.00000E+00
    0.00000E+00         0.00000E+00         0.00000E+00
 
    0.12647E+05         0.16165E+07         0.00000E+00
    0.16165E+07        -0.72410E+06         0.00000E+00
    0.00000E+00         0.00000E+00         0.00000E+00
 
    0.99304E+06         0.21523E+05         0.00000E+00
    0.21523E+05        -0.12165E+07         0.00000E+00
    0.00000E+00         0.00000E+00         0.00000E+00
 
    0.98322E+06         0.63996E+05         0.00000E+00
    0.63996E+05        -0.12160E+07         0.00000E+00
    0.00000E+00         0.00000E+00         0.00000E+00
 
    0.97287E+06         0.10624E+06         0.00000E+00
    0.10624E+06        -0.12151E+07         0.00000E+00
    0.00000E+00         0.00000E+00         0.00000E+00
 
    0.96198E+06         0.14826E+06         0.00000E+00
    0.14826E+06        -0.12138E+07         0.00000E+00
    0.00000E+00         0.00000E+00         0.00000E+00
 
    0.95057E+06         0.19002E+06         0.00000E+00
    0.19002E+06        -0.12120E+07         0.00000E+00
    0.00000E+00         0.00000E+00         0.00000E+00
 
    0.93865E+06         0.23153E+06         0.00000E+00
    0.23153E+06        -0.12098E+07         0.00000E+00
    0.00000E+00         0.00000E+00         0.00000E+00
 
    0.92621E+06         0.27276E+06         0.00000E+00
    0.27276E+06        -0.12072E+07         0.00000E+00
    0.00000E+00         0.00000E+00         0.00000E+00
 
    0.91327E+06         0.31372E+06         0.00000E+00
    0.31372E+06        -0.12041E+07         0.00000E+00
    0.00000E+00         0.00000E+00         0.00000E+00
 
    0.89984E+06         0.35439E+06         0.00000E+00
    0.35439E+06        -0.12007E+07         0.00000E+00
    0.00000E+00         0.00000E+00         0.00000E+00
 
    0.88593E+06         0.39475E+06         0.00000E+00
    0.39475E+06        -0.11968E+07         0.00000E+00
    0.00000E+00         0.00000E+00         0.00000E+00
 
    0.87153E+06         0.43481E+06         0.00000E+00
    0.43481E+06        -0.11926E+07         0.00000E+00
    0.00000E+00         0.00000E+00         0.00000E+00
 
    0.85666E+06         0.47454E+06         0.00000E+00
    0.47454E+06        -0.11880E+07         0.00000E+00
    0.00000E+00         0.00000E+00         0.00000E+00
 
    0.84134E+06         0.51395E+06         0.00000E+00
    0.51395E+06        -0.11830E+07         0.00000E+00
    0.00000E+00         0.00000E+00         0.00000E+00
 
    0.82555E+06         0.55302E+06         0.00000E+00
    0.55302E+06        -0.11776E+07         0.00000E+00
    0.00000E+00         0.00000E+00         0.00000E+00
 
    0.80932E+06         0.59175E+06         0.00000E+00
    0.59175E+06        -0.11719E+07         0.00000E+00
    0.00000E+00         0.00000E+00         0.00000E+00
 
    0.79266E+06         0.63012E+06         0.00000E+00
    0.63012E+06        -0.11658E+07         0.00000E+00
    0.00000E+00         0.00000E+00         0.00000E+00
 
    0.77555E+06         0.66813E+06         0.00000E+00
    0.66813E+06        -0.11594E+07         0.00000E+00
    0.00000E+00         0.00000E+00         0.00000E+00
 
    0.75803E+06         0.70577E+06         0.00000E+00
    0.70577E+06        -0.11526E+07         0.00000E+00
    0.00000E+00         0.00000E+00         0.00000E+00
 
    0.74009E+06         0.74304E+06         0.00000E+00
    0.74304E+06        -0.11455E+07         0.00000E+00
    0.00000E+00         0.00000E+00         0.00000E+00
 
    0.72174E+06         0.77992E+06         0.00000E+00
    0.77992E+06        -0.11381E+07         0.00000E+00
    0.00000E+00         0.00000E+00         0.00000E+00
 
    0.70299E+06         0.81642E+06         0.00000E+00
    0.81642E+06        -0.11303E+07         0.00000E+00
    0.00000E+00         0.00000E+00         0.00000E+00
 
    0.68384E+06         0.85251E+06         0.00000E+00
    0.85251E+06        -0.11223E+07         0.00000E+00
    0.00000E+00         0.00000E+00         0.00000E+00
 
    0.66431E+06         0.88821E+06         0.00000E+00
    0.88821E+06        -0.11140E+07         0.00000E+00
    0.00000E+00         0.00000E+00         0.00000E+00
 
    0.64439E+06         0.92350E+06         0.00000E+00
    0.92350E+06        -0.11053E+07         0.00000E+00
    0.00000E+00         0.00000E+00         0.00000E+00
 
    0.62411E+06         0.95837E+06         0.00000E+00
    0.95837E+06        -0.10964E+07         0.00000E+00
    0.00000E+00         0.00000E+00         0.00000E+00
 
    0.60345E+06         0.99282E+06         0.00000E+00
    0.99282E+06        -0.10872E+07         0.00000E+00
    0.00000E+00         0.00000E+00         0.00000E+00
 
    0.58244E+06         0.10269E+07         0.00000E+00
    0.10269E+07        -0.10777E+07         0.00000E+00
    0.00000E+00         0.00000E+00         0.00000E+00
 
    0.56107E+06         0.10605E+07         0.00000E+00
    0.10605E+07        -0.10680E+07         0.00000E+00
    0.00000E+00         0.00000E+00         0.00000E+00
 
    0.53936E+06         0.10936E+07         0.00000E+00
    0.10936E+07        -0.10580E+07         0.00000E+00
    0.00000E+00         0.00000E+00         0.00000E+00
 
    0.51731E+06         0.11263E+07         0.00000E+00
    0.11263E+07        -0.10477E+07         0.00000E+00
    0.00000E+00         0.00000E+00         0.00000E+00
 
    0.49493E+06         0.11586E+07         0.00000E+00
    0.11586E+07        -0.10373E+07         0.00000E+00
    0.00000E+00         0.00000E+00         0.00000E+00
 
    0.47222E+06         0.11904E+07         0.00000E+00
    0.11904E+07        -0.10265E+07         0.00000E+00
    0.00000E+00         0.00000E+00         0.00000E+00
 
    0.44919E+06         0.12218E+07         0.00000E+00
    0.12218E+07        -0.10156E+07         0.00000E+00
    0.00000E+00         0.00000E+00         0.00000E+00
 
    0.42584E+06         0.12527E+07         0.00000E+00
    0.12527E+07        -0.10044E+07         0.00000E+00
    0.00000E+00         0.00000E+00         0.00000E+00
 
    0.40218E+06         0.12832E+07         0.00000E+00
    0.12832E+07        -0.99304E+06         0.00000E+00
    0.00000E+00         0.00000E+00         0.00000E+00
 
    0.37822E+06         0.13132E+07         0.00000E+00
    0.13132E+07        -0.98144E+06         0.00000E+00
    0.00000E+00         0.00000E+00         0.00000E+00
 
    0.35397E+06         0.13427E+07         0.00000E+00
    0.13427E+07        -0.96965E+06         0.00000E+00
    0.00000E+00         0.00000E+00         0.00000E+00
 
    0.32942E+06         0.13718E+07         0.00000E+00
    0.13718E+07        -0.95766E+06         0.00000E+00
    0.00000E+00         0.00000E+00         0.00000E+00
 
    0.30458E+06         0.14004E+07         0.00000E+00
    0.14004E+07        -0.94549E+06         0.00000E+00
    0.00000E+00         0.00000E+00         0.00000E+00
 
    0.27947E+06         0.14285E+07         0.00000E+00
    0.14285E+07        -0.93313E+06         0.00000E+00
    0.00000E+00         0.00000E+00         0.00000E+00
 
    0.25407E+06         0.14561E+07         0.00000E+00
    0.14561E+07        -0.92060E+06         0.00000E+00
    0.00000E+00         0.00000E+00         0.00000E+00
 
    0.22841E+06         0.14833E+07         0.00000E+00
    0.14833E+07        -0.90790E+06         0.00000E+00
    0.00000E+00         0.00000E+00         0.00000E+00
 
    0.20248E+06         0.15099E+07         0.00000E+00
    0.15099E+07        -0.89504E+06         0.00000E+00
    0.00000E+00         0.00000E+00         0.00000E+00
 
    0.17628E+06         0.15361E+07         0.00000E+00
    0.15361E+07        -0.88202E+06         0.00000E+00
    0.00000E+00         0.00000E+00         0.00000E+00
 
    0.14984E+06         0.15618E+07         0.00000E+00
    0.15618E+07        -0.86885E+06         0.00000E+00
    0.00000E+00         0.00000E+00         0.00000E+00
 
    0.12313E+06         0.15869E+07         0.00000E+00
    0.15869E+07        -0.85553E+06         0.00000E+00
    0.00000E+00         0.00000E+00         0.00000E+00
 
    0.96184E+05         0.16116E+07         0.00000E+00
    0.16116E+07        -0.84208E+06         0.00000E+00
    0.00000E+00         0.00000E+00         0.00000E+00
 
    0.68991E+05         0.16358E+07         0.00000E+00
    0.16358E+07        -0.82849E+06         0.00000E+00
    0.00000E+00         0.00000E+00         0.00000E+00
 
    0.41559E+05         0.16595E+07         0.00000E+00
    0.16595E+07        -0.81478E+06         0.00000E+00
    0.00000E+00         0.00000E+00         0.00000E+00
 
    0.13892E+05         0.16827E+07         0.00000E+00
    0.16827E+07        -0.80095E+06         0.00000E+00
    0.00000E+00         0.00000E+00         0.00000E+00
 
    0.10913E+07         0.22528E+05         0.00000E+00
    0.22528E+05        -0.13360E+07         0.00000E+00
    0.00000E+00         0.00000E+00         0.00000E+00
 
    0.10803E+07         0.66958E+05         0.00000E+00
    0.66958E+05        -0.13355E+07         0.00000E+00
    0.00000E+00         0.00000E+00         0.00000E+00
 
    0.10688E+07         0.11114E+06         0.00000E+00
    0.11114E+06        -0.13345E+07         0.00000E+00
    0.00000E+00         0.00000E+00         0.00000E+00
 
    0.10567E+07         0.15507E+06         0.00000E+00
    0.15507E+06        -0.13330E+07         0.00000E+00
    0.00000E+00         0.00000E+00         0.00000E+00
 
    0.10440E+07         0.19873E+06         0.00000E+00
    0.19873E+06        -0.13311E+07         0.00000E+00
    0.00000E+00         0.00000E+00         0.00000E+00
 
    0.10307E+07         0.24210E+06         0.00000E+00
    0.24210E+06        -0.13286E+07         0.00000E+00
    0.00000E+00         0.00000E+00         0.00000E+00
 
    0.10169E+07         0.28519E+06         0.00000E+00
    0.28519E+06        -0.13257E+07         0.00000E+00
    0.00000E+00         0.00000E+00         0.00000E+00
 
    0.10025E+07         0.32797E+06         0.00000E+00
    0.32797E+06        -0.13224E+07         0.00000E+00
    0.00000E+00         0.00000E+00         0.00000E+00
 
    0.98762E+06         0.37044E+06         0.00000E+00
    0.37044E+06        -0.13186E+07         0.00000E+00
    0.00000E+00         0.00000E+00         0.00000E+00
 
    0.97219E+06         0.41259E+06         0.00000E+00
    0.41259E+06        -0.13144E+07         0.00000E+00
    0.00000E+00         0.00000E+00         0.00000E+00
 
    0.95624E+06         0.45441E+06         0.00000E+00
    0.45441E+06        -0.13097E+07         0.00000E+00
    0.00000E+00         0.00000E+00         0.00000E+00
 
    0.93978E+06         0.49588E+06         0.00000E+00
    0.49588E+06        -0.13047E+07         0.00000E+00
    0.00000E+00         0.00000E+00         0.00000E+00
 
    0.92281E+06         0.53700E+06         0.00000E+00
    0.53700E+06        -0.12992E+07         0.00000E+00
    0.00000E+00         0.00000E+00         0.00000E+00
 
    0.90536E+06         0.57776E+06         0.00000E+00
    0.57776E+06        -0.12933E+07         0.00000E+00
    0.00000E+00         0.00000E+00         0.00000E+00
 
    0.88741E+06         0.61816E+06         0.00000E+00
    0.61816E+06        -0.12870E+07         0.00000E+00
    0.00000E+00         0.00000E+00         0.00000E+00
 
    0.86900E+06         0.65818E+06         0.00000E+00
    0.65818E+06        -0.12803E+07         0.00000E+00
    0.00000E+00         0.00000E+00         0.00000E+00
 
    0.85011E+06         0.69781E+06         0.00000E+00
    0.69781E+06        -0.12733E+07         0.00000E+00
    0.00000E+00         0.00000E+00         0.00000E+00
 
    0.83077E+06         0.73706E+06         0.00000E+00
    0.73706E+06        -0.12659E+07         0.00000E+00
    0.00000E+00         0.00000E+00         0.00000E+00
 
    0.81098E+06         0.77590E+06         0.00000E+00
    0.77590E+06        -0.12581E+07         0.00000E+00
    0.00000E+00         0.00000E+00         0.00000E+00
 
    0.79075E+06         0.81435E+06         0.00000E+00
    0.81435E+06        -0.12500E+07         0.00000E+00
    0.00000E+00         0.00000E+00         0.00000E+00
 
    0.77009E+06         0.85238E+06         0.00000E+00
    0.85238E+06        -0.12415E+07         0.00000E+00
    0.00000E+00         0.00000E+00         0.00000E+00
 
    0.74900E+06         0.88999E+06         0.00000E+00
    0.88999E+06        -0.12327E+07         0.00000E+00
    0.00000E+00         0.00000E+00         0.00000E+00
 
    0.72750E+06         0.92718E+06         0.00000E+00
    0.92718E+06        -0.12236E+07         0.00000E+00
    0.00000E+00         0.00000E+00         0.00000E+00
 
    0.70559E+06         0.96394E+06         0.00000E+00
    0.96394E+06        -0.12141E+07         0.00000E+00
    0.00000E+00         0.00000E+00         0.00000E+00
 
    0.68327E+06         0.10003E+07         0.00000E+00
    0.10003E+07        -0.12044E+07         0.00000E+00
    0.00000E+00         0.00000E+00         0.00000E+00
 
    0.66057E+06         0.10362E+07         0.00000E+00
    0.10362E+07        -0.11943E+07         0.00000E+00
    0.00000E+00         0.00000E+00         0.00000E+00
 
    0.63748E+06         0.10716E+07         0.00000E+00
    0.10716E+07        -0.11840E+07         0.00000E+00
    0.00000E+00         0.00000E+00         0.00000E+00
 
    0.61401E+06         0.11066E+07         0.00000E+00
    0.11066E+07        -0.11733E+07         0.00000E+00
    0.00000E+00         0.00000E+00         0.00000E+00
 
    0.59017E+06         0.11411E+07         0.00000E+00
    0.11411E+07        -0.11624E+07         0.00000E+00
    0.00000E+00         0.00000E+00         0.00000E+00
 
    0.56597E+06         0.11752E+07         0.00000E+00
    0.11752E+07        -0.11512E+07         0.00000E+00
    0.00000E+00         0.00000E+00         0.00000E+00
 
    0.54141E+06         0.12088E+07         0.00000E+00
    0.12088E+07        -0.11398E+07         0.00000E+00
    0.00000E+00         0.00000E+00         0.00000E+00
 
    0.51650E+06         0.12420E+07         0.00000E+00
    0.12420E+07        -0.11281E+07         0.00000E+00
    0.00000E+00         0.00000E+00         0.00000E+00
 
    0.49125E+06         0.12746E+07         0.00000E+00
    0.12746E+07        -0.11161E+07         0.00000E+00
    0.00000E+00         0.00000E+00         0.00000E+00
 
    0.46566E+06         0.13069E+07         0.00000E+00
    0.13069E+07        -0.11039E+07         0.00000E+00
    0.00000E+00         0.00000E+00         0.00000E+00
 
    0.43974E+06         0.13386E+07         0.00000E+00
    0.13386E+07        -0.10915E+07         0.00000E+00
    0.00000E+00         0.00000E+00         0.00000E+00
 
    0.41350E+06         0.13698E+07         0.00000E+00
    0.13698E+07        -0.10788E+07         0.00000E+00
    0.00000E+00         0.00000E+00         0.00000E+00
 
    0.38694E+06         0.14006E+07         0.00000E+00
    0.14006E+07        -0.10660E+07         0.00000E+00
    0.00000E+00         0.00000E+00         0.00000E+00
 
    0.36006E+06         0.14309E+07         0.00000E+00
    0.14309E+07        -0.10529E+07         0.00000E+00
    0.00000E+00         0.00000E+00         0.00000E+00
 
    0.33288E+06         0.14606E+07         0.00000E+00
    0.14606E+07        -0.10396E+07         0.00000E+00
    0.00000E+00         0.00000E+00         0.00000E+00
 
    0.30540E+06         0.14899E+07         0.00000E+00
    0.14899E+07        -0.10261E+07         0.00000E+00
    0.00000E+00         0.00000E+00         0.00000E+00
 
    0.27763E+06         0.15187E+07         0.00000E+00
    0.15187E+07        -0.10124E+07         0.00000E+00
    0.00000E+00         0.00000E+00         0.00000E+00
 
    0.24956E+06         0.15470E+07         0.00000E+00
    0.15470E+07        -0.99857E+06         0.00000E+00
    0.00000E+00         0.00000E+00         0.00000E+00
 
    0.22121E+06         0.15748E+07         0.00000E+00
    0.15748E+07        -0.98453E+06         0.00000E+00
    0.00000E+00         0.00000E+00         0.00000E+00
 
    0.19258E+06         0.16021E+07         0.00000E+00
    0.16021E+07        -0.97033E+06         0.00000E+00
    0.00000E+00         0.00000E+00         0.00000E+00
 
    0.16367E+06         0.16289E+07         0.00000E+00
    0.16289E+07        -0.95595E+06         0.00000E+00
    0.00000E+00         0.00000E+00         0.00000E+00
 
    0.13449E+06         0.16551E+07         0.00000E+00
    0.16551E+07        -0.94142E+06         0.00000E+00
    0.00000E+00         0.00000E+00         0.00000E+00
 
    0.10505E+06         0.16809E+07         0.00000E+00
    0.16809E+07        -0.92674E+06         0.00000E+00
    0.00000E+00         0.00000E+00         0.00000E+00
 
    0.75346E+05         0.17062E+07         0.00000E+00
    0.17062E+07        -0.91191E+06         0.00000E+00
    0.00000E+00         0.00000E+00         0.00000E+00
 
    0.45384E+05         0.17309E+07         0.00000E+00
    0.17309E+07        -0.89694E+06         0.00000E+00
    0.00000E+00         0.00000E+00         0.00000E+00
 
    0.15170E+05         0.17551E+07         0.00000E+00
    0.17551E+07        -0.88183E+06         0.00000E+00
    0.00000E+00         0.00000E+00         0.00000E+00
 
    0.11942E+07         0.23634E+05         0.00000E+00
    0.23634E+05        -0.14611E+07         0.00000E+00
    0.00000E+00         0.00000E+00         0.00000E+00
 
    0.11820E+07         0.70209E+05         0.00000E+00
    0.70209E+05        -0.14606E+07         0.00000E+00
    0.00000E+00         0.00000E+00         0.00000E+00
 
    0.11692E+07         0.11651E+06         0.00000E+00
    0.11651E+06        -0.14595E+07         0.00000E+00
    0.00000E+00         0.00000E+00         0.00000E+00
 
    0.11557E+07         0.16254E+06         0.00000E+00
    0.16254E+06        -0.14578E+07         0.00000E+00
    0.00000E+00         0.00000E+00         0.00000E+00
 
    0.11416E+07         0.20827E+06         0.00000E+00
    0.20827E+06        -0.14557E+07         0.00000E+00
    0.00000E+00         0.00000E+00         0.00000E+00
 
    0.11269E+07         0.25369E+06         0.00000E+00
    0.25369E+06        -0.14530E+07         0.00000E+00
    0.00000E+00         0.00000E+00         0.00000E+00
 
    0.11116E+07         0.29879E+06         0.00000E+00
    0.29879E+06        -0.14499E+07         0.00000E+00
    0.00000E+00         0.00000E+00         0.00000E+00
 
    0.10957E+07         0.34357E+06         0.00000E+00
    0.34357E+06        -0.14462E+07         0.00000E+00
    0.00000E+00         0.00000E+00         0.00000E+00
 
    0.10792E+07         0.38801E+06         0.00000E+00
    0.38801E+06        -0.14421E+07         0.00000E+00
    0.00000E+00         0.00000E+00         0.00000E+00
 
    0.10621E+07         0.43210E+06         0.00000E+00
    0.43210E+06        -0.14375E+07         0.00000E+00
    0.00000E+00         0.00000E+00         0.00000E+00
 
    0.10445E+07         0.47583E+06         0.00000E+00
    0.47583E+06        -0.14324E+07         0.00000E+00
    0.00000E+00         0.00000E+00         0.00000E+00
 
    0.10263E+07         0.51919E+06         0.00000E+00
    0.51919E+06        -0.14268E+07         0.00000E+00
    0.00000E+00         0.00000E+00         0.00000E+00
 
    0.10076E+07         0.56218E+06         0.00000E+00
    0.56218E+06        -0.14208E+07         0.00000E+00
    0.00000E+00         0.00000E+00         0.00000E+00
 
    0.98839E+06         0.60478E+06         0.00000E+00
    0.60478E+06        -0.14144E+07         0.00000E+00
    0.00000E+00         0.00000E+00         0.00000E+00
 
    0.96862E+06         0.64699E+06         0.00000E+00
    0.64699E+06        -0.14076E+07         0.00000E+00
    0.00000E+00         0.00000E+00         0.00000E+00
 
    0.94834E+06         0.68879E+06         0.00000E+00
    0.68879E+06        -0.14003E+07         0.00000E+00
    0.00000E+00         0.00000E+00         0.00000E+00
 
    0.92757E+06         0.73019E+06         0.00000E+00
    0.73019E+06        -0.13926E+07         0.00000E+00
    0.00000E+00         0.00000E+00         0.00000E+00
 
    0.90630E+06         0.77118E+06         0.00000E+00
    0.77118E+06        -0.13845E+07         0.00000E+00
    0.00000E+00         0.00000E+00         0.00000E+00
 
    0.88455E+06         0.81174E+06         0.00000E+00
    0.81174E+06        -0.13761E+07         0.00000E+00
    0.00000E+00         0.00000E+00         0.00000E+00
 
    0.86233E+06         0.85187E+06         0.00000E+00
    0.85187E+06        -0.13672E+07         0.00000E+00
    0.00000E+00         0.00000E+00         0.00000E+00
 
    0.83965E+06         0.89157E+06         0.00000E+00
    0.89157E+06        -0.13580E+07         0.00000E+00
    0.00000E+00         0.00000E+00         0.00000E+00
 
    0.81652E+06         0.93082E+06         0.00000E+00
    0.93082E+06        -0.13484E+07         0.00000E+00
    0.00000E+00         0.00000E+00         0.00000E+00
 
    0.79294E+06         0.96963E+06         0.00000E+00
    0.96963E+06        -0.13385E+07         0.00000E+00
    0.00000E+00         0.00000E+00         0.00000E+00
 
    0.76893E+06         0.10080E+07         0.00000E+00
    0.10080E+07        -0.13282E+07         0.00000E+00
    0.00000E+00         0.00000E+00         0.00000E+00
 
    0.74449E+06         0.10459E+07         0.00000E+00
    0.10459E+07        -0.13176E+07         0.00000E+00
    0.00000E+00         0.00000E+00         0.00000E+00
 
    0.71963E+06         0.10833E+07         0.00000E+00
    0.10833E+07        -0.13067E+07         0.00000E+00
    0.00000E+00         0.00000E+00         0.00000E+00
 
    0.69437E+06         0.11203E+07         0.00000E+00
    0.11203E+07        -0.12954E+07         0.00000E+00
    0.00000E+00         0.00000E+00         0.00000E+00
 
    0.66870E+06         0.11568E+07         0.00000E+00
    0.11568E+07        -0.12838E+07         0.00000E+00
    0.00000E+00         0.00000E+00         0.00000E+00
 
    0.64264E+06         0.11928E+07         0.00000E+00
    0.11928E+07        -0.12720E+07         0.00000E+00
    0.00000E+00         0.00000E+00         0.00000E+00
 
    0.61619E+06         0.12284E+07         0.00000E+00
    0.12284E+07        -0.12598E+07         0.00000E+00
    0.00000E+00         0.00000E+00         0.00000E+00
 
    0.58937E+06         0.12634E+07         0.00000E+00
    0.12634E+07        -0.12474E+07         0.00000E+00
    0.00000E+00         0.00000E+00         0.00000E+00
 
    0.56217E+06         0.12980E+07         0.00000E+00
    0.12980E+07        -0.12347E+07         0.00000E+00
    0.00000E+00         0.00000E+00         0.00000E+00
 
    0.53462E+06         0.13321E+07         0.00000E+00
    0.13321E+07        -0.12217E+07         0.00000E+00
    0.00000E+00         0.00000E+00         0.00000E+00
 
    0.50670E+06         0.13657E+07         0.00000E+00
    0.13657E+07        -0.12084E+07         0.00000E+00
    0.00000E+00         0.00000E+00         0.00000E+00
 
    0.47843E+06         0.13988E+07         0.00000E+00
    0.13988E+07        -0.11949E+07         0.00000E+00
    0.00000E+00         0.00000E+00         0.00000E+00
 
    0.44983E+06         0.14314E+07         0.00000E+00
    0.14314E+07        -0.11812E+07         0.00000E+00
    0.00000E+00         0.00000E+00         0.00000E+00
 
    0.42088E+06         0.14635E+07         0.00000E+00
    0.14635E+07        -0.11672E+07         0.00000E+00
    0.00000E+00         0.00000E+00         0.00000E+00
 
    0.39160E+06         0.14951E+07         0.00000E+00
    0.14951E+07        -0.11530E+07         0.00000E+00
    0.00000E+00         0.00000E+00         0.00000E+00
 
    0.36200E+06         0.15262E+07         0.00000E+00
    0.15262E+07        -0.11386E+07         0.00000E+00
    0.00000E+00         0.00000E+00         0.00000E+00
 
    0.33208E+06         0.15568E+07         0.00000E+00
    0.15568E+07        -0.11240E+07         0.00000E+00
    0.00000E+00         0.00000E+00         0.00000E+00
 
    0.30185E+06         0.15868E+07         0.00000E+00
    0.15868E+07        -0.11091E+07         0.00000E+00
    0.00000E+00         0.00000E+00         0.00000E+00
 
    0.27130E+06         0.16164E+07         0.00000E+00
    0.16164E+07        -0.10941E+07         0.00000E+00
    0.00000E+00         0.00000E+00         0.00000E+00
 
    0.24046E+06         0.16454E+07         0.00000E+00
    0.16454E+07        -0.10788E+07         0.00000E+00
    0.00000E+00         0.00000E+00         0.00000E+00
 
    0.20932E+06         0.16739E+07         0.00000E+00
    0.16739E+07        -0.10634E+07         0.00000E+00
    0.00000E+00         0.00000E+00         0.00000E+00
 
    0.17788E+06         0.17019E+07         0.00000E+00
    0.17019E+07        -0.10478E+07         0.00000E+00
    0.00000E+00         0.00000E+00         0.00000E+00
 
    0.14616E+06         0.17294E+07         0.00000E+00
    0.17294E+07        -0.10320E+07         0.00000E+00
    0.00000E+00         0.00000E+00         0.00000E+00
 
    0.11415E+06         0.17563E+07         0.00000E+00
    0.17563E+07        -0.10161E+07         0.00000E+00
    0.00000E+00         0.00000E+00         0.00000E+00
 
    0.81869E+05         0.17827E+07         0.00000E+00
    0.17827E+07        -0.99999E+06         0.00000E+00
    0.00000E+00         0.00000E+00         0.00000E+00
 
    0.49310E+05         0.18086E+07         0.00000E+00
    0.18086E+07        -0.98373E+06         0.00000E+00
    0.00000E+00         0.00000E+00         0.00000E+00
 
    0.16481E+05         0.18340E+07         0.00000E+00
    0.18340E+07        -0.96733E+06         0.00000E+00
    0.00000E+00         0.00000E+00         0.00000E+00
 
    0.13023E+07         0.24844E+05         0.00000E+00
    0.24844E+05        -0.15924E+07         0.00000E+00
    0.00000E+00         0.00000E+00         0.00000E+00
 
    0.12888E+07         0.73761E+05         0.00000E+00
    0.73761E+05        -0.15918E+07         0.00000E+00
    0.00000E+00         0.00000E+00         0.00000E+00
 
    0.12745E+07         0.12238E+06         0.00000E+00
    0.12238E+06        -0.15906E+07         0.00000E+00
    0.00000E+00         0.00000E+00         0.00000E+00
 
    0.12595E+07         0.17068E+06         0.00000E+00
    0.17068E+06        -0.15888E+07         0.00000E+00
    0.00000E+00         0.00000E+00         0.00000E+00
 
    0.12439E+07         0.21867E+06         0.00000E+00
    0.21867E+06        -0.15864E+07         0.00000E+00
    0.00000E+00         0.00000E+00         0.00000E+00
 
    0.12276E+07         0.26631E+06         0.00000E+00
    0.26631E+06        -0.15835E+07         0.00000E+00
    0.00000E+00         0.00000E+00         0.00000E+00
 
    0.12107E+07         0.31361E+06         0.00000E+00
    0.31361E+06        -0.15801E+07         0.00000E+00
    0.00000E+00         0.00000E+00         0.00000E+00
 
    0.11931E+07         0.36055E+06         0.00000E+00
    0.36055E+06        -0.15761E+07         0.00000E+00
    0.00000E+00         0.00000E+00         0.00000E+00
 
    0.11749E+07         0.40712E+06         0.00000E+00
    0.40712E+06        -0.15716E+07         0.00000E+00
    0.00000E+00         0.00000E+00         0.00000E+00
 
    0.11560E+07         0.45332E+06         0.00000E+00
    0.45332E+06        -0.15666E+07         0.00000E+00
    0.00000E+00         0.00000E+00         0.00000E+00
 
    0.11366E+07         0.49912E+06         0.00000E+00
    0.49912E+06        -0.15610E+07         0.00000E+00
    0.00000E+00         0.00000E+00         0.00000E+00
 
    0.11166E+07         0.54453E+06         0.00000E+00
    0.54453E+06        -0.15550E+07         0.00000E+00
    0.00000E+00         0.00000E+00         0.00000E+00
 
    0.10960E+07         0.58953E+06         0.00000E+00
    0.58953E+06        -0.15485E+07         0.00000E+00
    0.00000E+00         0.00000E+00         0.00000E+00
 
    0.10748E+07         0.63412E+06         0.00000E+00
    0.63412E+06        -0.15415E+07         0.00000E+00
    0.00000E+00         0.00000E+00         0.00000E+00
 
    0.10531E+07         0.67829E+06         0.00000E+00
    0.67829E+06        -0.15341E+07         0.00000E+00
    0.00000E+00         0.00000E+00         0.00000E+00
 
    0.10308E+07         0.72203E+06         0.00000E+00
    0.72203E+06        -0.15262E+07         0.00000E+00
    0.00000E+00         0.00000E+00         0.00000E+00
 
    0.10081E+07         0.76533E+06         0.00000E+00
    0.76533E+06        -0.15179E+07         0.00000E+00
    0.00000E+00         0.00000E+00         0.00000E+00
 
    0.98474E+06         0.80819E+06         0.00000E+00
    0.80819E+06        -0.15091E+07         0.00000E+00
    0.00000E+00         0.00000E+00         0.00000E+00
 
    0.96091E+06         0.85060E+06         0.00000E+00
    0.85060E+06        -0.14999E+07         0.00000E+00
    0.00000E+00         0.00000E+00         0.00000E+00
 
    0.93658E+06         0.89255E+06         0.00000E+00
    0.89255E+06        -0.14903E+07         0.00000E+00
    0.00000E+00         0.00000E+00         0.00000E+00
 
    0.91177E+06         0.93404E+06         0.00000E+00
    0.93404E+06        -0.14804E+07         0.00000E+00
    0.00000E+00         0.00000E+00         0.00000E+00
 
    0.88647E+06         0.97507E+06         0.00000E+00
    0.97507E+06        -0.14700E+07         0.00000E+00
    0.00000E+00         0.00000E+00         0.00000E+00
 
    0.86071E+06         0.10156E+07         0.00000E+00
    0.10156E+07        -0.14592E+07         0.00000E+00
    0.00000E+00         0.00000E+00         0.00000E+00
 
    0.83449E+06         0.10557E+07         0.00000E+00
    0.10557E+07        -0.14481E+07         0.00000E+00
    0.00000E+00         0.00000E+00         0.00000E+00
 
    0.80781E+06         0.10953E+07         0.00000E+00
    0.10953E+07        -0.14366E+07         0.00000E+00
    0.00000E+00         0.00000E+00         0.00000E+00
 
    0.78070E+06         0.11344E+07         0.00000E+00
    0.11344E+07        -0.14248E+07         0.00000E+00
    0.00000E+00         0.00000E+00         0.00000E+00
 
    0.75315E+06         0.11730E+07         0.00000E+00
    0.11730E+07        -0.14126E+07         0.00000E+00
    0.00000E+00         0.00000E+00         0.00000E+00
 
    0.72519E+06         0.12112E+07         0.00000E+00
    0.12112E+07        -0.14001E+07         0.00000E+00
    0.00000E+00         0.00000E+00         0.00000E+00
 
    0.69680E+06         0.12488E+07         0.00000E+00
    0.12488E+07        -0.13873E+07         0.00000E+00
    0.00000E+00         0.00000E+00         0.00000E+00
 
    0.66802E+06         0.12859E+07         0.00000E+00
    0.12859E+07        -0.13741E+07         0.00000E+00
    0.00000E+00         0.00000E+00         0.00000E+00
 
    0.63883E+06         0.13226E+07         0.00000E+00
    0.13226E+07        -0.13607E+07         0.00000E+00
    0.00000E+00         0.00000E+00         0.00000E+00
 
    0.60926E+06         0.13587E+07         0.00000E+00
    0.13587E+07        -0.13469E+07         0.00000E+00
    0.00000E+00         0.00000E+00         0.00000E+00
 
    0.57930E+06         0.13943E+07         0.00000E+00
    0.13943E+07        -0.13329E+07         0.00000E+00
    0.00000E+00         0.00000E+00         0.00000E+00
 
    0.54897E+06         0.14294E+07         0.00000E+00
    0.14294E+07        -0.13186E+07         0.00000E+00
    0.00000E+00         0.00000E+00         0.00000E+00
 
    0.51827E+06         0.14640E+07         0.00000E+00
    0.14640E+07        -0.13040E+07         0.00000E+00
    0.00000E+00         0.00000E+00         0.00000E+00
 
    0.48721E+06         0.14980E+07         0.00000E+00
    0.14980E+07        -0.12892E+07         0.00000E+00
    0.00000E+00         0.00000E+00         0.00000E+00
 
    0.45580E+06         0.15316E+07         0.00000E+00
    0.15316E+07        -0.12741E+07         0.00000E+00
    0.00000E+00         0.00000E+00         0.00000E+00
 
    0.42403E+06         0.15646E+07         0.00000E+00
    0.15646E+07        -0.12587E+07         0.00000E+00
    0.00000E+00         0.00000E+00         0.00000E+00
 
    0.39193E+06         0.15971E+07         0.00000E+00
    0.15971E+07        -0.12432E+07         0.00000E+00
    0.00000E+00         0.00000E+00         0.00000E+00
 
    0.35949E+06         0.16291E+07         0.00000E+00
    0.16291E+07        -0.12274E+07         0.00000E+00
    0.00000E+00         0.00000E+00         0.00000E+00
 
    0.32672E+06         0.16605E+07         0.00000E+00
    0.16605E+07        -0.12113E+07         0.00000E+00
    0.00000E+00         0.00000E+00         0.00000E+00
 
    0.29363E+06         0.16914E+07         0.00000E+00
    0.16914E+07        -0.11951E+07         0.00000E+00
    0.00000E+00         0.00000E+00         0.00000E+00
 
    0.26022E+06         0.17218E+07         0.00000E+00
    0.17218E+07        -0.11786E+07         0.00000E+00
    0.00000E+00         0.00000E+00         0.00000E+00
 
    0.22650E+06         0.17517E+07         0.00000E+00
    0.17517E+07        -0.11619E+07         0.00000E+00
    0.00000E+00         0.00000E+00         0.00000E+00
 
    0.19246E+06         0.17810E+07         0.00000E+00
    0.17810E+07        -0.11451E+07         0.00000E+00
    0.00000E+00         0.00000E+00         0.00000E+00
 
    0.15813E+06         0.18098E+07         0.00000E+00
    0.18098E+07        -0.11280E+07         0.00000E+00
    0.00000E+00         0.00000E+00         0.00000E+00
 
    0.12349E+06         0.18380E+07         0.00000E+00
    0.18380E+07        -0.11108E+07         0.00000E+00
    0.00000E+00         0.00000E+00         0.00000E+00
 
    0.88558E+05         0.18657E+07         0.00000E+00
    0.18657E+07        -0.10934E+07         0.00000E+00
    0.00000E+00         0.00000E+00         0.00000E+00
 
    0.53335E+05         0.18929E+07         0.00000E+00
    0.18929E+07        -0.10758E+07         0.00000E+00
    0.00000E+00         0.00000E+00         0.00000E+00
 
    0.17826E+05         0.19195E+07         0.00000E+00
    0.19195E+07        -0.10581E+07         0.00000E+00
    0.00000E+00         0.00000E+00         0.00000E+00
 
    0.14160E+07         0.26163E+05         0.00000E+00
    0.26163E+05        -0.17303E+07         0.00000E+00
    0.00000E+00         0.00000E+00         0.00000E+00
 
    0.14009E+07         0.77623E+05         0.00000E+00
    0.77623E+05        -0.17297E+07         0.00000E+00
    0.00000E+00         0.00000E+00         0.00000E+00
 
    0.13850E+07         0.12875E+06         0.00000E+00
    0.12875E+06        -0.17284E+07         0.00000E+00
    0.00000E+00         0.00000E+00         0.00000E+00
 
    0.13684E+07         0.17953E+06         0.00000E+00
    0.17953E+06        -0.17265E+07         0.00000E+00
    0.00000E+00         0.00000E+00         0.00000E+00
 
    0.13511E+07         0.22995E+06         0.00000E+00
    0.22995E+06        -0.17239E+07         0.00000E+00
    0.00000E+00         0.00000E+00         0.00000E+00
 
    0.13331E+07         0.28000E+06         0.00000E+00
    0.28000E+06        -0.17208E+07         0.00000E+00
    0.00000E+00         0.00000E+00         0.00000E+00
 
    0.13143E+07         0.32967E+06         0.00000E+00
    0.32967E+06        -0.17170E+07         0.00000E+00
    0.00000E+00         0.00000E+00         0.00000E+00
 
    0.12949E+07         0.37895E+06         0.00000E+00
    0.37895E+06        -0.17127E+07         0.00000E+00
    0.00000E+00         0.00000E+00         0.00000E+00
 
    0.12748E+07         0.42783E+06         0.00000E+00
    0.42783E+06        -0.17078E+07         0.00000E+00
    0.00000E+00         0.00000E+00         0.00000E+00
 
    0.12541E+07         0.47629E+06         0.00000E+00
    0.47629E+06        -0.17024E+07         0.00000E+00
    0.00000E+00         0.00000E+00         0.00000E+00
 
    0.12327E+07         0.52433E+06         0.00000E+00
    0.52433E+06        -0.16964E+07         0.00000E+00
    0.00000E+00         0.00000E+00         0.00000E+00
 
    0.12107E+07         0.57194E+06         0.00000E+00
    0.57194E+06        -0.16899E+07         0.00000E+00
    0.00000E+00         0.00000E+00         0.00000E+00
 
    0.11881E+07         0.61911E+06         0.00000E+00
    0.61911E+06        -0.16828E+07         0.00000E+00
    0.00000E+00         0.00000E+00         0.00000E+00
 
    0.11648E+07         0.66584E+06         0.00000E+00
    0.66584E+06        -0.16753E+07         0.00000E+00
    0.00000E+00         0.00000E+00         0.00000E+00
 
    0.11410E+07         0.71211E+06         0.00000E+00
    0.71211E+06        -0.16672E+07         0.00000E+00
    0.00000E+00         0.00000E+00         0.00000E+00
 
    0.11166E+07         0.75792E+06         0.00000E+00
    0.75792E+06        -0.16587E+07         0.00000E+00
    0.00000E+00         0.00000E+00         0.00000E+00
 
    0.10917E+07         0.80327E+06         0.00000E+00
    0.80327E+06        -0.16497E+07         0.00000E+00
    0.00000E+00         0.00000E+00         0.00000E+00
 
    0.10662E+07         0.84814E+06         0.00000E+00
    0.84814E+06        -0.16403E+07         0.00000E+00
    0.00000E+00         0.00000E+00         0.00000E+00
 
    0.10401E+07         0.89253E+06         0.00000E+00
    0.89253E+06        -0.16304E+07         0.00000E+00
    0.00000E+00         0.00000E+00         0.00000E+00
 
    0.10136E+07         0.93644E+06         0.00000E+00
    0.93644E+06        -0.16200E+07         0.00000E+00
    0.00000E+00         0.00000E+00         0.00000E+00
 
    0.98649E+06         0.97986E+06         0.00000E+00
    0.97986E+06        -0.16092E+07         0.00000E+00
    0.00000E+00         0.00000E+00         0.00000E+00
 
    0.95890E+06         0.10228E+07         0.00000E+00
    0.10228E+07        -0.15980E+07         0.00000E+00
    0.00000E+00         0.00000E+00         0.00000E+00
 
    0.93083E+06         0.10652E+07         0.00000E+00
    0.10652E+07        -0.15865E+07         0.00000E+00
    0.00000E+00         0.00000E+00         0.00000E+00
 
    0.90228E+06         0.11071E+07         0.00000E+00
    0.11071E+07        -0.15745E+07         0.00000E+00
    0.00000E+00         0.00000E+00         0.00000E+00
 
    0.87326E+06         0.11485E+07         0.00000E+00
    0.11485E+07        -0.15621E+07         0.00000E+00
    0.00000E+00         0.00000E+00         0.00000E+00
 
    0.84377E+06         0.11895E+07         0.00000E+00
    0.11895E+07        -0.15494E+07         0.00000E+00
    0.00000E+00         0.00000E+00         0.00000E+00
 
    0.81384E+06         0.12298E+07         0.00000E+00
    0.12298E+07        -0.15362E+07         0.00000E+00
    0.00000E+00         0.00000E+00         0.00000E+00
 
    0.78346E+06         0.12697E+07         0.00000E+00
    0.12697E+07        -0.15228E+07         0.00000E+00
    0.00000E+00         0.00000E+00         0.00000E+00
 
    0.75265E+06         0.13091E+07         0.00000E+00
    0.13091E+07        -0.15090E+07         0.00000E+00
    0.00000E+00         0.00000E+00         0.00000E+00
 
    0.72142E+06         0.13479E+07         0.00000E+00
    0.13479E+07        -0.14948E+07         0.00000E+00
    0.00000E+00         0.00000E+00         0.00000E+00
 
    0.68978E+06         0.13862E+07         0.00000E+00
    0.13862E+07        -0.14804E+07         0.00000E+00
    0.00000E+00         0.00000E+00         0.00000E+00
 
    0.65773E+06         0.14240E+07         0.00000E+00
    0.14240E+07        -0.14656E+07         0.00000E+00
    0.00000E+00         0.00000E+00         0.00000E+00
 
    0.62528E+06         0.14612E+07         0.00000E+00
    0.14612E+07        -0.14505E+07         0.00000E+00
    0.00000E+00         0.00000E+00         0.00000E+00
 
    0.59244E+06         0.14980E+07         0.00000E+00
    0.14980E+07        -0.14351E+07         0.00000E+00
    0.00000E+00         0.00000E+00         0.00000E+00
 
    0.55922E+06         0.15341E+07         0.00000E+00
    0.15341E+07        -0.14194E+07         0.00000E+00
    0.00000E+00         0.00000E+00         0.00000E+00
 
    0.52562E+06         0.15698E+07         0.00000E+00
    0.15698E+07        -0.14035E+07         0.00000E+00
    0.00000E+00         0.00000E+00         0.00000E+00
 
    0.49166E+06         0.16049E+07         0.00000E+00
    0.16049E+07        -0.13872E+07         0.00000E+00
    0.00000E+00         0.00000E+00         0.00000E+00
 
    0.45733E+06         0.16395E+07         0.00000E+00
    0.16395E+07        -0.13707E+07         0.00000E+00
    0.00000E+00         0.00000E+00         0.00000E+00
 
    0.42265E+06         0.16735E+07         0.00000E+00
    0.16735E+07        -0.13540E+07         0.00000E+00
    0.00000E+00         0.00000E+00         0.00000E+00
 
    0.38761E+06         0.17070E+07         0.00000E+00
    0.17070E+07        -0.13370E+07         0.00000E+00
    0.00000E+00         0.00000E+00         0.00000E+00
 
    0.35224E+06         0.17399E+07         0.00000E+00
    0.17399E+07        -0.13197E+07         0.00000E+00
    0.00000E+00         0.00000E+00         0.00000E+00
 
    0.31652E+06         0.17723E+07         0.00000E+00
    0.17723E+07        -0.13023E+07         0.00000E+00
    0.00000E+00         0.00000E+00         0.00000E+00
 
    0.28047E+06         0.18042E+07         0.00000E+00
    0.18042E+07        -0.12846E+07         0.00000E+00
    0.00000E+00         0.00000E+00         0.00000E+00
 
    0.24410E+06         0.18355E+07         0.00000E+00
    0.18355E+07        -0.12666E+07         0.00000E+00
    0.00000E+00         0.00000E+00         0.00000E+00
 
    0.20740E+06         0.18662E+07         0.00000E+00
    0.18662E+07        -0.12485E+07         0.00000E+00
    0.00000E+00         0.00000E+00         0.00000E+00
 
    0.17038E+06         0.18964E+07         0.00000E+00
    0.18964E+07        -0.12302E+07         0.00000E+00
    0.00000E+00         0.00000E+00         0.00000E+00
 
    0.13305E+06         0.19261E+07         0.00000E+00
    0.19261E+07        -0.12116E+07         0.00000E+00
    0.00000E+00         0.00000E+00         0.00000E+00
 
    0.95403E+05         0.19552E+07         0.00000E+00
    0.19552E+07        -0.11929E+07         0.00000E+00
    0.00000E+00         0.00000E+00         0.00000E+00
 
    0.57453E+05         0.19837E+07         0.00000E+00
    0.19837E+07        -0.11740E+07         0.00000E+00
    0.00000E+00         0.00000E+00         0.00000E+00
 
    0.19201E+05         0.20117E+07         0.00000E+00
    0.20117E+07        -0.11549E+07         0.00000E+00
    0.00000E+00         0.00000E+00         0.00000E+00
 
    0.15356E+07         0.27594E+05         0.00000E+00
    0.27594E+05        -0.18757E+07         0.00000E+00
    0.00000E+00         0.00000E+00         0.00000E+00
 
    0.15188E+07         0.81806E+05         0.00000E+00
    0.81806E+05        -0.18750E+07         0.00000E+00
    0.00000E+00         0.00000E+00         0.00000E+00
 
    0.15011E+07         0.13564E+06         0.00000E+00
    0.13564E+06        -0.18736E+07         0.00000E+00
    0.00000E+00         0.00000E+00         0.00000E+00
 
    0.14827E+07         0.18910E+06         0.00000E+00
    0.18910E+06        -0.18715E+07         0.00000E+00
    0.00000E+00         0.00000E+00         0.00000E+00
 
    0.14635E+07         0.24215E+06         0.00000E+00
    0.24215E+06        -0.18687E+07         0.00000E+00
    0.00000E+00         0.00000E+00         0.00000E+00
 
    0.14436E+07         0.29479E+06         0.00000E+00
    0.29479E+06        -0.18653E+07         0.00000E+00
    0.00000E+00         0.00000E+00         0.00000E+00
 
    0.14228E+07         0.34701E+06         0.00000E+00
    0.34701E+06        -0.18613E+07         0.00000E+00
    0.00000E+00         0.00000E+00         0.00000E+00
 
    0.14014E+07         0.39880E+06         0.00000E+00
    0.39880E+06        -0.18566E+07         0.00000E+00
    0.00000E+00         0.00000E+00         0.00000E+00
 
    0.13793E+07         0.45015E+06         0.00000E+00
    0.45015E+06        -0.18514E+07         0.00000E+00
    0.00000E+00         0.00000E+00         0.00000E+00
 
    0.13564E+07         0.50104E+06         0.00000E+00
    0.50104E+06        -0.18455E+07         0.00000E+00
    0.00000E+00         0.00000E+00         0.00000E+00
 
    0.13329E+07         0.55148E+06         0.00000E+00
    0.55148E+06        -0.18390E+07         0.00000E+00
    0.00000E+00         0.00000E+00         0.00000E+00
 
    0.13087E+07         0.60145E+06         0.00000E+00
    0.60145E+06        -0.18320E+07         0.00000E+00
    0.00000E+00         0.00000E+00         0.00000E+00
 
    0.12839E+07         0.65094E+06         0.00000E+00
    0.65094E+06        -0.18244E+07         0.00000E+00
    0.00000E+00         0.00000E+00         0.00000E+00
 
    0.12585E+07         0.69995E+06         0.00000E+00
    0.69995E+06        -0.18163E+07         0.00000E+00
    0.00000E+00         0.00000E+00         0.00000E+00
 
    0.12324E+07         0.74848E+06         0.00000E+00
    0.74848E+06        -0.18076E+07         0.00000E+00
    0.00000E+00         0.00000E+00         0.00000E+00
 
    0.12057E+07         0.79650E+06         0.00000E+00
    0.79650E+06        -0.17985E+07         0.00000E+00
    0.00000E+00         0.00000E+00         0.00000E+00
 
    0.11785E+07         0.84403E+06         0.00000E+00
    0.84403E+06        -0.17888E+07         0.00000E+00
    0.00000E+00         0.00000E+00         0.00000E+00
 
    0.11506E+07         0.89105E+06         0.00000E+00
    0.89105E+06        -0.17786E+07         0.00000E+00
    0.00000E+00         0.00000E+00         0.00000E+00
 
    0.11222E+07         0.93756E+06         0.00000E+00
    0.93756E+06        -0.17680E+07         0.00000E+00
    0.00000E+00         0.00000E+00         0.00000E+00
 
    0.10933E+07         0.98355E+06         0.00000E+00
    0.98355E+06        -0.17569E+07         0.00000E+00
    0.00000E+00         0.00000E+00         0.00000E+00
 
    0.10638E+07         0.10290E+07         0.00000E+00
    0.10290E+07        -0.17453E+07         0.00000E+00
    0.00000E+00         0.00000E+00         0.00000E+00
 
    0.10338E+07         0.10740E+07         0.00000E+00
    0.10740E+07        -0.17333E+07         0.00000E+00
    0.00000E+00         0.00000E+00         0.00000E+00
 
    0.10033E+07         0.11184E+07         0.00000E+00
    0.11184E+07        -0.17209E+07         0.00000E+00
    0.00000E+00         0.00000E+00         0.00000E+00
 
    0.97229E+06         0.11623E+07         0.00000E+00
    0.11623E+07        -0.17080E+07         0.00000E+00
    0.00000E+00         0.00000E+00         0.00000E+00
 
    0.94079E+06         0.12056E+07         0.00000E+00
    0.12056E+07        -0.16948E+07         0.00000E+00
    0.00000E+00         0.00000E+00         0.00000E+00
 
    0.90882E+06         0.12485E+07         0.00000E+00
    0.12485E+07        -0.16811E+07         0.00000E+00
    0.00000E+00         0.00000E+00         0.00000E+00
 
    0.87638E+06         0.12907E+07         0.00000E+00
    0.12907E+07        -0.16671E+07         0.00000E+00
    0.00000E+00         0.00000E+00         0.00000E+00
 
    0.84348E+06         0.13325E+07         0.00000E+00
    0.13325E+07        -0.16526E+07         0.00000E+00
    0.00000E+00         0.00000E+00         0.00000E+00
 
    0.81014E+06         0.13737E+07         0.00000E+00
    0.13737E+07        -0.16378E+07         0.00000E+00
    0.00000E+00         0.00000E+00         0.00000E+00
 
    0.77636E+06         0.14143E+07         0.00000E+00
    0.14143E+07        -0.16227E+07         0.00000E+00
    0.00000E+00         0.00000E+00         0.00000E+00
 
    0.74215E+06         0.14544E+07         0.00000E+00
    0.14544E+07        -0.16072E+07         0.00000E+00
    0.00000E+00         0.00000E+00         0.00000E+00
 
    0.70753E+06         0.14940E+07         0.00000E+00
    0.14940E+07        -0.15914E+07         0.00000E+00
    0.00000E+00         0.00000E+00         0.00000E+00
 
    0.67250E+06         0.15330E+07         0.00000E+00
    0.15330E+07        -0.15752E+07         0.00000E+00
    0.00000E+00         0.00000E+00         0.00000E+00
 
    0.63706E+06         0.15714E+07         0.00000E+00
    0.15714E+07        -0.15587E+07         0.00000E+00
    0.00000E+00         0.00000E+00         0.00000E+00
 
    0.60123E+06         0.16093E+07         0.00000E+00
    0.16093E+07        -0.15420E+07         0.00000E+00
    0.00000E+00         0.00000E+00         0.00000E+00
 
    0.56501E+06         0.16467E+07         0.00000E+00
    0.16467E+07        -0.15249E+07         0.00000E+00
    0.00000E+00         0.00000E+00         0.00000E+00
 
    0.52841E+06         0.16835E+07         0.00000E+00
    0.16835E+07        -0.15075E+07         0.00000E+00
    0.00000E+00         0.00000E+00         0.00000E+00
 
    0.49144E+06         0.17197E+07         0.00000E+00
    0.17197E+07        -0.14898E+07         0.00000E+00
    0.00000E+00         0.00000E+00         0.00000E+00
 
    0.45410E+06         0.17554E+07         0.00000E+00
    0.17554E+07        -0.14719E+07         0.00000E+00
    0.00000E+00         0.00000E+00         0.00000E+00
 
    0.41640E+06         0.17905E+07         0.00000E+00
    0.17905E+07        -0.14537E+07         0.00000E+00
    0.00000E+00         0.00000E+00         0.00000E+00
 
    0.37834E+06         0.18251E+07         0.00000E+00
    0.18251E+07        -0.14352E+07         0.00000E+00
    0.00000E+00         0.00000E+00         0.00000E+00
 
    0.33993E+06         0.18591E+07         0.00000E+00
    0.18591E+07        -0.14165E+07         0.00000E+00
    0.00000E+00         0.00000E+00         0.00000E+00
 
    0.30118E+06         0.18925E+07         0.00000E+00
    0.18925E+07        -0.13976E+07         0.00000E+00
    0.00000E+00         0.00000E+00         0.00000E+00
 
    0.26208E+06         0.19254E+07         0.00000E+00
    0.19254E+07        -0.13784E+07         0.00000E+00
    0.00000E+00         0.00000E+00         0.00000E+00
 
    0.22265E+06         0.19577E+07         0.00000E+00
    0.19577E+07        -0.13589E+07         0.00000E+00
    0.00000E+00         0.00000E+00         0.00000E+00
 
    0.18289E+06         0.19895E+07         0.00000E+00
    0.19895E+07        -0.13393E+07         0.00000E+00
    0.00000E+00         0.00000E+00         0.00000E+00
 
    0.14280E+06         0.20207E+07         0.00000E+00
    0.20207E+07        -0.13194E+07         0.00000E+00
    0.00000E+00         0.00000E+00         0.00000E+00
 
    0.10239E+06         0.20513E+07         0.00000E+00
    0.20513E+07        -0.12993E+07         0.00000E+00
    0.00000E+00         0.00000E+00         0.00000E+00
 
    0.61656E+05         0.20814E+07         0.00000E+00
    0.20814E+07        -0.12790E+07         0.00000E+00
    0.00000E+00         0.00000E+00         0.00000E+00
 
    0.20605E+05         0.21109E+07         0.00000E+00
    0.21109E+07        -0.12585E+07         0.00000E+00
    0.00000E+00         0.00000E+00         0.00000E+00
 
    0.16615E+07         0.29141E+05         0.00000E+00
    0.29141E+05        -0.20291E+07         0.00000E+00
    0.00000E+00         0.00000E+00         0.00000E+00
 
    0.16428E+07         0.86316E+05         0.00000E+00
    0.86316E+05        -0.20284E+07         0.00000E+00
    0.00000E+00         0.00000E+00         0.00000E+00
 
    0.16231E+07         0.14307E+06         0.00000E+00
    0.14307E+06        -0.20269E+07         0.00000E+00
    0.00000E+00         0.00000E+00         0.00000E+00
 
    0.16027E+07         0.19939E+06         0.00000E+00
    0.19939E+06        -0.20246E+07         0.00000E+00
    0.00000E+00         0.00000E+00         0.00000E+00
 
    0.15814E+07         0.25526E+06         0.00000E+00
    0.25526E+06        -0.20216E+07         0.00000E+00
    0.00000E+00         0.00000E+00         0.00000E+00
 
    0.15593E+07         0.31068E+06         0.00000E+00
    0.31068E+06        -0.20180E+07         0.00000E+00
    0.00000E+00         0.00000E+00         0.00000E+00
 
    0.15364E+07         0.36563E+06         0.00000E+00
    0.36563E+06        -0.20136E+07         0.00000E+00
    0.00000E+00         0.00000E+00         0.00000E+00
 
    0.15128E+07         0.42011E+06         0.00000E+00
    0.42011E+06        -0.20086E+07         0.00000E+00
    0.00000E+00         0.00000E+00         0.00000E+00
 
    0.14884E+07         0.47409E+06         0.00000E+00
    0.47409E+06        -0.20029E+07         0.00000E+00
    0.00000E+00         0.00000E+00         0.00000E+00
 
    0.14632E+07         0.52759E+06         0.00000E+00
    0.52759E+06        -0.19966E+07         0.00000E+00
    0.00000E+00         0.00000E+00         0.00000E+00
 
    0.14374E+07         0.58058E+06         0.00000E+00
    0.58058E+06        -0.19897E+07         0.00000E+00
    0.00000E+00         0.00000E+00         0.00000E+00
 
    0.14109E+07         0.63306E+06         0.00000E+00
    0.63306E+06        -0.19822E+07         0.00000E+00
    0.00000E+00         0.00000E+00         0.00000E+00
 
    0.13837E+07         0.68503E+06         0.00000E+00
    0.68503E+06        -0.19740E+07         0.00000E+00
    0.00000E+00         0.00000E+00         0.00000E+00
 
    0.13558E+07         0.73647E+06         0.00000E+00
    0.73647E+06        -0.19653E+07         0.00000E+00
    0.00000E+00         0.00000E+00         0.00000E+00
 
    0.13273E+07         0.78739E+06         0.00000E+00
    0.78739E+06        -0.19561E+07         0.00000E+00
    0.00000E+00         0.00000E+00         0.00000E+00
 
    0.12982E+07         0.83777E+06         0.00000E+00
    0.83777E+06        -0.19462E+07         0.00000E+00
    0.00000E+00         0.00000E+00         0.00000E+00
 
    0.12684E+07         0.88761E+06         0.00000E+00
    0.88761E+06        -0.19359E+07         0.00000E+00
    0.00000E+00         0.00000E+00         0.00000E+00
 
    0.12381E+07         0.93692E+06         0.00000E+00
    0.93692E+06        -0.19250E+07         0.00000E+00
    0.00000E+00         0.00000E+00         0.00000E+00
 
    0.12072E+07         0.98567E+06         0.00000E+00
    0.98567E+06        -0.19136E+07         0.00000E+00
    0.00000E+00         0.00000E+00         0.00000E+00
 
    0.11757E+07         0.10339E+07         0.00000E+00
    0.10339E+07        -0.19018E+07         0.00000E+00
    0.00000E+00         0.00000E+00         0.00000E+00
 
    0.11437E+07         0.10815E+07         0.00000E+00
    0.10815E+07        -0.18894E+07         0.00000E+00
    0.00000E+00         0.00000E+00         0.00000E+00
 
    0.11111E+07         0.11286E+07         0.00000E+00
    0.11286E+07        -0.18766E+07         0.00000E+00
    0.00000E+00         0.00000E+00         0.00000E+00
 
    0.10780E+07         0.11752E+07         0.00000E+00
    0.11752E+07        -0.18633E+07         0.00000E+00
    0.00000E+00         0.00000E+00         0.00000E+00
 
    0.10444E+07         0.12212E+07         0.00000E+00
    0.12212E+07        -0.18496E+07         0.00000E+00
    0.00000E+00         0.00000E+00         0.00000E+00
 
    0.10103E+07         0.12666E+07         0.00000E+00
    0.12666E+07        -0.18354E+07         0.00000E+00
    0.00000E+00         0.00000E+00         0.00000E+00
 
    0.97574E+06         0.13114E+07         0.00000E+00
    0.13114E+07        -0.18209E+07         0.00000E+00
    0.00000E+00         0.00000E+00         0.00000E+00
 
    0.94067E+06         0.13557E+07         0.00000E+00
    0.13557E+07        -0.18059E+07         0.00000E+00
    0.00000E+00         0.00000E+00         0.00000E+00
 
    0.90514E+06         0.13994E+07         0.00000E+00
    0.13994E+07        -0.17905E+07         0.00000E+00
    0.00000E+00         0.00000E+00         0.00000E+00
 
    0.86915E+06         0.14426E+07         0.00000E+00
    0.14426E+07        -0.17747E+07         0.00000E+00
    0.00000E+00         0.00000E+00         0.00000E+00
 
    0.83272E+06         0.14852E+07         0.00000E+00
    0.14852E+07        -0.17586E+07         0.00000E+00
    0.00000E+00         0.00000E+00         0.00000E+00
 
    0.79585E+06         0.15272E+07         0.00000E+00
    0.15272E+07        -0.17421E+07         0.00000E+00
    0.00000E+00         0.00000E+00         0.00000E+00
 
    0.75856E+06         0.15687E+07         0.00000E+00
    0.15687E+07        -0.17252E+07         0.00000E+00
    0.00000E+00         0.00000E+00         0.00000E+00
 
    0.72084E+06         0.16095E+07         0.00000E+00
    0.16095E+07        -0.17080E+07         0.00000E+00
    0.00000E+00         0.00000E+00         0.00000E+00
 
    0.68272E+06         0.16498E+07         0.00000E+00
    0.16498E+07        -0.16904E+07         0.00000E+00
    0.00000E+00         0.00000E+00         0.00000E+00
 
    0.64419E+06         0.16896E+07         0.00000E+00
    0.16896E+07        -0.16725E+07         0.00000E+00
    0.00000E+00         0.00000E+00         0.00000E+00
 
    0.60527E+06         0.17288E+07         0.00000E+00
    0.17288E+07        -0.16543E+07         0.00000E+00
    0.00000E+00         0.00000E+00         0.00000E+00
 
    0.56596E+06         0.17673E+07         0.00000E+00
    0.17673E+07        -0.16358E+07         0.00000E+00
    0.00000E+00         0.00000E+00         0.00000E+00
 
    0.52626E+06         0.18054E+07         0.00000E+00
    0.18054E+07        -0.16170E+07         0.00000E+00
    0.00000E+00         0.00000E+00         0.00000E+00
 
    0.48619E+06         0.18428E+07         0.00000E+00
    0.18428E+07        -0.15978E+07         0.00000E+00
    0.00000E+00         0.00000E+00         0.00000E+00
 
    0.44576E+06         0.18797E+07         0.00000E+00
    0.18797E+07        -0.15784E+07         0.00000E+00
    0.00000E+00         0.00000E+00         0.00000E+00
 
    0.40495E+06         0.19160E+07         0.00000E+00
    0.19160E+07        -0.15588E+07         0.00000E+00
    0.00000E+00         0.00000E+00         0.00000E+00
 
    0.36379E+06         0.19518E+07         0.00000E+00
    0.19518E+07        -0.15388E+07         0.00000E+00
    0.00000E+00         0.00000E+00         0.00000E+00
 
    0.32227E+06         0.19869E+07         0.00000E+00
    0.19869E+07        -0.15186E+07         0.00000E+00
    0.00000E+00         0.00000E+00         0.00000E+00
 
    0.28040E+06         0.20215E+07         0.00000E+00
    0.20215E+07        -0.14981E+07         0.00000E+00
    0.00000E+00         0.00000E+00         0.00000E+00
 
    0.23819E+06         0.20555E+07         0.00000E+00
    0.20555E+07        -0.14774E+07         0.00000E+00
    0.00000E+00         0.00000E+00         0.00000E+00
 
    0.19563E+06         0.20890E+07         0.00000E+00
    0.20890E+07        -0.14564E+07         0.00000E+00
    0.00000E+00         0.00000E+00         0.00000E+00
 
    0.15273E+06         0.21219E+07         0.00000E+00
    0.21219E+07        -0.14352E+07         0.00000E+00
    0.00000E+00         0.00000E+00         0.00000E+00
 
    0.10950E+06         0.21542E+07         0.00000E+00
    0.21542E+07        -0.14137E+07         0.00000E+00
    0.00000E+00         0.00000E+00         0.00000E+00
 
    0.65929E+05         0.21859E+07         0.00000E+00
    0.21859E+07        -0.13920E+07         0.00000E+00
    0.00000E+00         0.00000E+00         0.00000E+00
 
    0.22031E+05         0.22170E+07         0.00000E+00
    0.22170E+07        -0.13701E+07         0.00000E+00
    0.00000E+00         0.00000E+00         0.00000E+00
 
    0.17941E+07         0.30807E+05         0.00000E+00
    0.30807E+05        -0.21914E+07         0.00000E+00
    0.00000E+00         0.00000E+00         0.00000E+00
 
    0.17731E+07         0.91158E+05         0.00000E+00
    0.91158E+05        -0.21906E+07         0.00000E+00
    0.00000E+00         0.00000E+00         0.00000E+00
 
    0.17513E+07         0.15103E+06         0.00000E+00
    0.15103E+06        -0.21890E+07         0.00000E+00
    0.00000E+00         0.00000E+00         0.00000E+00
 
    0.17285E+07         0.21042E+06         0.00000E+00
    0.21042E+06        -0.21865E+07         0.00000E+00
    0.00000E+00         0.00000E+00         0.00000E+00
 
    0.17049E+07         0.26931E+06         0.00000E+00
    0.26931E+06        -0.21834E+07         0.00000E+00
    0.00000E+00         0.00000E+00         0.00000E+00
 
    0.16804E+07         0.32768E+06         0.00000E+00
    0.32768E+06        -0.21794E+07         0.00000E+00
    0.00000E+00         0.00000E+00         0.00000E+00
 
    0.16551E+07         0.38554E+06         0.00000E+00
    0.38554E+06        -0.21748E+07         0.00000E+00
    0.00000E+00         0.00000E+00         0.00000E+00
 
    0.16290E+07         0.44287E+06         0.00000E+00
    0.44287E+06        -0.21694E+07         0.00000E+00
    0.00000E+00         0.00000E+00         0.00000E+00
 
    0.16021E+07         0.49967E+06         0.00000E+00
    0.49967E+06        -0.21633E+07         0.00000E+00
    0.00000E+00         0.00000E+00         0.00000E+00
 
    0.15745E+07         0.55592E+06         0.00000E+00
    0.55592E+06        -0.21566E+07         0.00000E+00
    0.00000E+00         0.00000E+00         0.00000E+00
 
    0.15461E+07         0.61162E+06         0.00000E+00
    0.61162E+06        -0.21492E+07         0.00000E+00
    0.00000E+00         0.00000E+00         0.00000E+00
 
    0.15170E+07         0.66676E+06         0.00000E+00
    0.66676E+06        -0.21411E+07         0.00000E+00
    0.00000E+00         0.00000E+00         0.00000E+00
 
    0.14872E+07         0.72135E+06         0.00000E+00
    0.72135E+06        -0.21325E+07         0.00000E+00
    0.00000E+00         0.00000E+00         0.00000E+00
 
    0.14568E+07         0.77536E+06         0.00000E+00
    0.77536E+06        -0.21232E+07         0.00000E+00
    0.00000E+00         0.00000E+00         0.00000E+00
 
    0.14256E+07         0.82881E+06         0.00000E+00
    0.82881E+06        -0.21133E+07         0.00000E+00
    0.00000E+00         0.00000E+00         0.00000E+00
 
    0.13939E+07         0.88168E+06         0.00000E+00
    0.88168E+06        -0.21028E+07         0.00000E+00
    0.00000E+00         0.00000E+00         0.00000E+00
 
    0.13615E+07         0.93398E+06         0.00000E+00
    0.93398E+06        -0.20918E+07         0.00000E+00
    0.00000E+00         0.00000E+00         0.00000E+00
 
    0.13285E+07         0.98569E+06         0.00000E+00
    0.98569E+06        -0.20802E+07         0.00000E+00
    0.00000E+00         0.00000E+00         0.00000E+00
 
    0.12949E+07         0.10368E+07         0.00000E+00
    0.10368E+07        -0.20681E+07         0.00000E+00
    0.00000E+00         0.00000E+00         0.00000E+00
 
    0.12607E+07         0.10874E+07         0.00000E+00
    0.10874E+07        -0.20555E+07         0.00000E+00
    0.00000E+00         0.00000E+00         0.00000E+00
 
    0.12260E+07         0.11373E+07         0.00000E+00
    0.11373E+07        -0.20424E+07         0.00000E+00
    0.00000E+00         0.00000E+00         0.00000E+00
 
    0.11907E+07         0.11867E+07         0.00000E+00
    0.11867E+07        -0.20287E+07         0.00000E+00
    0.00000E+00         0.00000E+00         0.00000E+00
 
    0.11549E+07         0.12355E+07         0.00000E+00
    0.12355E+07        -0.20146E+07         0.00000E+00
    0.00000E+00         0.00000E+00         0.00000E+00
 
    0.11185E+07         0.12837E+07         0.00000E+00
    0.12837E+07        -0.20001E+07         0.00000E+00
    0.00000E+00         0.00000E+00         0.00000E+00
 
    0.10817E+07         0.13313E+07         0.00000E+00
    0.13313E+07        -0.19850E+07         0.00000E+00
    0.00000E+00         0.00000E+00         0.00000E+00
 
    0.10444E+07         0.13783E+07         0.00000E+00
    0.13783E+07        -0.19695E+07         0.00000E+00
    0.00000E+00         0.00000E+00         0.00000E+00
 
    0.10066E+07         0.14247E+07         0.00000E+00
    0.14247E+07        -0.19536E+07         0.00000E+00
    0.00000E+00         0.00000E+00         0.00000E+00
 
    0.96827E+06         0.14705E+07         0.00000E+00
    0.14705E+07        -0.19373E+07         0.00000E+00
    0.00000E+00         0.00000E+00         0.00000E+00
 
    0.92953E+06         0.15158E+07         0.00000E+00
    0.15158E+07        -0.19206E+07         0.00000E+00
    0.00000E+00         0.00000E+00         0.00000E+00
 
    0.89033E+06         0.15604E+07         0.00000E+00
    0.15604E+07        -0.19034E+07         0.00000E+00
    0.00000E+00         0.00000E+00         0.00000E+00
 
    0.85070E+06         0.16045E+07         0.00000E+00
    0.16045E+07        -0.18859E+07         0.00000E+00
    0.00000E+00         0.00000E+00         0.00000E+00
 
    0.81064E+06         0.16479E+07         0.00000E+00
    0.16479E+07        -0.18680E+07         0.00000E+00
    0.00000E+00         0.00000E+00         0.00000E+00
 
    0.77016E+06         0.16908E+07         0.00000E+00
    0.16908E+07        -0.18497E+07         0.00000E+00
    0.00000E+00         0.00000E+00         0.00000E+00
 
    0.72926E+06         0.17331E+07         0.00000E+00
    0.17331E+07        -0.18311E+07         0.00000E+00
    0.00000E+00         0.00000E+00         0.00000E+00
 
    0.68796E+06         0.17748E+07         0.00000E+00
    0.17748E+07        -0.18121E+07         0.00000E+00
    0.00000E+00         0.00000E+00         0.00000E+00
 
    0.64625E+06         0.18159E+07         0.00000E+00
    0.18159E+07        -0.17928E+07         0.00000E+00
    0.00000E+00         0.00000E+00         0.00000E+00
 
    0.60416E+06         0.18564E+07         0.00000E+00
    0.18564E+07        -0.17732E+07         0.00000E+00
    0.00000E+00         0.00000E+00         0.00000E+00
 
    0.56168E+06         0.18964E+07         0.00000E+00
    0.18964E+07        -0.17532E+07         0.00000E+00
    0.00000E+00         0.00000E+00         0.00000E+00
 
    0.51882E+06         0.19357E+07         0.00000E+00
    0.19357E+07        -0.17329E+07         0.00000E+00
    0.00000E+00         0.00000E+00         0.00000E+00
 
    0.47558E+06         0.19745E+07         0.00000E+00
    0.19745E+07        -0.17123E+07         0.00000E+00
    0.00000E+00         0.00000E+00         0.00000E+00
 
    0.43197E+06         0.20127E+07         0.00000E+00
    0.20127E+07        -0.16914E+07         0.00000E+00
    0.00000E+00         0.00000E+00         0.00000E+00
 
    0.38800E+06         0.20503E+07         0.00000E+00
    0.20503E+07        -0.16702E+07         0.00000E+00
    0.00000E+00         0.00000E+00         0.00000E+00
 
    0.34367E+06         0.20874E+07         0.00000E+00
    0.20874E+07        -0.16487E+07         0.00000E+00
    0.00000E+00         0.00000E+00         0.00000E+00
 
    0.29898E+06         0.21238E+07         0.00000E+00
    0.21238E+07        -0.16270E+07         0.00000E+00
    0.00000E+00         0.00000E+00         0.00000E+00
 
    0.25393E+06         0.21597E+07         0.00000E+00
    0.21597E+07        -0.16049E+07         0.00000E+00
    0.00000E+00         0.00000E+00         0.00000E+00
 
    0.20853E+06         0.21950E+07         0.00000E+00
    0.21950E+07        -0.15826E+07         0.00000E+00
    0.00000E+00         0.00000E+00         0.00000E+00
 
    0.16279E+06         0.22297E+07         0.00000E+00
    0.22297E+07        -0.15600E+07         0.00000E+00
    0.00000E+00         0.00000E+00         0.00000E+00
 
    0.11669E+06         0.22638E+07         0.00000E+00
    0.22638E+07        -0.15372E+07         0.00000E+00
    0.00000E+00         0.00000E+00         0.00000E+00
 
    0.70256E+05         0.22974E+07         0.00000E+00
    0.22974E+07        -0.15141E+07         0.00000E+00
    0.00000E+00         0.00000E+00         0.00000E+00
 
    0.23476E+05         0.23303E+07         0.00000E+00
    0.23303E+07        -0.14908E+07         0.00000E+00
    0.00000E+00         0.00000E+00         0.00000E+00
 
    0.19336E+07         0.32591E+05         0.00000E+00
    0.32591E+05        -0.23634E+07         0.00000E+00
    0.00000E+00         0.00000E+00         0.00000E+00
 
    0.19101E+07         0.96330E+05         0.00000E+00
    0.96330E+05        -0.23625E+07         0.00000E+00
    0.00000E+00         0.00000E+00         0.00000E+00
 
    0.18857E+07         0.15953E+06         0.00000E+00
    0.15953E+06        -0.23607E+07         0.00000E+00
    0.00000E+00         0.00000E+00         0.00000E+00
 
    0.18604E+07         0.22218E+06         0.00000E+00
    0.22218E+06        -0.23581E+07         0.00000E+00
    0.00000E+00         0.00000E+00         0.00000E+00
 
    0.18341E+07         0.28426E+06         0.00000E+00
    0.28426E+06        -0.23547E+07         0.00000E+00
    0.00000E+00         0.00000E+00         0.00000E+00
 
    0.18070E+07         0.34578E+06         0.00000E+00
    0.34578E+06        -0.23506E+07         0.00000E+00
    0.00000E+00         0.00000E+00         0.00000E+00
 
    0.17790E+07         0.40671E+06         0.00000E+00
    0.40671E+06        -0.23456E+07         0.00000E+00
    0.00000E+00         0.00000E+00         0.00000E+00
 
    0.17502E+07         0.46707E+06         0.00000E+00
    0.46707E+06        -0.23399E+07         0.00000E+00
    0.00000E+00         0.00000E+00         0.00000E+00
 
    0.17206E+07         0.52682E+06         0.00000E+00
    0.52682E+06        -0.23334E+07         0.00000E+00
    0.00000E+00         0.00000E+00         0.00000E+00
 
    0.16902E+07         0.58599E+06         0.00000E+00
    0.58599E+06        -0.23262E+07         0.00000E+00
    0.00000E+00         0.00000E+00         0.00000E+00
 
    0.16590E+07         0.64454E+06         0.00000E+00
    0.64454E+06        -0.23184E+07         0.00000E+00
    0.00000E+00         0.00000E+00         0.00000E+00
 
    0.16271E+07         0.70249E+06         0.00000E+00
    0.70249E+06        -0.23098E+07         0.00000E+00
    0.00000E+00         0.00000E+00         0.00000E+00
 
    0.15945E+07         0.75983E+06         0.00000E+00
    0.75983E+06        -0.23006E+07         0.00000E+00
    0.00000E+00         0.00000E+00         0.00000E+00
 
    0.15612E+07         0.81656E+06         0.00000E+00
    0.81656E+06        -0.22908E+07         0.00000E+00
    0.00000E+00         0.00000E+00         0.00000E+00
 
    0.15273E+07         0.87267E+06         0.00000E+00
    0.87267E+06        -0.22803E+07         0.00000E+00
    0.00000E+00         0.00000E+00         0.00000E+00
 
    0.14926E+07         0.92816E+06         0.00000E+00
    0.92816E+06        -0.22692E+07         0.00000E+00
    0.00000E+00         0.00000E+00         0.00000E+00
 
    0.14574E+07         0.98303E+06         0.00000E+00
    0.98303E+06        -0.22575E+07         0.00000E+00
    0.00000E+00         0.00000E+00         0.00000E+00
 
    0.14215E+07         0.10373E+07         0.00000E+00
    0.10373E+07        -0.22453E+07         0.00000E+00
    0.00000E+00         0.00000E+00         0.00000E+00
 
    0.13850E+07         0.10909E+07         0.00000E+00
    0.10909E+07        -0.22324E+07         0.00000E+00
    0.00000E+00         0.00000E+00         0.00000E+00
 
    0.13480E+07         0.11439E+07         0.00000E+00
    0.11439E+07        -0.22191E+07         0.00000E+00
    0.00000E+00         0.00000E+00         0.00000E+00
 
    0.13104E+07         0.11963E+07         0.00000E+00
    0.11963E+07        -0.22052E+07         0.00000E+00
    0.00000E+00         0.00000E+00         0.00000E+00
 
    0.12722E+07         0.12480E+07         0.00000E+00
    0.12480E+07        -0.21908E+07         0.00000E+00
    0.00000E+00         0.00000E+00         0.00000E+00
 
    0.12336E+07         0.12992E+07         0.00000E+00
    0.12992E+07        -0.21759E+07         0.00000E+00
    0.00000E+00         0.00000E+00         0.00000E+00
 
    0.11943E+07         0.13497E+07         0.00000E+00
    0.13497E+07        -0.21605E+07         0.00000E+00
    0.00000E+00         0.00000E+00         0.00000E+00
 
    0.11546E+07         0.13996E+07         0.00000E+00
    0.13996E+07        -0.21446E+07         0.00000E+00
    0.00000E+00         0.00000E+00         0.00000E+00
 
    0.11144E+07         0.14489E+07         0.00000E+00
    0.14489E+07        -0.21282E+07         0.00000E+00
    0.00000E+00         0.00000E+00         0.00000E+00
 
    0.10738E+07         0.14975E+07         0.00000E+00
    0.14975E+07        -0.21114E+07         0.00000E+00
    0.00000E+00         0.00000E+00         0.00000E+00
 
    0.10326E+07         0.15456E+07         0.00000E+00
    0.15456E+07        -0.20942E+07         0.00000E+00
    0.00000E+00         0.00000E+00         0.00000E+00
 
    0.99100E+06         0.15930E+07         0.00000E+00
    0.15930E+07        -0.20765E+07         0.00000E+00
    0.00000E+00         0.00000E+00         0.00000E+00
 
    0.94895E+06         0.16398E+07         0.00000E+00
    0.16398E+07        -0.20584E+07         0.00000E+00
    0.00000E+00         0.00000E+00         0.00000E+00
 
    0.90646E+06         0.16861E+07         0.00000E+00
    0.16861E+07        -0.20399E+07         0.00000E+00
    0.00000E+00         0.00000E+00         0.00000E+00
 
    0.86355E+06         0.17317E+07         0.00000E+00
    0.17317E+07        -0.20210E+07         0.00000E+00
    0.00000E+00         0.00000E+00         0.00000E+00
 
    0.82021E+06         0.17767E+07         0.00000E+00
    0.17767E+07        -0.20017E+07         0.00000E+00
    0.00000E+00         0.00000E+00         0.00000E+00
 
    0.77647E+06         0.18211E+07         0.00000E+00
    0.18211E+07        -0.19821E+07         0.00000E+00
    0.00000E+00         0.00000E+00         0.00000E+00
 
    0.73231E+06         0.18649E+07         0.00000E+00
    0.18649E+07        -0.19620E+07         0.00000E+00
    0.00000E+00         0.00000E+00         0.00000E+00
 
    0.68777E+06         0.19081E+07         0.00000E+00
    0.19081E+07        -0.19416E+07         0.00000E+00
    0.00000E+00         0.00000E+00         0.00000E+00
 
    0.64283E+06         0.19506E+07         0.00000E+00
    0.19506E+07        -0.19209E+07         0.00000E+00
    0.00000E+00         0.00000E+00         0.00000E+00
 
    0.59750E+06         0.19927E+07         0.00000E+00
    0.19927E+07        -0.18998E+07         0.00000E+00
    0.00000E+00         0.00000E+00         0.00000E+00
 
    0.55179E+06         0.20341E+07         0.00000E+00
    0.20341E+07        -0.18783E+07         0.00000E+00
    0.00000E+00         0.00000E+00         0.00000E+00
 
    0.50571E+06         0.20749E+07         0.00000E+00
    0.20749E+07        -0.18566E+07         0.00000E+00
    0.00000E+00         0.00000E+00         0.00000E+00
 
    0.45926E+06         0.21151E+07         0.00000E+00
    0.21151E+07        -0.18345E+07         0.00000E+00
    0.00000E+00         0.00000E+00         0.00000E+00
 
    0.41244E+06         0.21547E+07         0.00000E+00
    0.21547E+07        -0.18121E+07         0.00000E+00
    0.00000E+00         0.00000E+00         0.00000E+00
 
    0.36525E+06         0.21938E+07         0.00000E+00
    0.21938E+07        -0.17893E+07         0.00000E+00
    0.00000E+00         0.00000E+00         0.00000E+00
 
    0.31771E+06         0.22323E+07         0.00000E+00
    0.22323E+07        -0.17663E+07         0.00000E+00
    0.00000E+00         0.00000E+00         0.00000E+00
 
    0.26980E+06         0.22701E+07         0.00000E+00
    0.22701E+07        -0.17430E+07         0.00000E+00
    0.00000E+00         0.00000E+00         0.00000E+00
 
    0.22153E+06         0.23074E+07         0.00000E+00
    0.23074E+07        -0.17193E+07         0.00000E+00
    0.00000E+00         0.00000E+00         0.00000E+00
 
    0.17291E+06         0.23441E+07         0.00000E+00
    0.23441E+07        -0.16954E+07         0.00000E+00
    0.00000E+00         0.00000E+00         0.00000E+00
 
    0.12394E+06         0.23803E+07         0.00000E+00
    0.23803E+07        -0.16712E+07         0.00000E+00
    0.00000E+00         0.00000E+00         0.00000E+00
 
    0.74611E+05         0.24158E+07         0.00000E+00
    0.24158E+07        -0.16468E+07         0.00000E+00
    0.00000E+00         0.00000E+00         0.00000E+00
 
    0.24929E+05         0.24508E+07         0.00000E+00
    0.24508E+07        -0.16220E+07         0.00000E+00
    0.00000E+00         0.00000E+00         0.00000E+00
 
    0.20801E+07         0.34493E+05         0.00000E+00
    0.34493E+05        -0.25459E+07         0.00000E+00
    0.00000E+00         0.00000E+00         0.00000E+00
 
    0.20538E+07         0.10183E+06         0.00000E+00
    0.10183E+06        -0.25449E+07         0.00000E+00
    0.00000E+00         0.00000E+00         0.00000E+00
 
    0.20265E+07         0.16854E+06         0.00000E+00
    0.16854E+06        -0.25431E+07         0.00000E+00
    0.00000E+00         0.00000E+00         0.00000E+00
 
    0.19983E+07         0.23464E+06         0.00000E+00
    0.23464E+06        -0.25403E+07         0.00000E+00
    0.00000E+00         0.00000E+00         0.00000E+00
 
    0.19691E+07         0.30010E+06         0.00000E+00
    0.30010E+06        -0.25367E+07         0.00000E+00
    0.00000E+00         0.00000E+00         0.00000E+00
 
    0.19390E+07         0.36492E+06         0.00000E+00
    0.36492E+06        -0.25323E+07         0.00000E+00
    0.00000E+00         0.00000E+00         0.00000E+00
 
    0.19080E+07         0.42910E+06         0.00000E+00
    0.42910E+06        -0.25270E+07         0.00000E+00
    0.00000E+00         0.00000E+00         0.00000E+00
 
    0.18762E+07         0.49263E+06         0.00000E+00
    0.49263E+06        -0.25209E+07         0.00000E+00
    0.00000E+00         0.00000E+00         0.00000E+00
 
    0.18435E+07         0.55550E+06         0.00000E+00
    0.55550E+06        -0.25141E+07         0.00000E+00
    0.00000E+00         0.00000E+00         0.00000E+00
 
    0.18101E+07         0.61771E+06         0.00000E+00
    0.61771E+06        -0.25065E+07         0.00000E+00
    0.00000E+00         0.00000E+00         0.00000E+00
 
    0.17759E+07         0.67926E+06         0.00000E+00
    0.67926E+06        -0.24982E+07         0.00000E+00
    0.00000E+00         0.00000E+00         0.00000E+00
 
    0.17409E+07         0.74015E+06         0.00000E+00
    0.74015E+06        -0.24892E+07         0.00000E+00
    0.00000E+00         0.00000E+00         0.00000E+00
 
    0.17052E+07         0.80038E+06         0.00000E+00
    0.80038E+06        -0.24795E+07         0.00000E+00
    0.00000E+00         0.00000E+00         0.00000E+00
 
    0.16689E+07         0.85993E+06         0.00000E+00
    0.85993E+06        -0.24691E+07         0.00000E+00
    0.00000E+00         0.00000E+00         0.00000E+00
 
    0.16318E+07         0.91883E+06         0.00000E+00
    0.91883E+06        -0.24580E+07         0.00000E+00
    0.00000E+00         0.00000E+00         0.00000E+00
 
    0.15942E+07         0.97705E+06         0.00000E+00
    0.97705E+06        -0.24463E+07         0.00000E+00
    0.00000E+00         0.00000E+00         0.00000E+00
 
    0.15558E+07         0.10346E+07         0.00000E+00
    0.10346E+07        -0.24340E+07         0.00000E+00
    0.00000E+00         0.00000E+00         0.00000E+00
 
    0.15169E+07         0.10915E+07         0.00000E+00
    0.10915E+07        -0.24211E+07         0.00000E+00
    0.00000E+00         0.00000E+00         0.00000E+00
 
    0.14774E+07         0.11477E+07         0.00000E+00
    0.11477E+07        -0.24077E+07         0.00000E+00
    0.00000E+00         0.00000E+00         0.00000E+00
 
    0.14373E+07         0.12033E+07         0.00000E+00
    0.12033E+07        -0.23936E+07         0.00000E+00
    0.00000E+00         0.00000E+00         0.00000E+00
 
    0.13966E+07         0.12582E+07         0.00000E+00
    0.12582E+07        -0.23790E+07         0.00000E+00
    0.00000E+00         0.00000E+00         0.00000E+00
 
    0.13554E+07         0.13125E+07         0.00000E+00
    0.13125E+07        -0.23638E+07         0.00000E+00
    0.00000E+00         0.00000E+00         0.00000E+00
 
    0.13137E+07         0.13661E+07         0.00000E+00
    0.13661E+07        -0.23482E+07         0.00000E+00
    0.00000E+00         0.00000E+00         0.00000E+00
 
    0.12715E+07         0.14190E+07         0.00000E+00
    0.14190E+07        -0.23320E+07         0.00000E+00
    0.00000E+00         0.00000E+00         0.00000E+00
 
    0.12288E+07         0.14713E+07         0.00000E+00
    0.14713E+07        -0.23153E+07         0.00000E+00
    0.00000E+00         0.00000E+00         0.00000E+00
 
    0.11856E+07         0.15230E+07         0.00000E+00
    0.15230E+07        -0.22981E+07         0.00000E+00
    0.00000E+00         0.00000E+00         0.00000E+00
 
    0.11419E+07         0.15740E+07         0.00000E+00
    0.15740E+07        -0.22805E+07         0.00000E+00
    0.00000E+00         0.00000E+00         0.00000E+00
 
    0.10978E+07         0.16244E+07         0.00000E+00
    0.16244E+07        -0.22624E+07         0.00000E+00
    0.00000E+00         0.00000E+00         0.00000E+00
 
    0.10532E+07         0.16742E+07         0.00000E+00
    0.16742E+07        -0.22438E+07         0.00000E+00
    0.00000E+00         0.00000E+00         0.00000E+00
 
    0.10082E+07         0.17233E+07         0.00000E+00
    0.17233E+07        -0.22248E+07         0.00000E+00
    0.00000E+00         0.00000E+00         0.00000E+00
 
    0.96281E+06         0.17718E+07         0.00000E+00
    0.17718E+07        -0.22054E+07         0.00000E+00
    0.00000E+00         0.00000E+00         0.00000E+00
 
    0.91696E+06         0.18197E+07         0.00000E+00
    0.18197E+07        -0.21856E+07         0.00000E+00
    0.00000E+00         0.00000E+00         0.00000E+00
 
    0.87070E+06         0.18669E+07         0.00000E+00
    0.18669E+07        -0.21653E+07         0.00000E+00
    0.00000E+00         0.00000E+00         0.00000E+00
 
    0.82404E+06         0.19135E+07         0.00000E+00
    0.19135E+07        -0.21447E+07         0.00000E+00
    0.00000E+00         0.00000E+00         0.00000E+00
 
    0.77698E+06         0.19596E+07         0.00000E+00
    0.19596E+07        -0.21236E+07         0.00000E+00
    0.00000E+00         0.00000E+00         0.00000E+00
 
    0.72954E+06         0.20050E+07         0.00000E+00
    0.20050E+07        -0.21022E+07         0.00000E+00
    0.00000E+00         0.00000E+00         0.00000E+00
 
    0.68171E+06         0.20498E+07         0.00000E+00
    0.20498E+07        -0.20804E+07         0.00000E+00
    0.00000E+00         0.00000E+00         0.00000E+00
 
    0.63350E+06         0.20940E+07         0.00000E+00
    0.20940E+07        -0.20582E+07         0.00000E+00
    0.00000E+00         0.00000E+00         0.00000E+00
 
    0.58491E+06         0.21376E+07         0.00000E+00
    0.21376E+07        -0.20356E+07         0.00000E+00
    0.00000E+00         0.00000E+00         0.00000E+00
 
    0.53595E+06         0.21806E+07         0.00000E+00
    0.21806E+07        -0.20127E+07         0.00000E+00
    0.00000E+00         0.00000E+00         0.00000E+00
 
    0.48663E+06         0.22230E+07         0.00000E+00
    0.22230E+07        -0.19895E+07         0.00000E+00
    0.00000E+00         0.00000E+00         0.00000E+00
 
    0.43693E+06         0.22649E+07         0.00000E+00
    0.22649E+07        -0.19659E+07         0.00000E+00
    0.00000E+00         0.00000E+00         0.00000E+00
 
    0.38688E+06         0.23061E+07         0.00000E+00
    0.23061E+07        -0.19419E+07         0.00000E+00
    0.00000E+00         0.00000E+00         0.00000E+00
 
    0.33646E+06         0.23468E+07         0.00000E+00
    0.23468E+07        -0.19177E+07         0.00000E+00
    0.00000E+00         0.00000E+00         0.00000E+00
 
    0.28568E+06         0.23868E+07         0.00000E+00
    0.23868E+07        -0.18931E+07         0.00000E+00
    0.00000E+00         0.00000E+00         0.00000E+00
 
    0.23454E+06         0.24263E+07         0.00000E+00
    0.24263E+07        -0.18682E+07         0.00000E+00
    0.00000E+00         0.00000E+00         0.00000E+00
 
    0.18304E+06         0.24652E+07         0.00000E+00
    0.24652E+07        -0.18429E+07         0.00000E+00
    0.00000E+00         0.00000E+00         0.00000E+00
 
    0.13118E+06         0.25035E+07         0.00000E+00
    0.25035E+07        -0.18174E+07         0.00000E+00
    0.00000E+00         0.00000E+00         0.00000E+00
 
    0.78964E+05         0.25413E+07         0.00000E+00
    0.25413E+07        -0.17915E+07         0.00000E+00
    0.00000E+00         0.00000E+00         0.00000E+00
 
    0.26382E+05         0.25784E+07         0.00000E+00
    0.25784E+07        -0.17653E+07         0.00000E+00
    0.00000E+00         0.00000E+00         0.00000E+00
 
    0.22337E+07         0.36508E+05         0.00000E+00
    0.36508E+05        -0.27400E+07         0.00000E+00
    0.00000E+00         0.00000E+00         0.00000E+00
 
    0.22042E+07         0.10763E+06         0.00000E+00
    0.10763E+06        -0.27390E+07         0.00000E+00
    0.00000E+00         0.00000E+00         0.00000E+00
 
    0.21736E+07         0.17805E+06         0.00000E+00
    0.17805E+06        -0.27370E+07         0.00000E+00
    0.00000E+00         0.00000E+00         0.00000E+00
 
    0.21421E+07         0.24776E+06         0.00000E+00
    0.24776E+06        -0.27341E+07         0.00000E+00
    0.00000E+00         0.00000E+00         0.00000E+00
 
    0.21095E+07         0.31677E+06         0.00000E+00
    0.31677E+06        -0.27303E+07         0.00000E+00
    0.00000E+00         0.00000E+00         0.00000E+00
 
    0.20761E+07         0.38505E+06         0.00000E+00
    0.38505E+06        -0.27256E+07         0.00000E+00
    0.00000E+00         0.00000E+00         0.00000E+00
 
    0.20418E+07         0.45262E+06         0.00000E+00
    0.45262E+06        -0.27201E+07         0.00000E+00
    0.00000E+00         0.00000E+00         0.00000E+00
 
    0.20066E+07         0.51946E+06         0.00000E+00
    0.51946E+06        -0.27137E+07         0.00000E+00
    0.00000E+00         0.00000E+00         0.00000E+00
 
    0.19706E+07         0.58557E+06         0.00000E+00
    0.58557E+06        -0.27065E+07         0.00000E+00
    0.00000E+00         0.00000E+00         0.00000E+00
 
    0.19338E+07         0.65097E+06         0.00000E+00
    0.65097E+06        -0.26985E+07         0.00000E+00
    0.00000E+00         0.00000E+00         0.00000E+00
 
    0.18963E+07         0.71563E+06         0.00000E+00
    0.71563E+06        -0.26898E+07         0.00000E+00
    0.00000E+00         0.00000E+00         0.00000E+00
 
    0.18580E+07         0.77958E+06         0.00000E+00
    0.77958E+06        -0.26803E+07         0.00000E+00
    0.00000E+00         0.00000E+00         0.00000E+00
 
    0.18190E+07         0.84280E+06         0.00000E+00
    0.84280E+06        -0.26701E+07         0.00000E+00
    0.00000E+00         0.00000E+00         0.00000E+00
 
    0.17793E+07         0.90530E+06         0.00000E+00
    0.90530E+06        -0.26593E+07         0.00000E+00
    0.00000E+00         0.00000E+00         0.00000E+00
 
    0.17389E+07         0.96708E+06         0.00000E+00
    0.96708E+06        -0.26477E+07         0.00000E+00
    0.00000E+00         0.00000E+00         0.00000E+00
 
    0.16979E+07         0.10281E+07         0.00000E+00
    0.10281E+07        -0.26355E+07         0.00000E+00
    0.00000E+00         0.00000E+00         0.00000E+00
 
    0.16563E+07         0.10885E+07         0.00000E+00
    0.10885E+07        -0.26226E+07         0.00000E+00
    0.00000E+00         0.00000E+00         0.00000E+00
 
    0.16141E+07         0.11481E+07         0.00000E+00
    0.11481E+07        -0.26091E+07         0.00000E+00
    0.00000E+00         0.00000E+00         0.00000E+00
 
    0.15714E+07         0.12071E+07         0.00000E+00
    0.12071E+07        -0.25950E+07         0.00000E+00
    0.00000E+00         0.00000E+00         0.00000E+00
 
    0.15280E+07         0.12653E+07         0.00000E+00
    0.12653E+07        -0.25803E+07         0.00000E+00
    0.00000E+00         0.00000E+00         0.00000E+00
 
    0.14842E+07         0.13229E+07         0.00000E+00
    0.13229E+07        -0.25650E+07         0.00000E+00
    0.00000E+00         0.00000E+00         0.00000E+00
 
    0.14398E+07         0.13797E+07         0.00000E+00
    0.13797E+07        -0.25492E+07         0.00000E+00
    0.00000E+00         0.00000E+00         0.00000E+00
 
    0.13949E+07         0.14359E+07         0.00000E+00
    0.14359E+07        -0.25329E+07         0.00000E+00
    0.00000E+00         0.00000E+00         0.00000E+00
 
    0.13495E+07         0.14914E+07         0.00000E+00
    0.14914E+07        -0.25160E+07         0.00000E+00
    0.00000E+00         0.00000E+00         0.00000E+00
 
    0.13037E+07         0.15462E+07         0.00000E+00
    0.15462E+07        -0.24985E+07         0.00000E+00
    0.00000E+00         0.00000E+00         0.00000E+00
 
    0.12574E+07         0.16004E+07         0.00000E+00
    0.16004E+07        -0.24806E+07         0.00000E+00
    0.00000E+00         0.00000E+00         0.00000E+00
 
    0.12106E+07         0.16539E+07         0.00000E+00
    0.16539E+07        -0.24622E+07         0.00000E+00
    0.00000E+00         0.00000E+00         0.00000E+00
 
    0.11634E+07         0.17067E+07         0.00000E+00
    0.17067E+07        -0.24433E+07         0.00000E+00
    0.00000E+00         0.00000E+00         0.00000E+00
 
    0.11158E+07         0.17589E+07         0.00000E+00
    0.17589E+07        -0.24240E+07         0.00000E+00
    0.00000E+00         0.00000E+00         0.00000E+00
 
    0.10677E+07         0.18104E+07         0.00000E+00
    0.18104E+07        -0.24041E+07         0.00000E+00
    0.00000E+00         0.00000E+00         0.00000E+00
 
    0.10193E+07         0.18613E+07         0.00000E+00
    0.18613E+07        -0.23839E+07         0.00000E+00
    0.00000E+00         0.00000E+00         0.00000E+00
 
    0.97046E+06         0.19116E+07         0.00000E+00
    0.19116E+07        -0.23631E+07         0.00000E+00
    0.00000E+00         0.00000E+00         0.00000E+00
 
    0.92122E+06         0.19612E+07         0.00000E+00
    0.19612E+07        -0.23420E+07         0.00000E+00
    0.00000E+00         0.00000E+00         0.00000E+00
 
    0.87160E+06         0.20102E+07         0.00000E+00
    0.20102E+07        -0.23204E+07         0.00000E+00
    0.00000E+00         0.00000E+00         0.00000E+00
 
    0.82160E+06         0.20586E+07         0.00000E+00
    0.20586E+07        -0.22984E+07         0.00000E+00
    0.00000E+00         0.00000E+00         0.00000E+00
 
    0.77122E+06         0.21064E+07         0.00000E+00
    0.21064E+07        -0.22760E+07         0.00000E+00
    0.00000E+00         0.00000E+00         0.00000E+00
 
    0.72048E+06         0.21536E+07         0.00000E+00
    0.21536E+07        -0.22532E+07         0.00000E+00
    0.00000E+00         0.00000E+00         0.00000E+00
 
    0.66936E+06         0.22002E+07         0.00000E+00
    0.22002E+07        -0.22300E+07         0.00000E+00
    0.00000E+00         0.00000E+00         0.00000E+00
 
    0.61788E+06         0.22461E+07         0.00000E+00
    0.22461E+07        -0.22065E+07         0.00000E+00
    0.00000E+00         0.00000E+00         0.00000E+00
 
    0.56604E+06         0.22915E+07         0.00000E+00
    0.22915E+07        -0.21825E+07         0.00000E+00
    0.00000E+00         0.00000E+00         0.00000E+00
 
    0.51384E+06         0.23363E+07         0.00000E+00
    0.23363E+07        -0.21581E+07         0.00000E+00
    0.00000E+00         0.00000E+00         0.00000E+00
 
    0.46128E+06         0.23805E+07         0.00000E+00
    0.23805E+07        -0.21334E+07         0.00000E+00
    0.00000E+00         0.00000E+00         0.00000E+00
 
    0.40836E+06         0.24241E+07         0.00000E+00
    0.24241E+07        -0.21083E+07         0.00000E+00
    0.00000E+00         0.00000E+00         0.00000E+00
 
    0.35508E+06         0.24671E+07         0.00000E+00
    0.24671E+07        -0.20829E+07         0.00000E+00
    0.00000E+00         0.00000E+00         0.00000E+00
 
    0.30144E+06         0.25096E+07         0.00000E+00
    0.25096E+07        -0.20570E+07         0.00000E+00
    0.00000E+00         0.00000E+00         0.00000E+00
 
    0.24745E+06         0.25514E+07         0.00000E+00
    0.25514E+07        -0.20309E+07         0.00000E+00
    0.00000E+00         0.00000E+00         0.00000E+00
 
    0.19309E+06         0.25927E+07         0.00000E+00
    0.25927E+07        -0.20043E+07         0.00000E+00
    0.00000E+00         0.00000E+00         0.00000E+00
 
    0.13837E+06         0.26334E+07         0.00000E+00
    0.26334E+07        -0.19775E+07         0.00000E+00
    0.00000E+00         0.00000E+00         0.00000E+00
 
    0.83277E+05         0.26736E+07         0.00000E+00
    0.26736E+07        -0.19502E+07         0.00000E+00
    0.00000E+00         0.00000E+00         0.00000E+00
 
    0.27821E+05         0.27132E+07         0.00000E+00
    0.27132E+07        -0.19227E+07         0.00000E+00
    0.00000E+00         0.00000E+00         0.00000E+00
 
    0.23942E+07         0.38629E+05         0.00000E+00
    0.38629E+05        -0.29469E+07         0.00000E+00
    0.00000E+00         0.00000E+00         0.00000E+00
 
    0.23610E+07         0.11371E+06         0.00000E+00
    0.11371E+06        -0.29458E+07         0.00000E+00
    0.00000E+00         0.00000E+00         0.00000E+00
 
    0.23267E+07         0.18800E+06         0.00000E+00
    0.18800E+06        -0.29437E+07         0.00000E+00
    0.00000E+00         0.00000E+00         0.00000E+00
 
    0.22914E+07         0.26149E+06         0.00000E+00
    0.26149E+06        -0.29407E+07         0.00000E+00
    0.00000E+00         0.00000E+00         0.00000E+00
 
    0.22552E+07         0.33417E+06         0.00000E+00
    0.33417E+06        -0.29367E+07         0.00000E+00
    0.00000E+00         0.00000E+00         0.00000E+00
 
    0.22180E+07         0.40605E+06         0.00000E+00
    0.40605E+06        -0.29318E+07         0.00000E+00
    0.00000E+00         0.00000E+00         0.00000E+00
 
    0.21800E+07         0.47713E+06         0.00000E+00
    0.47713E+06        -0.29260E+07         0.00000E+00
    0.00000E+00         0.00000E+00         0.00000E+00
 
    0.21411E+07         0.54740E+06         0.00000E+00
    0.54740E+06        -0.29193E+07         0.00000E+00
    0.00000E+00         0.00000E+00         0.00000E+00
 
    0.21014E+07         0.61688E+06         0.00000E+00
    0.61688E+06        -0.29118E+07         0.00000E+00
    0.00000E+00         0.00000E+00         0.00000E+00
 
    0.20609E+07         0.68555E+06         0.00000E+00
    0.68555E+06        -0.29035E+07         0.00000E+00
    0.00000E+00         0.00000E+00         0.00000E+00
 
    0.20197E+07         0.75343E+06         0.00000E+00
    0.75343E+06        -0.28944E+07         0.00000E+00
    0.00000E+00         0.00000E+00         0.00000E+00
 
    0.19777E+07         0.82053E+06         0.00000E+00
    0.82053E+06        -0.28845E+07         0.00000E+00
    0.00000E+00         0.00000E+00         0.00000E+00
 
    0.19351E+07         0.88683E+06         0.00000E+00
    0.88683E+06        -0.28739E+07         0.00000E+00
    0.00000E+00         0.00000E+00         0.00000E+00
 
    0.18918E+07         0.95236E+06         0.00000E+00
    0.95236E+06        -0.28626E+07         0.00000E+00
    0.00000E+00         0.00000E+00         0.00000E+00
 
    0.18479E+07         0.10171E+07         0.00000E+00
    0.10171E+07        -0.28506E+07         0.00000E+00
    0.00000E+00         0.00000E+00         0.00000E+00
 
    0.18033E+07         0.10811E+07         0.00000E+00
    0.10811E+07        -0.28379E+07         0.00000E+00
    0.00000E+00         0.00000E+00         0.00000E+00
 
    0.17582E+07         0.11443E+07         0.00000E+00
    0.11443E+07        -0.28245E+07         0.00000E+00
    0.00000E+00         0.00000E+00         0.00000E+00
 
    0.17125E+07         0.12068E+07         0.00000E+00
    0.12068E+07        -0.28105E+07         0.00000E+00
    0.00000E+00         0.00000E+00         0.00000E+00
 
    0.16663E+07         0.12685E+07         0.00000E+00
    0.12685E+07        -0.27959E+07         0.00000E+00
    0.00000E+00         0.00000E+00         0.00000E+00
 
    0.16195E+07         0.13295E+07         0.00000E+00
    0.13295E+07        -0.27806E+07         0.00000E+00
    0.00000E+00         0.00000E+00         0.00000E+00
 
    0.15723E+07         0.13898E+07         0.00000E+00
    0.13898E+07        -0.27648E+07         0.00000E+00
    0.00000E+00         0.00000E+00         0.00000E+00
 
    0.15245E+07         0.14494E+07         0.00000E+00
    0.14494E+07        -0.27484E+07         0.00000E+00
    0.00000E+00         0.00000E+00         0.00000E+00
 
    0.14763E+07         0.15082E+07         0.00000E+00
    0.15082E+07        -0.27314E+07         0.00000E+00
    0.00000E+00         0.00000E+00         0.00000E+00
 
    0.14277E+07         0.15663E+07         0.00000E+00
    0.15663E+07        -0.27139E+07         0.00000E+00
    0.00000E+00         0.00000E+00         0.00000E+00
 
    0.13786E+07         0.16238E+07         0.00000E+00
    0.16238E+07        -0.26959E+07         0.00000E+00
    0.00000E+00         0.00000E+00         0.00000E+00
 
    0.13291E+07         0.16805E+07         0.00000E+00
    0.16805E+07        -0.26773E+07         0.00000E+00
    0.00000E+00         0.00000E+00         0.00000E+00
 
    0.12791E+07         0.17366E+07         0.00000E+00
    0.17366E+07        -0.26582E+07         0.00000E+00
    0.00000E+00         0.00000E+00         0.00000E+00
 
    0.12288E+07         0.17920E+07         0.00000E+00
    0.17920E+07        -0.26387E+07         0.00000E+00
    0.00000E+00         0.00000E+00         0.00000E+00
 
    0.11780E+07         0.18467E+07         0.00000E+00
    0.18467E+07        -0.26186E+07         0.00000E+00
    0.00000E+00         0.00000E+00         0.00000E+00
 
    0.11269E+07         0.19008E+07         0.00000E+00
    0.19008E+07        -0.25981E+07         0.00000E+00
    0.00000E+00         0.00000E+00         0.00000E+00
 
    0.10754E+07         0.19542E+07         0.00000E+00
    0.19542E+07        -0.25770E+07         0.00000E+00
    0.00000E+00         0.00000E+00         0.00000E+00
 
    0.10235E+07         0.20070E+07         0.00000E+00
    0.20070E+07        -0.25556E+07         0.00000E+00
    0.00000E+00         0.00000E+00         0.00000E+00
 
    0.97127E+06         0.20592E+07         0.00000E+00
    0.20592E+07        -0.25336E+07         0.00000E+00
    0.00000E+00         0.00000E+00         0.00000E+00
 
    0.91866E+06         0.21107E+07         0.00000E+00
    0.21107E+07        -0.25112E+07         0.00000E+00
    0.00000E+00         0.00000E+00         0.00000E+00
 
    0.86570E+06         0.21616E+07         0.00000E+00
    0.21616E+07        -0.24884E+07         0.00000E+00
    0.00000E+00         0.00000E+00         0.00000E+00
 
    0.81239E+06         0.22119E+07         0.00000E+00
    0.22119E+07        -0.24651E+07         0.00000E+00
    0.00000E+00         0.00000E+00         0.00000E+00
 
    0.75873E+06         0.22616E+07         0.00000E+00
    0.22616E+07        -0.24414E+07         0.00000E+00
    0.00000E+00         0.00000E+00         0.00000E+00
 
    0.70472E+06         0.23107E+07         0.00000E+00
    0.23107E+07        -0.24173E+07         0.00000E+00
    0.00000E+00         0.00000E+00         0.00000E+00
 
    0.65036E+06         0.23592E+07         0.00000E+00
    0.23592E+07        -0.23928E+07         0.00000E+00
    0.00000E+00         0.00000E+00         0.00000E+00
 
    0.59566E+06         0.24072E+07         0.00000E+00
    0.24072E+07        -0.23678E+07         0.00000E+00
    0.00000E+00         0.00000E+00         0.00000E+00
 
    0.54061E+06         0.24545E+07         0.00000E+00
    0.24545E+07        -0.23425E+07         0.00000E+00
    0.00000E+00         0.00000E+00         0.00000E+00
 
    0.48521E+06         0.25013E+07         0.00000E+00
    0.25013E+07        -0.23167E+07         0.00000E+00
    0.00000E+00         0.00000E+00         0.00000E+00
 
    0.42946E+06         0.25474E+07         0.00000E+00
    0.25474E+07        -0.22905E+07         0.00000E+00
    0.00000E+00         0.00000E+00         0.00000E+00
 
    0.37336E+06         0.25931E+07         0.00000E+00
    0.25931E+07        -0.22640E+07         0.00000E+00
    0.00000E+00         0.00000E+00         0.00000E+00
 
    0.31691E+06         0.26381E+07         0.00000E+00
    0.26381E+07        -0.22370E+07         0.00000E+00
    0.00000E+00         0.00000E+00         0.00000E+00
 
    0.26010E+06         0.26826E+07         0.00000E+00
    0.26826E+07        -0.22096E+07         0.00000E+00
    0.00000E+00         0.00000E+00         0.00000E+00
 
    0.20294E+06         0.27265E+07         0.00000E+00
    0.27265E+07        -0.21819E+07         0.00000E+00
    0.00000E+00         0.00000E+00         0.00000E+00
 
    0.14540E+06         0.27699E+07         0.00000E+00
    0.27699E+07        -0.21537E+07         0.00000E+00
    0.00000E+00         0.00000E+00         0.00000E+00
 
    0.87504E+05         0.28127E+07         0.00000E+00
    0.28127E+07        -0.21252E+07         0.00000E+00
    0.00000E+00         0.00000E+00         0.00000E+00
 
    0.29231E+05         0.28549E+07         0.00000E+00
    0.28549E+07        -0.20962E+07         0.00000E+00
    0.00000E+00         0.00000E+00         0.00000E+00
 
    0.25612E+07         0.40844E+05         0.00000E+00
    0.40844E+05        -0.31677E+07         0.00000E+00
    0.00000E+00         0.00000E+00         0.00000E+00
 
    0.25237E+07         0.12004E+06         0.00000E+00
    0.12004E+06        -0.31666E+07         0.00000E+00
    0.00000E+00         0.00000E+00         0.00000E+00
 
    0.24852E+07         0.19833E+06         0.00000E+00
    0.19833E+06        -0.31645E+07         0.00000E+00
    0.00000E+00         0.00000E+00         0.00000E+00
 
    0.24457E+07         0.27571E+06         0.00000E+00
    0.27571E+06        -0.31613E+07         0.00000E+00
    0.00000E+00         0.00000E+00         0.00000E+00
 
    0.24053E+07         0.35219E+06         0.00000E+00
    0.35219E+06        -0.31571E+07         0.00000E+00
    0.00000E+00         0.00000E+00         0.00000E+00
 
    0.23639E+07         0.42777E+06         0.00000E+00
    0.42777E+06        -0.31520E+07         0.00000E+00
    0.00000E+00         0.00000E+00         0.00000E+00
 
    0.23217E+07         0.50245E+06         0.00000E+00
    0.50245E+06        -0.31460E+07         0.00000E+00
    0.00000E+00         0.00000E+00         0.00000E+00
 
    0.22787E+07         0.57625E+06         0.00000E+00
    0.57625E+06        -0.31391E+07         0.00000E+00
    0.00000E+00         0.00000E+00         0.00000E+00
 
    0.22349E+07         0.64916E+06         0.00000E+00
    0.64916E+06        -0.31314E+07         0.00000E+00
    0.00000E+00         0.00000E+00         0.00000E+00
 
    0.21904E+07         0.72119E+06         0.00000E+00
    0.72119E+06        -0.31228E+07         0.00000E+00
    0.00000E+00         0.00000E+00         0.00000E+00
 
    0.21451E+07         0.79236E+06         0.00000E+00
    0.79236E+06        -0.31133E+07         0.00000E+00
    0.00000E+00         0.00000E+00         0.00000E+00
 
    0.20992E+07         0.86267E+06         0.00000E+00
    0.86267E+06        -0.31032E+07         0.00000E+00
    0.00000E+00         0.00000E+00         0.00000E+00
 
    0.20526E+07         0.93213E+06         0.00000E+00
    0.93213E+06        -0.30922E+07         0.00000E+00
    0.00000E+00         0.00000E+00         0.00000E+00
 
    0.20055E+07         0.10008E+07         0.00000E+00
    0.10008E+07        -0.30805E+07         0.00000E+00
    0.00000E+00         0.00000E+00         0.00000E+00
 
    0.19577E+07         0.10686E+07         0.00000E+00
    0.10686E+07        -0.30682E+07         0.00000E+00
    0.00000E+00         0.00000E+00         0.00000E+00
 
    0.19094E+07         0.11355E+07         0.00000E+00
    0.11355E+07        -0.30551E+07         0.00000E+00
    0.00000E+00         0.00000E+00         0.00000E+00
 
    0.18605E+07         0.12017E+07         0.00000E+00
    0.12017E+07        -0.30413E+07         0.00000E+00
    0.00000E+00         0.00000E+00         0.00000E+00
 
    0.18111E+07         0.12671E+07         0.00000E+00
    0.12671E+07        -0.30269E+07         0.00000E+00
    0.00000E+00         0.00000E+00         0.00000E+00
 
    0.17612E+07         0.13317E+07         0.00000E+00
    0.13317E+07        -0.30119E+07         0.00000E+00
    0.00000E+00         0.00000E+00         0.00000E+00
 
    0.17109E+07         0.13955E+07         0.00000E+00
    0.13955E+07        -0.29962E+07         0.00000E+00
    0.00000E+00         0.00000E+00         0.00000E+00
 
    0.16601E+07         0.14585E+07         0.00000E+00
    0.14585E+07        -0.29799E+07         0.00000E+00
    0.00000E+00         0.00000E+00         0.00000E+00
 
    0.16089E+07         0.15208E+07         0.00000E+00
    0.15208E+07        -0.29631E+07         0.00000E+00
    0.00000E+00         0.00000E+00         0.00000E+00
 
    0.15572E+07         0.15824E+07         0.00000E+00
    0.15824E+07        -0.29457E+07         0.00000E+00
    0.00000E+00         0.00000E+00         0.00000E+00
 
    0.15052E+07         0.16433E+07         0.00000E+00
    0.16433E+07        -0.29277E+07         0.00000E+00
    0.00000E+00         0.00000E+00         0.00000E+00
 
    0.14527E+07         0.17034E+07         0.00000E+00
    0.17034E+07        -0.29091E+07         0.00000E+00
    0.00000E+00         0.00000E+00         0.00000E+00
 
    0.13999E+07         0.17628E+07         0.00000E+00
    0.17628E+07        -0.28901E+07         0.00000E+00
    0.00000E+00         0.00000E+00         0.00000E+00
 
    0.13467E+07         0.18216E+07         0.00000E+00
    0.18216E+07        -0.28705E+07         0.00000E+00
    0.00000E+00         0.00000E+00         0.00000E+00
 
    0.12931E+07         0.18797E+07         0.00000E+00
    0.18797E+07        -0.28503E+07         0.00000E+00
    0.00000E+00         0.00000E+00         0.00000E+00
 
    0.12392E+07         0.19370E+07         0.00000E+00
    0.19370E+07        -0.28297E+07         0.00000E+00
    0.00000E+00         0.00000E+00         0.00000E+00
 
    0.11850E+07         0.19938E+07         0.00000E+00
    0.19938E+07        -0.28086E+07         0.00000E+00
    0.00000E+00         0.00000E+00         0.00000E+00
 
    0.11304E+07         0.20499E+07         0.00000E+00
    0.20499E+07        -0.27869E+07         0.00000E+00
    0.00000E+00         0.00000E+00         0.00000E+00
 
    0.10755E+07         0.21053E+07         0.00000E+00
    0.21053E+07        -0.27648E+07         0.00000E+00
    0.00000E+00         0.00000E+00         0.00000E+00
 
    0.10202E+07         0.21602E+07         0.00000E+00
    0.21602E+07        -0.27423E+07         0.00000E+00
    0.00000E+00         0.00000E+00         0.00000E+00
 
    0.96463E+06         0.22144E+07         0.00000E+00
    0.22144E+07        -0.27192E+07         0.00000E+00
    0.00000E+00         0.00000E+00         0.00000E+00
 
    0.90873E+06         0.22680E+07         0.00000E+00
    0.22680E+07        -0.26957E+07         0.00000E+00
    0.00000E+00         0.00000E+00         0.00000E+00
 
    0.85251E+06         0.23210E+07         0.00000E+00
    0.23210E+07        -0.26717E+07         0.00000E+00
    0.00000E+00         0.00000E+00         0.00000E+00
 
    0.79596E+06         0.23734E+07         0.00000E+00
    0.23734E+07        -0.26472E+07         0.00000E+00
    0.00000E+00         0.00000E+00         0.00000E+00
 
    0.73910E+06         0.24252E+07         0.00000E+00
    0.24252E+07        -0.26223E+07         0.00000E+00
    0.00000E+00         0.00000E+00         0.00000E+00
 
    0.68192E+06         0.24764E+07         0.00000E+00
    0.24764E+07        -0.25969E+07         0.00000E+00
    0.00000E+00         0.00000E+00         0.00000E+00
 
    0.62441E+06         0.25271E+07         0.00000E+00
    0.25271E+07        -0.25711E+07         0.00000E+00
    0.00000E+00         0.00000E+00         0.00000E+00
 
    0.56657E+06         0.25772E+07         0.00000E+00
    0.25772E+07        -0.25449E+07         0.00000E+00
    0.00000E+00         0.00000E+00         0.00000E+00
 
    0.50840E+06         0.26268E+07         0.00000E+00
    0.26268E+07        -0.25182E+07         0.00000E+00
    0.00000E+00         0.00000E+00         0.00000E+00
 
    0.44990E+06         0.26758E+07         0.00000E+00
    0.26758E+07        -0.24910E+07         0.00000E+00
    0.00000E+00         0.00000E+00         0.00000E+00
 
    0.39106E+06         0.27242E+07         0.00000E+00
    0.27242E+07        -0.24634E+07         0.00000E+00
    0.00000E+00         0.00000E+00         0.00000E+00
 
    0.33188E+06         0.27721E+07         0.00000E+00
    0.27721E+07        -0.24354E+07         0.00000E+00
    0.00000E+00         0.00000E+00         0.00000E+00
 
    0.27235E+06         0.28194E+07         0.00000E+00
    0.28194E+07        -0.24069E+07         0.00000E+00
    0.00000E+00         0.00000E+00         0.00000E+00
 
    0.21246E+06         0.28663E+07         0.00000E+00
    0.28663E+07        -0.23780E+07         0.00000E+00
    0.00000E+00         0.00000E+00         0.00000E+00
 
    0.15221E+06         0.29125E+07         0.00000E+00
    0.29125E+07        -0.23486E+07         0.00000E+00
    0.00000E+00         0.00000E+00         0.00000E+00
 
    0.91589E+05         0.29583E+07         0.00000E+00
    0.29583E+07        -0.23188E+07         0.00000E+00
    0.00000E+00         0.00000E+00         0.00000E+00
 
    0.30593E+05         0.30035E+07         0.00000E+00
    0.30035E+07        -0.22886E+07         0.00000E+00
    0.00000E+00         0.00000E+00         0.00000E+00
 
    0.27339E+07         0.43135E+05         0.00000E+00
    0.43135E+05        -0.34040E+07         0.00000E+00
    0.00000E+00         0.00000E+00         0.00000E+00
 
    0.26916E+07         0.12655E+06         0.00000E+00
    0.12655E+06        -0.34028E+07         0.00000E+00
    0.00000E+00         0.00000E+00         0.00000E+00
 
    0.26483E+07         0.20894E+06         0.00000E+00
    0.20894E+06        -0.34006E+07         0.00000E+00
    0.00000E+00         0.00000E+00         0.00000E+00
 
    0.26040E+07         0.29030E+06         0.00000E+00
    0.29030E+06        -0.33974E+07         0.00000E+00
    0.00000E+00         0.00000E+00         0.00000E+00
 
    0.25589E+07         0.37065E+06         0.00000E+00
    0.37065E+06        -0.33931E+07         0.00000E+00
    0.00000E+00         0.00000E+00         0.00000E+00
 
    0.25128E+07         0.44999E+06         0.00000E+00
    0.44999E+06        -0.33878E+07         0.00000E+00
    0.00000E+00         0.00000E+00         0.00000E+00
 
    0.24660E+07         0.52833E+06         0.00000E+00
    0.52833E+06        -0.33817E+07         0.00000E+00
    0.00000E+00         0.00000E+00         0.00000E+00
 
    0.24185E+07         0.60570E+06         0.00000E+00
    0.60570E+06        -0.33746E+07         0.00000E+00
    0.00000E+00         0.00000E+00         0.00000E+00
 
    0.23702E+07         0.68209E+06         0.00000E+00
    0.68209E+06        -0.33666E+07         0.00000E+00
    0.00000E+00         0.00000E+00         0.00000E+00
 
    0.23212E+07         0.75752E+06         0.00000E+00
    0.75752E+06        -0.33578E+07         0.00000E+00
    0.00000E+00         0.00000E+00         0.00000E+00
 
    0.22715E+07         0.83201E+06         0.00000E+00
    0.83201E+06        -0.33482E+07         0.00000E+00
    0.00000E+00         0.00000E+00         0.00000E+00
 
    0.22213E+07         0.90557E+06         0.00000E+00
    0.90557E+06        -0.33378E+07         0.00000E+00
    0.00000E+00         0.00000E+00         0.00000E+00
 
    0.21705E+07         0.97822E+06         0.00000E+00
    0.97822E+06        -0.33267E+07         0.00000E+00
    0.00000E+00         0.00000E+00         0.00000E+00
 
    0.21191E+07         0.10500E+07         0.00000E+00
    0.10500E+07        -0.33148E+07         0.00000E+00
    0.00000E+00         0.00000E+00         0.00000E+00
 
    0.20672E+07         0.11208E+07         0.00000E+00
    0.11208E+07        -0.33021E+07         0.00000E+00
    0.00000E+00         0.00000E+00         0.00000E+00
 
    0.20149E+07         0.11908E+07         0.00000E+00
    0.11908E+07        -0.32888E+07         0.00000E+00
    0.00000E+00         0.00000E+00         0.00000E+00
 
    0.19620E+07         0.12600E+07         0.00000E+00
    0.12600E+07        -0.32748E+07         0.00000E+00
    0.00000E+00         0.00000E+00         0.00000E+00
 
    0.19087E+07         0.13283E+07         0.00000E+00
    0.13283E+07        -0.32601E+07         0.00000E+00
    0.00000E+00         0.00000E+00         0.00000E+00
 
    0.18550E+07         0.13958E+07         0.00000E+00
    0.13958E+07        -0.32448E+07         0.00000E+00
    0.00000E+00         0.00000E+00         0.00000E+00
 
    0.18009E+07         0.14625E+07         0.00000E+00
    0.14625E+07        -0.32289E+07         0.00000E+00
    0.00000E+00         0.00000E+00         0.00000E+00
 
    0.17465E+07         0.15284E+07         0.00000E+00
    0.15284E+07        -0.32124E+07         0.00000E+00
    0.00000E+00         0.00000E+00         0.00000E+00
 
    0.16916E+07         0.15935E+07         0.00000E+00
    0.15935E+07        -0.31952E+07         0.00000E+00
    0.00000E+00         0.00000E+00         0.00000E+00
 
    0.16364E+07         0.16579E+07         0.00000E+00
    0.16579E+07        -0.31775E+07         0.00000E+00
    0.00000E+00         0.00000E+00         0.00000E+00
 
    0.15809E+07         0.17215E+07         0.00000E+00
    0.17215E+07        -0.31592E+07         0.00000E+00
    0.00000E+00         0.00000E+00         0.00000E+00
 
    0.15250E+07         0.17844E+07         0.00000E+00
    0.17844E+07        -0.31404E+07         0.00000E+00
    0.00000E+00         0.00000E+00         0.00000E+00
 
    0.14688E+07         0.18466E+07         0.00000E+00
    0.18466E+07        -0.31209E+07         0.00000E+00
    0.00000E+00         0.00000E+00         0.00000E+00
 
    0.14123E+07         0.19082E+07         0.00000E+00
    0.19082E+07        -0.31010E+07         0.00000E+00
    0.00000E+00         0.00000E+00         0.00000E+00
 
    0.13555E+07         0.19690E+07         0.00000E+00
    0.19690E+07        -0.30805E+07         0.00000E+00
    0.00000E+00         0.00000E+00         0.00000E+00
 
    0.12984E+07         0.20292E+07         0.00000E+00
    0.20292E+07        -0.30595E+07         0.00000E+00
    0.00000E+00         0.00000E+00         0.00000E+00
 
    0.12411E+07         0.20887E+07         0.00000E+00
    0.20887E+07        -0.30380E+07         0.00000E+00
    0.00000E+00         0.00000E+00         0.00000E+00
 
    0.11834E+07         0.21476E+07         0.00000E+00
    0.21476E+07        -0.30159E+07         0.00000E+00
    0.00000E+00         0.00000E+00         0.00000E+00
 
    0.11255E+07         0.22058E+07         0.00000E+00
    0.22058E+07        -0.29934E+07         0.00000E+00
    0.00000E+00         0.00000E+00         0.00000E+00
 
    0.10673E+07         0.22635E+07         0.00000E+00
    0.22635E+07        -0.29703E+07         0.00000E+00
    0.00000E+00         0.00000E+00         0.00000E+00
 
    0.10088E+07         0.23205E+07         0.00000E+00
    0.23205E+07        -0.29468E+07         0.00000E+00
    0.00000E+00         0.00000E+00         0.00000E+00
 
    0.94998E+06         0.23770E+07         0.00000E+00
    0.23770E+07        -0.29227E+07         0.00000E+00
    0.00000E+00         0.00000E+00         0.00000E+00
 
    0.89092E+06         0.24329E+07         0.00000E+00
    0.24329E+07        -0.28981E+07         0.00000E+00
    0.00000E+00         0.00000E+00         0.00000E+00
 
    0.83158E+06         0.24882E+07         0.00000E+00
    0.24882E+07        -0.28731E+07         0.00000E+00
    0.00000E+00         0.00000E+00         0.00000E+00
 
    0.77195E+06         0.25429E+07         0.00000E+00
    0.25429E+07        -0.28475E+07         0.00000E+00
    0.00000E+00         0.00000E+00         0.00000E+00
 
    0.71203E+06         0.25971E+07         0.00000E+00
    0.25971E+07        -0.28215E+07         0.00000E+00
    0.00000E+00         0.00000E+00         0.00000E+00
 
    0.65182E+06         0.26507E+07         0.00000E+00
    0.26507E+07        -0.27950E+07         0.00000E+00
    0.00000E+00         0.00000E+00         0.00000E+00
 
    0.59130E+06         0.27038E+07         0.00000E+00
    0.27038E+07        -0.27680E+07         0.00000E+00
    0.00000E+00         0.00000E+00         0.00000E+00
 
    0.53048E+06         0.27564E+07         0.00000E+00
    0.27564E+07        -0.27405E+07         0.00000E+00
    0.00000E+00         0.00000E+00         0.00000E+00
 
    0.46935E+06         0.28085E+07         0.00000E+00
    0.28085E+07        -0.27125E+07         0.00000E+00
    0.00000E+00         0.00000E+00         0.00000E+00
 
    0.40789E+06         0.28600E+07         0.00000E+00
    0.28600E+07        -0.26840E+07         0.00000E+00
    0.00000E+00         0.00000E+00         0.00000E+00
 
    0.34610E+06         0.29110E+07         0.00000E+00
    0.29110E+07        -0.26550E+07         0.00000E+00
    0.00000E+00         0.00000E+00         0.00000E+00
 
    0.28397E+06         0.29615E+07         0.00000E+00
    0.29615E+07        -0.26255E+07         0.00000E+00
    0.00000E+00         0.00000E+00         0.00000E+00
 
    0.22150E+06         0.30115E+07         0.00000E+00
    0.30115E+07        -0.25956E+07         0.00000E+00
    0.00000E+00         0.00000E+00         0.00000E+00
 
    0.15866E+06         0.30610E+07         0.00000E+00
    0.30610E+07        -0.25651E+07         0.00000E+00
    0.00000E+00         0.00000E+00         0.00000E+00
 
    0.95464E+05         0.31100E+07         0.00000E+00
    0.31100E+07        -0.25341E+07         0.00000E+00
    0.00000E+00         0.00000E+00         0.00000E+00
 
    0.31885E+05         0.31585E+07         0.00000E+00
    0.31585E+07        -0.25027E+07         0.00000E+00
    0.00000E+00         0.00000E+00         0.00000E+00
 
    0.29112E+07         0.45475E+05         0.00000E+00
    0.45475E+05        -0.36573E+07         0.00000E+00
    0.00000E+00         0.00000E+00         0.00000E+00
 
    0.28634E+07         0.13317E+06         0.00000E+00
    0.13317E+06        -0.36561E+07         0.00000E+00
    0.00000E+00         0.00000E+00         0.00000E+00
 
    0.28147E+07         0.21969E+06         0.00000E+00
    0.21969E+06        -0.36538E+07         0.00000E+00
    0.00000E+00         0.00000E+00         0.00000E+00
 
    0.27650E+07         0.30507E+06         0.00000E+00
    0.30507E+06        -0.36505E+07         0.00000E+00
    0.00000E+00         0.00000E+00         0.00000E+00
 
    0.27146E+07         0.38930E+06         0.00000E+00
    0.38930E+06        -0.36462E+07         0.00000E+00
    0.00000E+00         0.00000E+00         0.00000E+00
 
    0.26634E+07         0.47242E+06         0.00000E+00
    0.47242E+06        -0.36409E+07         0.00000E+00
    0.00000E+00         0.00000E+00         0.00000E+00
 
    0.26114E+07         0.55443E+06         0.00000E+00
    0.55443E+06        -0.36346E+07         0.00000E+00
    0.00000E+00         0.00000E+00         0.00000E+00
 
    0.25588E+07         0.63536E+06         0.00000E+00
    0.63536E+06        -0.36275E+07         0.00000E+00
    0.00000E+00         0.00000E+00         0.00000E+00
 
    0.25055E+07         0.71522E+06         0.00000E+00
    0.71522E+06        -0.36194E+07         0.00000E+00
    0.00000E+00         0.00000E+00         0.00000E+00
 
    0.24517E+07         0.79405E+06         0.00000E+00
    0.79405E+06        -0.36105E+07         0.00000E+00
    0.00000E+00         0.00000E+00         0.00000E+00
 
    0.23973E+07         0.87185E+06         0.00000E+00
    0.87185E+06        -0.36008E+07         0.00000E+00
    0.00000E+00         0.00000E+00         0.00000E+00
 
    0.23424E+07         0.94865E+06         0.00000E+00
    0.94865E+06        -0.35904E+07         0.00000E+00
    0.00000E+00         0.00000E+00         0.00000E+00
 
    0.22870E+07         0.10245E+07         0.00000E+00
    0.10245E+07        -0.35791E+07         0.00000E+00
    0.00000E+00         0.00000E+00         0.00000E+00
 
    0.22312E+07         0.10993E+07         0.00000E+00
    0.10993E+07        -0.35671E+07         0.00000E+00
    0.00000E+00         0.00000E+00         0.00000E+00
 
    0.21749E+07         0.11733E+07         0.00000E+00
    0.11733E+07        -0.35544E+07         0.00000E+00
    0.00000E+00         0.00000E+00         0.00000E+00
 
    0.21183E+07         0.12463E+07         0.00000E+00
    0.12463E+07        -0.35410E+07         0.00000E+00
    0.00000E+00         0.00000E+00         0.00000E+00
 
    0.20612E+07         0.13184E+07         0.00000E+00
    0.13184E+07        -0.35270E+07         0.00000E+00
    0.00000E+00         0.00000E+00         0.00000E+00
 
    0.20039E+07         0.13896E+07         0.00000E+00
    0.13896E+07        -0.35122E+07         0.00000E+00
    0.00000E+00         0.00000E+00         0.00000E+00
 
    0.19462E+07         0.14601E+07         0.00000E+00
    0.14601E+07        -0.34969E+07         0.00000E+00
    0.00000E+00         0.00000E+00         0.00000E+00
 
    0.18882E+07         0.15296E+07         0.00000E+00
    0.15296E+07        -0.34809E+07         0.00000E+00
    0.00000E+00         0.00000E+00         0.00000E+00
 
    0.18299E+07         0.15984E+07         0.00000E+00
    0.15984E+07        -0.34643E+07         0.00000E+00
    0.00000E+00         0.00000E+00         0.00000E+00
 
    0.17713E+07         0.16664E+07         0.00000E+00
    0.16664E+07        -0.34471E+07         0.00000E+00
    0.00000E+00         0.00000E+00         0.00000E+00
 
    0.17125E+07         0.17336E+07         0.00000E+00
    0.17336E+07        -0.34293E+07         0.00000E+00
    0.00000E+00         0.00000E+00         0.00000E+00
 
    0.16534E+07         0.18001E+07         0.00000E+00
    0.18001E+07        -0.34109E+07         0.00000E+00
    0.00000E+00         0.00000E+00         0.00000E+00
 
    0.15941E+07         0.18659E+07         0.00000E+00
    0.18659E+07        -0.33919E+07         0.00000E+00
    0.00000E+00         0.00000E+00         0.00000E+00
 
    0.15345E+07         0.19309E+07         0.00000E+00
    0.19309E+07        -0.33724E+07         0.00000E+00
    0.00000E+00         0.00000E+00         0.00000E+00
 
    0.14748E+07         0.19953E+07         0.00000E+00
    0.19953E+07        -0.33524E+07         0.00000E+00
    0.00000E+00         0.00000E+00         0.00000E+00
 
    0.14148E+07         0.20590E+07         0.00000E+00
    0.20590E+07        -0.33317E+07         0.00000E+00
    0.00000E+00         0.00000E+00         0.00000E+00
 
    0.13545E+07         0.21221E+07         0.00000E+00
    0.21221E+07        -0.33106E+07         0.00000E+00
    0.00000E+00         0.00000E+00         0.00000E+00
 
    0.12941E+07         0.21845E+07         0.00000E+00
    0.21845E+07        -0.32889E+07         0.00000E+00
    0.00000E+00         0.00000E+00         0.00000E+00
 
    0.12334E+07         0.22463E+07         0.00000E+00
    0.22463E+07        -0.32666E+07         0.00000E+00
    0.00000E+00         0.00000E+00         0.00000E+00
 
    0.11726E+07         0.23076E+07         0.00000E+00
    0.23076E+07        -0.32439E+07         0.00000E+00
    0.00000E+00         0.00000E+00         0.00000E+00
 
    0.11115E+07         0.23682E+07         0.00000E+00
    0.23682E+07        -0.32206E+07         0.00000E+00
    0.00000E+00         0.00000E+00         0.00000E+00
 
    0.10502E+07         0.24282E+07         0.00000E+00
    0.24282E+07        -0.31967E+07         0.00000E+00
    0.00000E+00         0.00000E+00         0.00000E+00
 
    0.98862E+06         0.24877E+07         0.00000E+00
    0.24877E+07        -0.31724E+07         0.00000E+00
    0.00000E+00         0.00000E+00         0.00000E+00
 
    0.92685E+06         0.25467E+07         0.00000E+00
    0.25467E+07        -0.31475E+07         0.00000E+00
    0.00000E+00         0.00000E+00         0.00000E+00
 
    0.86485E+06         0.26051E+07         0.00000E+00
    0.26051E+07        -0.31220E+07         0.00000E+00
    0.00000E+00         0.00000E+00         0.00000E+00
 
    0.80260E+06         0.26630E+07         0.00000E+00
    0.26630E+07        -0.30961E+07         0.00000E+00
    0.00000E+00         0.00000E+00         0.00000E+00
 
    0.74009E+06         0.27204E+07         0.00000E+00
    0.27204E+07        -0.30696E+07         0.00000E+00
    0.00000E+00         0.00000E+00         0.00000E+00
 
    0.67733E+06         0.27772E+07         0.00000E+00
    0.27772E+07        -0.30425E+07         0.00000E+00
    0.00000E+00         0.00000E+00         0.00000E+00
 
    0.61430E+06         0.28336E+07         0.00000E+00
    0.28336E+07        -0.30150E+07         0.00000E+00
    0.00000E+00         0.00000E+00         0.00000E+00
 
    0.55099E+06         0.28895E+07         0.00000E+00
    0.28895E+07        -0.29868E+07         0.00000E+00
    0.00000E+00         0.00000E+00         0.00000E+00
 
    0.48740E+06         0.29449E+07         0.00000E+00
    0.29449E+07        -0.29582E+07         0.00000E+00
    0.00000E+00         0.00000E+00         0.00000E+00
 
    0.42350E+06         0.29998E+07         0.00000E+00
    0.29998E+07        -0.29290E+07         0.00000E+00
    0.00000E+00         0.00000E+00         0.00000E+00
 
    0.35928E+06         0.30542E+07         0.00000E+00
    0.30542E+07        -0.28992E+07         0.00000E+00
    0.00000E+00         0.00000E+00         0.00000E+00
 
    0.29475E+06         0.31082E+07         0.00000E+00
    0.31082E+07        -0.28689E+07         0.00000E+00
    0.00000E+00         0.00000E+00         0.00000E+00
 
    0.22987E+06         0.31618E+07         0.00000E+00
    0.31618E+07        -0.28380E+07         0.00000E+00
    0.00000E+00         0.00000E+00         0.00000E+00
 
    0.16464E+06         0.32148E+07         0.00000E+00
    0.32148E+07        -0.28066E+07         0.00000E+00
    0.00000E+00         0.00000E+00         0.00000E+00
 
    0.99053E+05         0.32674E+07         0.00000E+00
    0.32674E+07        -0.27745E+07         0.00000E+00
    0.00000E+00         0.00000E+00         0.00000E+00
 
    0.33082E+05         0.33196E+07         0.00000E+00
    0.33196E+07        -0.27419E+07         0.00000E+00
    0.00000E+00         0.00000E+00         0.00000E+00
 
    0.30915E+07         0.47830E+05         0.00000E+00
    0.47830E+05        -0.39294E+07         0.00000E+00
    0.00000E+00         0.00000E+00         0.00000E+00
 
    0.30374E+07         0.13979E+06         0.00000E+00
    0.13979E+06        -0.39282E+07         0.00000E+00
    0.00000E+00         0.00000E+00         0.00000E+00
 
    0.29825E+07         0.23042E+06         0.00000E+00
    0.23042E+06        -0.39259E+07         0.00000E+00
    0.00000E+00         0.00000E+00         0.00000E+00
 
    0.29269E+07         0.31977E+06         0.00000E+00
    0.31977E+06        -0.39226E+07         0.00000E+00
    0.00000E+00         0.00000E+00         0.00000E+00
 
    0.28705E+07         0.40784E+06         0.00000E+00
    0.40784E+06        -0.39183E+07         0.00000E+00
    0.00000E+00         0.00000E+00         0.00000E+00
 
    0.28135E+07         0.49468E+06         0.00000E+00
    0.49468E+06        -0.39130E+07         0.00000E+00
    0.00000E+00         0.00000E+00         0.00000E+00
 
    0.27559E+07         0.58029E+06         0.00000E+00
    0.58029E+06        -0.39068E+07         0.00000E+00
    0.00000E+00         0.00000E+00         0.00000E+00
 
    0.26977E+07         0.66473E+06         0.00000E+00
    0.66473E+06        -0.38996E+07         0.00000E+00
    0.00000E+00         0.00000E+00         0.00000E+00
 
    0.26391E+07         0.74800E+06         0.00000E+00
    0.74800E+06        -0.38916E+07         0.00000E+00
    0.00000E+00         0.00000E+00         0.00000E+00
 
    0.25800E+07         0.83014E+06         0.00000E+00
    0.83014E+06        -0.38828E+07         0.00000E+00
    0.00000E+00         0.00000E+00         0.00000E+00
 
    0.25204E+07         0.91119E+06         0.00000E+00
    0.91119E+06        -0.38732E+07         0.00000E+00
    0.00000E+00         0.00000E+00         0.00000E+00
 
    0.24605E+07         0.99116E+06         0.00000E+00
    0.99116E+06        -0.38628E+07         0.00000E+00
    0.00000E+00         0.00000E+00         0.00000E+00
 
    0.24002E+07         0.10701E+07         0.00000E+00
    0.10701E+07        -0.38517E+07         0.00000E+00
    0.00000E+00         0.00000E+00         0.00000E+00
 
    0.23396E+07         0.11480E+07         0.00000E+00
    0.11480E+07        -0.38398E+07         0.00000E+00
    0.00000E+00         0.00000E+00         0.00000E+00
 
    0.22787E+07         0.12249E+07         0.00000E+00
    0.12249E+07        -0.38273E+07         0.00000E+00
    0.00000E+00         0.00000E+00         0.00000E+00
 
    0.22176E+07         0.13009E+07         0.00000E+00
    0.13009E+07        -0.38140E+07         0.00000E+00
    0.00000E+00         0.00000E+00         0.00000E+00
 
    0.21562E+07         0.13760E+07         0.00000E+00
    0.13760E+07        -0.38001E+07         0.00000E+00
    0.00000E+00         0.00000E+00         0.00000E+00
 
    0.20946E+07         0.14502E+07         0.00000E+00
    0.14502E+07        -0.37856E+07         0.00000E+00
    0.00000E+00         0.00000E+00         0.00000E+00
 
    0.20328E+07         0.15235E+07         0.00000E+00
    0.15235E+07        -0.37704E+07         0.00000E+00
    0.00000E+00         0.00000E+00         0.00000E+00
 
    0.19708E+07         0.15959E+07         0.00000E+00
    0.15959E+07        -0.37546E+07         0.00000E+00
    0.00000E+00         0.00000E+00         0.00000E+00
 
    0.19086E+07         0.16676E+07         0.00000E+00
    0.16676E+07        -0.37382E+07         0.00000E+00
    0.00000E+00         0.00000E+00         0.00000E+00
 
    0.18463E+07         0.17384E+07         0.00000E+00
    0.17384E+07        -0.37211E+07         0.00000E+00
    0.00000E+00         0.00000E+00         0.00000E+00
 
    0.17838E+07         0.18086E+07         0.00000E+00
    0.18086E+07        -0.37035E+07         0.00000E+00
    0.00000E+00         0.00000E+00         0.00000E+00
 
    0.17212E+07         0.18779E+07         0.00000E+00
    0.18779E+07        -0.36854E+07         0.00000E+00
    0.00000E+00         0.00000E+00         0.00000E+00
 
    0.16584E+07         0.19466E+07         0.00000E+00
    0.19466E+07        -0.36666E+07         0.00000E+00
    0.00000E+00         0.00000E+00         0.00000E+00
 
    0.15956E+07         0.20146E+07         0.00000E+00
    0.20146E+07        -0.36473E+07         0.00000E+00
    0.00000E+00         0.00000E+00         0.00000E+00
 
    0.15325E+07         0.20819E+07         0.00000E+00
    0.20819E+07        -0.36274E+07         0.00000E+00
    0.00000E+00         0.00000E+00         0.00000E+00
 
    0.14694E+07         0.21486E+07         0.00000E+00
    0.21486E+07        -0.36069E+07         0.00000E+00
    0.00000E+00         0.00000E+00         0.00000E+00
 
    0.14061E+07         0.22146E+07         0.00000E+00
    0.22146E+07        -0.35859E+07         0.00000E+00
    0.00000E+00         0.00000E+00         0.00000E+00
 
    0.13428E+07         0.22801E+07         0.00000E+00
    0.22801E+07        -0.35643E+07         0.00000E+00
    0.00000E+00         0.00000E+00         0.00000E+00
 
    0.12792E+07         0.23450E+07         0.00000E+00
    0.23450E+07        -0.35422E+07         0.00000E+00
    0.00000E+00         0.00000E+00         0.00000E+00
 
    0.12156E+07         0.24093E+07         0.00000E+00
    0.24093E+07        -0.35195E+07         0.00000E+00
    0.00000E+00         0.00000E+00         0.00000E+00
 
    0.11518E+07         0.24731E+07         0.00000E+00
    0.24731E+07        -0.34962E+07         0.00000E+00
    0.00000E+00         0.00000E+00         0.00000E+00
 
    0.10878E+07         0.25363E+07         0.00000E+00
    0.25363E+07        -0.34724E+07         0.00000E+00
    0.00000E+00         0.00000E+00         0.00000E+00
 
    0.10237E+07         0.25991E+07         0.00000E+00
    0.25991E+07        -0.34480E+07         0.00000E+00
    0.00000E+00         0.00000E+00         0.00000E+00
 
    0.95938E+06         0.26613E+07         0.00000E+00
    0.26613E+07        -0.34230E+07         0.00000E+00
    0.00000E+00         0.00000E+00         0.00000E+00
 
    0.89491E+06         0.27231E+07         0.00000E+00
    0.27231E+07        -0.33974E+07         0.00000E+00
    0.00000E+00         0.00000E+00         0.00000E+00
 
    0.83025E+06         0.27844E+07         0.00000E+00
    0.27844E+07        -0.33713E+07         0.00000E+00
    0.00000E+00         0.00000E+00         0.00000E+00
 
    0.76538E+06         0.28452E+07         0.00000E+00
    0.28452E+07        -0.33446E+07         0.00000E+00
    0.00000E+00         0.00000E+00         0.00000E+00
 
    0.70029E+06         0.29055E+07         0.00000E+00
    0.29055E+07        -0.33173E+07         0.00000E+00
    0.00000E+00         0.00000E+00         0.00000E+00
 
    0.63498E+06         0.29655E+07         0.00000E+00
    0.29655E+07        -0.32894E+07         0.00000E+00
    0.00000E+00         0.00000E+00         0.00000E+00
 
    0.56941E+06         0.30250E+07         0.00000E+00
    0.30250E+07        -0.32609E+07         0.00000E+00
    0.00000E+00         0.00000E+00         0.00000E+00
 
    0.50359E+06         0.30841E+07         0.00000E+00
    0.30841E+07        -0.32318E+07         0.00000E+00
    0.00000E+00         0.00000E+00         0.00000E+00
 
    0.43749E+06         0.31427E+07         0.00000E+00
    0.31427E+07        -0.32020E+07         0.00000E+00
    0.00000E+00         0.00000E+00         0.00000E+00
 
    0.37110E+06         0.32010E+07         0.00000E+00
    0.32010E+07        -0.31717E+07         0.00000E+00
    0.00000E+00         0.00000E+00         0.00000E+00
 
    0.30440E+06         0.32588E+07         0.00000E+00
    0.32588E+07        -0.31407E+07         0.00000E+00
    0.00000E+00         0.00000E+00         0.00000E+00
 
    0.23737E+06         0.33162E+07         0.00000E+00
    0.33162E+07        -0.31091E+07         0.00000E+00
    0.00000E+00         0.00000E+00         0.00000E+00
 
    0.17000E+06         0.33732E+07         0.00000E+00
    0.33732E+07        -0.30768E+07         0.00000E+00
    0.00000E+00         0.00000E+00         0.00000E+00
 
    0.10227E+06         0.34299E+07         0.00000E+00
    0.34299E+07        -0.30439E+07         0.00000E+00
    0.00000E+00         0.00000E+00         0.00000E+00
 
    0.34154E+05         0.34861E+07         0.00000E+00
    0.34861E+07        -0.30103E+07         0.00000E+00
    0.00000E+00         0.00000E+00         0.00000E+00
 
    0.32723E+07         0.50154E+05         0.00000E+00
    0.50154E+05        -0.42224E+07         0.00000E+00
    0.00000E+00         0.00000E+00         0.00000E+00
 
    0.32112E+07         0.14627E+06         0.00000E+00
    0.14627E+06        -0.42213E+07         0.00000E+00
    0.00000E+00         0.00000E+00         0.00000E+00
 
    0.31494E+07         0.24090E+06         0.00000E+00
    0.24090E+06        -0.42190E+07         0.00000E+00
    0.00000E+00         0.00000E+00         0.00000E+00
 
    0.30871E+07         0.33409E+06         0.00000E+00
    0.33409E+06        -0.42158E+07         0.00000E+00
    0.00000E+00         0.00000E+00         0.00000E+00
 
    0.30241E+07         0.42587E+06         0.00000E+00
    0.42587E+06        -0.42115E+07         0.00000E+00
    0.00000E+00         0.00000E+00         0.00000E+00
 
    0.29607E+07         0.51629E+06         0.00000E+00
    0.51629E+06        -0.42063E+07         0.00000E+00
    0.00000E+00         0.00000E+00         0.00000E+00
 
    0.28969E+07         0.60537E+06         0.00000E+00
    0.60537E+06        -0.42003E+07         0.00000E+00
    0.00000E+00         0.00000E+00         0.00000E+00
 
    0.28327E+07         0.69316E+06         0.00000E+00
    0.69316E+06        -0.41933E+07         0.00000E+00
    0.00000E+00         0.00000E+00         0.00000E+00
 
    0.27682E+07         0.77969E+06         0.00000E+00
    0.77969E+06        -0.41855E+07         0.00000E+00
    0.00000E+00         0.00000E+00         0.00000E+00
 
    0.27033E+07         0.86502E+06         0.00000E+00
    0.86502E+06        -0.41770E+07         0.00000E+00
    0.00000E+00         0.00000E+00         0.00000E+00
 
    0.26382E+07         0.94916E+06         0.00000E+00
    0.94916E+06        -0.41676E+07         0.00000E+00
    0.00000E+00         0.00000E+00         0.00000E+00
 
    0.25730E+07         0.10322E+07         0.00000E+00
    0.10322E+07        -0.41576E+07         0.00000E+00
    0.00000E+00         0.00000E+00         0.00000E+00
 
    0.25075E+07         0.11141E+07         0.00000E+00
    0.11141E+07        -0.41468E+07         0.00000E+00
    0.00000E+00         0.00000E+00         0.00000E+00
 
    0.24419E+07         0.11950E+07         0.00000E+00
    0.11950E+07        -0.41353E+07         0.00000E+00
    0.00000E+00         0.00000E+00         0.00000E+00
 
    0.23762E+07         0.12748E+07         0.00000E+00
    0.12748E+07        -0.41231E+07         0.00000E+00
    0.00000E+00         0.00000E+00         0.00000E+00
 
    0.23103E+07         0.13537E+07         0.00000E+00
    0.13537E+07        -0.41103E+07         0.00000E+00
    0.00000E+00         0.00000E+00         0.00000E+00
 
    0.22444E+07         0.14316E+07         0.00000E+00
    0.14316E+07        -0.40969E+07         0.00000E+00
    0.00000E+00         0.00000E+00         0.00000E+00
 
    0.21785E+07         0.15086E+07         0.00000E+00
    0.15086E+07        -0.40828E+07         0.00000E+00
    0.00000E+00         0.00000E+00         0.00000E+00
 
    0.21125E+07         0.15847E+07         0.00000E+00
    0.15847E+07        -0.40681E+07         0.00000E+00
    0.00000E+00         0.00000E+00         0.00000E+00
 
    0.20464E+07         0.16600E+07         0.00000E+00
    0.16600E+07        -0.40528E+07         0.00000E+00
    0.00000E+00         0.00000E+00         0.00000E+00
 
    0.19804E+07         0.17345E+07         0.00000E+00
    0.17345E+07        -0.40369E+07         0.00000E+00
    0.00000E+00         0.00000E+00         0.00000E+00
 
    0.19143E+07         0.18082E+07         0.00000E+00
    0.18082E+07        -0.40204E+07         0.00000E+00
    0.00000E+00         0.00000E+00         0.00000E+00
 
    0.18482E+07         0.18812E+07         0.00000E+00
    0.18812E+07        -0.40034E+07         0.00000E+00
    0.00000E+00         0.00000E+00         0.00000E+00
 
    0.17822E+07         0.19535E+07         0.00000E+00
    0.19535E+07        -0.39857E+07         0.00000E+00
    0.00000E+00         0.00000E+00         0.00000E+00
 
    0.17161E+07         0.20251E+07         0.00000E+00
    0.20251E+07        -0.39675E+07         0.00000E+00
    0.00000E+00         0.00000E+00         0.00000E+00
 
    0.16500E+07         0.20961E+07         0.00000E+00
    0.20961E+07        -0.39487E+07         0.00000E+00
    0.00000E+00         0.00000E+00         0.00000E+00
 
    0.15839E+07         0.21664E+07         0.00000E+00
    0.21664E+07        -0.39293E+07         0.00000E+00
    0.00000E+00         0.00000E+00         0.00000E+00
 
    0.15178E+07         0.22362E+07         0.00000E+00
    0.22362E+07        -0.39094E+07         0.00000E+00
    0.00000E+00         0.00000E+00         0.00000E+00
 
    0.14516E+07         0.23053E+07         0.00000E+00
    0.23053E+07        -0.38888E+07         0.00000E+00
    0.00000E+00         0.00000E+00         0.00000E+00
 
    0.13855E+07         0.23739E+07         0.00000E+00
    0.23739E+07        -0.38677E+07         0.00000E+00
    0.00000E+00         0.00000E+00         0.00000E+00
 
    0.13193E+07         0.24420E+07         0.00000E+00
    0.24420E+07        -0.38460E+07         0.00000E+00
    0.00000E+00         0.00000E+00         0.00000E+00
 
    0.12531E+07         0.25096E+07         0.00000E+00
    0.25096E+07        -0.38237E+07         0.00000E+00
    0.00000E+00         0.00000E+00         0.00000E+00
 
    0.11868E+07         0.25768E+07         0.00000E+00
    0.25768E+07        -0.38008E+07         0.00000E+00
    0.00000E+00         0.00000E+00         0.00000E+00
 
    0.11204E+07         0.26434E+07         0.00000E+00
    0.26434E+07        -0.37773E+07         0.00000E+00
    0.00000E+00         0.00000E+00         0.00000E+00
 
    0.10540E+07         0.27096E+07         0.00000E+00
    0.27096E+07        -0.37532E+07         0.00000E+00
    0.00000E+00         0.00000E+00         0.00000E+00
 
    0.98744E+06         0.27754E+07         0.00000E+00
    0.27754E+07        -0.37285E+07         0.00000E+00
    0.00000E+00         0.00000E+00         0.00000E+00
 
    0.92078E+06         0.28408E+07         0.00000E+00
    0.28408E+07        -0.37032E+07         0.00000E+00
    0.00000E+00         0.00000E+00         0.00000E+00
 
    0.85399E+06         0.29057E+07         0.00000E+00
    0.29057E+07        -0.36772E+07         0.00000E+00
    0.00000E+00         0.00000E+00         0.00000E+00
 
    0.78705E+06         0.29703E+07         0.00000E+00
    0.29703E+07        -0.36505E+07         0.00000E+00
    0.00000E+00         0.00000E+00         0.00000E+00
 
    0.71994E+06         0.30345E+07         0.00000E+00
    0.30345E+07        -0.36233E+07         0.00000E+00
    0.00000E+00         0.00000E+00         0.00000E+00
 
    0.65264E+06         0.30983E+07         0.00000E+00
    0.30983E+07        -0.35953E+07         0.00000E+00
    0.00000E+00         0.00000E+00         0.00000E+00
 
    0.58514E+06         0.31618E+07         0.00000E+00
    0.31618E+07        -0.35667E+07         0.00000E+00
    0.00000E+00         0.00000E+00         0.00000E+00
 
    0.51740E+06         0.32249E+07         0.00000E+00
    0.32249E+07        -0.35374E+07         0.00000E+00
    0.00000E+00         0.00000E+00         0.00000E+00
 
    0.44942E+06         0.32877E+07         0.00000E+00
    0.32877E+07        -0.35074E+07         0.00000E+00
    0.00000E+00         0.00000E+00         0.00000E+00
 
    0.38116E+06         0.33501E+07         0.00000E+00
    0.33501E+07        -0.34767E+07         0.00000E+00
    0.00000E+00         0.00000E+00         0.00000E+00
 
    0.31262E+06         0.34122E+07         0.00000E+00
    0.34122E+07        -0.34453E+07         0.00000E+00
    0.00000E+00         0.00000E+00         0.00000E+00
 
    0.24376E+06         0.34740E+07         0.00000E+00
    0.34740E+07        -0.34131E+07         0.00000E+00
    0.00000E+00         0.00000E+00         0.00000E+00
 
    0.17456E+06         0.35355E+07         0.00000E+00
    0.35355E+07        -0.33802E+07         0.00000E+00
    0.00000E+00         0.00000E+00         0.00000E+00
 
    0.10501E+06         0.35966E+07         0.00000E+00
    0.35966E+07        -0.33466E+07         0.00000E+00
    0.00000E+00         0.00000E+00         0.00000E+00
 
    0.35068E+05         0.36574E+07         0.00000E+00
    0.36574E+07        -0.33122E+07         0.00000E+00
    0.00000E+00         0.00000E+00         0.00000E+00
 
    0.34507E+07         0.52387E+05         0.00000E+00
    0.52387E+05        -0.45387E+07         0.00000E+00
    0.00000E+00         0.00000E+00         0.00000E+00
 
    0.33817E+07         0.15244E+06         0.00000E+00
    0.15244E+06        -0.45375E+07         0.00000E+00
    0.00000E+00         0.00000E+00         0.00000E+00
 
    0.33122E+07         0.25084E+06         0.00000E+00
    0.25084E+06        -0.45354E+07         0.00000E+00
    0.00000E+00         0.00000E+00         0.00000E+00
 
    0.32424E+07         0.34764E+06         0.00000E+00
    0.34764E+06        -0.45323E+07         0.00000E+00
    0.00000E+00         0.00000E+00         0.00000E+00
 
    0.31722E+07         0.44289E+06         0.00000E+00
    0.44289E+06        -0.45283E+07         0.00000E+00
    0.00000E+00         0.00000E+00         0.00000E+00
 
    0.31018E+07         0.53664E+06         0.00000E+00
    0.53664E+06        -0.45233E+07         0.00000E+00
    0.00000E+00         0.00000E+00         0.00000E+00
 
    0.30311E+07         0.62894E+06         0.00000E+00
    0.62894E+06        -0.45176E+07         0.00000E+00
    0.00000E+00         0.00000E+00         0.00000E+00
 
    0.29603E+07         0.71984E+06         0.00000E+00
    0.71984E+06        -0.45110E+07         0.00000E+00
    0.00000E+00         0.00000E+00         0.00000E+00
 
    0.28895E+07         0.80941E+06         0.00000E+00
    0.80941E+06        -0.45036E+07         0.00000E+00
    0.00000E+00         0.00000E+00         0.00000E+00
 
    0.28185E+07         0.89768E+06         0.00000E+00
    0.89768E+06        -0.44956E+07         0.00000E+00
    0.00000E+00         0.00000E+00         0.00000E+00
 
    0.27476E+07         0.98471E+06         0.00000E+00
    0.98471E+06        -0.44868E+07         0.00000E+00
    0.00000E+00         0.00000E+00         0.00000E+00
 
    0.26766E+07         0.10706E+07         0.00000E+00
    0.10706E+07        -0.44773E+07         0.00000E+00
    0.00000E+00         0.00000E+00         0.00000E+00
 
    0.26057E+07         0.11553E+07         0.00000E+00
    0.11553E+07        -0.44671E+07         0.00000E+00
    0.00000E+00         0.00000E+00         0.00000E+00
 
    0.25349E+07         0.12389E+07         0.00000E+00
    0.12389E+07        -0.44563E+07         0.00000E+00
    0.00000E+00         0.00000E+00         0.00000E+00
 
    0.24642E+07         0.13214E+07         0.00000E+00
    0.13214E+07        -0.44449E+07         0.00000E+00
    0.00000E+00         0.00000E+00         0.00000E+00
 
    0.23936E+07         0.14030E+07         0.00000E+00
    0.14030E+07        -0.44329E+07         0.00000E+00
    0.00000E+00         0.00000E+00         0.00000E+00
 
    0.23231E+07         0.14836E+07         0.00000E+00
    0.14836E+07        -0.44202E+07         0.00000E+00
    0.00000E+00         0.00000E+00         0.00000E+00
 
    0.22527E+07         0.15634E+07         0.00000E+00
    0.15634E+07        -0.44070E+07         0.00000E+00
    0.00000E+00         0.00000E+00         0.00000E+00
 
    0.21825E+07         0.16422E+07         0.00000E+00
    0.16422E+07        -0.43932E+07         0.00000E+00
    0.00000E+00         0.00000E+00         0.00000E+00
 
    0.21125E+07         0.17203E+07         0.00000E+00
    0.17203E+07        -0.43788E+07         0.00000E+00
    0.00000E+00         0.00000E+00         0.00000E+00
 
    0.20426E+07         0.17976E+07         0.00000E+00
    0.17976E+07        -0.43638E+07         0.00000E+00
    0.00000E+00         0.00000E+00         0.00000E+00
 
    0.19729E+07         0.18741E+07         0.00000E+00
    0.18741E+07        -0.43482E+07         0.00000E+00
    0.00000E+00         0.00000E+00         0.00000E+00
 
    0.19034E+07         0.19500E+07         0.00000E+00
    0.19500E+07        -0.43321E+07         0.00000E+00
    0.00000E+00         0.00000E+00         0.00000E+00
 
    0.18340E+07         0.20252E+07         0.00000E+00
    0.20252E+07        -0.43154E+07         0.00000E+00
    0.00000E+00         0.00000E+00         0.00000E+00
 
    0.17647E+07         0.20997E+07         0.00000E+00
    0.20997E+07        -0.42981E+07         0.00000E+00
    0.00000E+00         0.00000E+00         0.00000E+00
 
    0.16956E+07         0.21737E+07         0.00000E+00
    0.21737E+07        -0.42803E+07         0.00000E+00
    0.00000E+00         0.00000E+00         0.00000E+00
 
    0.16267E+07         0.22471E+07         0.00000E+00
    0.22471E+07        -0.42619E+07         0.00000E+00
    0.00000E+00         0.00000E+00         0.00000E+00
 
    0.15578E+07         0.23200E+07         0.00000E+00
    0.23200E+07        -0.42428E+07         0.00000E+00
    0.00000E+00         0.00000E+00         0.00000E+00
 
    0.14891E+07         0.23924E+07         0.00000E+00
    0.23924E+07        -0.42232E+07         0.00000E+00
    0.00000E+00         0.00000E+00         0.00000E+00
 
    0.14205E+07         0.24643E+07         0.00000E+00
    0.24643E+07        -0.42030E+07         0.00000E+00
    0.00000E+00         0.00000E+00         0.00000E+00
 
    0.13520E+07         0.25358E+07         0.00000E+00
    0.25358E+07        -0.41822E+07         0.00000E+00
    0.00000E+00         0.00000E+00         0.00000E+00
 
    0.12835E+07         0.26069E+07         0.00000E+00
    0.26069E+07        -0.41607E+07         0.00000E+00
    0.00000E+00         0.00000E+00         0.00000E+00
 
    0.12150E+07         0.26775E+07         0.00000E+00
    0.26775E+07        -0.41386E+07         0.00000E+00
    0.00000E+00         0.00000E+00         0.00000E+00
 
    0.11466E+07         0.27478E+07         0.00000E+00
    0.27478E+07        -0.41158E+07         0.00000E+00
    0.00000E+00         0.00000E+00         0.00000E+00
 
    0.10782E+07         0.28178E+07         0.00000E+00
    0.28178E+07        -0.40924E+07         0.00000E+00
    0.00000E+00         0.00000E+00         0.00000E+00
 
    0.10098E+07         0.28873E+07         0.00000E+00
    0.28873E+07        -0.40683E+07         0.00000E+00
    0.00000E+00         0.00000E+00         0.00000E+00
 
    0.94131E+06         0.29566E+07         0.00000E+00
    0.29566E+07        -0.40436E+07         0.00000E+00
    0.00000E+00         0.00000E+00         0.00000E+00
 
    0.87278E+06         0.30256E+07         0.00000E+00
    0.30256E+07        -0.40181E+07         0.00000E+00
    0.00000E+00         0.00000E+00         0.00000E+00
 
    0.80415E+06         0.30942E+07         0.00000E+00
    0.30942E+07        -0.39919E+07         0.00000E+00
    0.00000E+00         0.00000E+00         0.00000E+00
 
    0.73541E+06         0.31626E+07         0.00000E+00
    0.31626E+07        -0.39650E+07         0.00000E+00
    0.00000E+00         0.00000E+00         0.00000E+00
 
    0.66652E+06         0.32307E+07         0.00000E+00
    0.32307E+07        -0.39374E+07         0.00000E+00
    0.00000E+00         0.00000E+00         0.00000E+00
 
    0.59747E+06         0.32986E+07         0.00000E+00
    0.32986E+07        -0.39089E+07         0.00000E+00
    0.00000E+00         0.00000E+00         0.00000E+00
 
    0.52823E+06         0.33662E+07         0.00000E+00
    0.33662E+07        -0.38798E+07         0.00000E+00
    0.00000E+00         0.00000E+00         0.00000E+00
 
    0.45876E+06         0.34335E+07         0.00000E+00
    0.34335E+07        -0.38498E+07         0.00000E+00
    0.00000E+00         0.00000E+00         0.00000E+00
 
    0.38905E+06         0.35006E+07         0.00000E+00
    0.35006E+07        -0.38190E+07         0.00000E+00
    0.00000E+00         0.00000E+00         0.00000E+00
 
    0.31906E+06         0.35674E+07         0.00000E+00
    0.35674E+07        -0.37875E+07         0.00000E+00
    0.00000E+00         0.00000E+00         0.00000E+00
 
    0.24876E+06         0.36340E+07         0.00000E+00
    0.36340E+07        -0.37551E+07         0.00000E+00
    0.00000E+00         0.00000E+00         0.00000E+00
 
    0.17814E+06         0.37004E+07         0.00000E+00
    0.37004E+07        -0.37218E+07         0.00000E+00
    0.00000E+00         0.00000E+00         0.00000E+00
 
    0.10716E+06         0.37665E+07         0.00000E+00
    0.37665E+07        -0.36877E+07         0.00000E+00
    0.00000E+00         0.00000E+00         0.00000E+00
 
    0.35785E+05         0.38324E+07         0.00000E+00
    0.38324E+07        -0.36527E+07         0.00000E+00
    0.00000E+00         0.00000E+00         0.00000E+00
 
    0.36226E+07         0.54455E+05         0.00000E+00
    0.54455E+05        -0.48808E+07         0.00000E+00
    0.00000E+00         0.00000E+00         0.00000E+00
 
    0.35447E+07         0.15808E+06         0.00000E+00
    0.15808E+06        -0.48797E+07         0.00000E+00
    0.00000E+00         0.00000E+00         0.00000E+00
 
    0.34667E+07         0.25988E+06         0.00000E+00
    0.25988E+06        -0.48778E+07         0.00000E+00
    0.00000E+00         0.00000E+00         0.00000E+00
 
    0.33886E+07         0.35992E+06         0.00000E+00
    0.35992E+06        -0.48749E+07         0.00000E+00
    0.00000E+00         0.00000E+00         0.00000E+00
 
    0.33105E+07         0.45826E+06         0.00000E+00
    0.45826E+06        -0.48712E+07         0.00000E+00
    0.00000E+00         0.00000E+00         0.00000E+00
 
    0.32324E+07         0.55497E+06         0.00000E+00
    0.55497E+06        -0.48667E+07         0.00000E+00
    0.00000E+00         0.00000E+00         0.00000E+00
 
    0.31544E+07         0.65013E+06         0.00000E+00
    0.65013E+06        -0.48615E+07         0.00000E+00
    0.00000E+00         0.00000E+00         0.00000E+00
 
    0.30766E+07         0.74379E+06         0.00000E+00
    0.74379E+06        -0.48555E+07         0.00000E+00
    0.00000E+00         0.00000E+00         0.00000E+00
 
    0.29989E+07         0.83604E+06         0.00000E+00
    0.83604E+06        -0.48489E+07         0.00000E+00
    0.00000E+00         0.00000E+00         0.00000E+00
 
    0.29215E+07         0.92692E+06         0.00000E+00
    0.92692E+06        -0.48415E+07         0.00000E+00
    0.00000E+00         0.00000E+00         0.00000E+00
 
    0.28444E+07         0.10165E+07         0.00000E+00
    0.10165E+07        -0.48336E+07         0.00000E+00
    0.00000E+00         0.00000E+00         0.00000E+00
 
    0.27676E+07         0.11049E+07         0.00000E+00
    0.11049E+07        -0.48250E+07         0.00000E+00
    0.00000E+00         0.00000E+00         0.00000E+00
 
    0.26910E+07         0.11921E+07         0.00000E+00
    0.11921E+07        -0.48159E+07         0.00000E+00
    0.00000E+00         0.00000E+00         0.00000E+00
 
    0.26149E+07         0.12782E+07         0.00000E+00
    0.12782E+07        -0.48061E+07         0.00000E+00
    0.00000E+00         0.00000E+00         0.00000E+00
 
    0.25391E+07         0.13632E+07         0.00000E+00
    0.13632E+07        -0.47958E+07         0.00000E+00
    0.00000E+00         0.00000E+00         0.00000E+00
 
    0.24636E+07         0.14473E+07         0.00000E+00
    0.14473E+07        -0.47850E+07         0.00000E+00
    0.00000E+00         0.00000E+00         0.00000E+00
 
    0.23885E+07         0.15304E+07         0.00000E+00
    0.15304E+07        -0.47736E+07         0.00000E+00
    0.00000E+00         0.00000E+00         0.00000E+00
 
    0.23139E+07         0.16127E+07         0.00000E+00
    0.16127E+07        -0.47616E+07         0.00000E+00
    0.00000E+00         0.00000E+00         0.00000E+00
 
    0.22396E+07         0.16941E+07         0.00000E+00
    0.16941E+07        -0.47491E+07         0.00000E+00
    0.00000E+00         0.00000E+00         0.00000E+00
 
    0.21657E+07         0.17748E+07         0.00000E+00
    0.17748E+07        -0.47361E+07         0.00000E+00
    0.00000E+00         0.00000E+00         0.00000E+00
 
    0.20922E+07         0.18548E+07         0.00000E+00
    0.18548E+07        -0.47225E+07         0.00000E+00
    0.00000E+00         0.00000E+00         0.00000E+00
 
    0.20190E+07         0.19341E+07         0.00000E+00
    0.19341E+07        -0.47084E+07         0.00000E+00
    0.00000E+00         0.00000E+00         0.00000E+00
 
    0.19462E+07         0.20127E+07         0.00000E+00
    0.20127E+07        -0.46937E+07         0.00000E+00
    0.00000E+00         0.00000E+00         0.00000E+00
 
    0.18738E+07         0.20908E+07         0.00000E+00
    0.20908E+07        -0.46784E+07         0.00000E+00
    0.00000E+00         0.00000E+00         0.00000E+00
 
    0.18017E+07         0.21683E+07         0.00000E+00
    0.21683E+07        -0.46626E+07         0.00000E+00
    0.00000E+00         0.00000E+00         0.00000E+00
 
    0.17299E+07         0.22454E+07         0.00000E+00
    0.22454E+07        -0.46462E+07         0.00000E+00
    0.00000E+00         0.00000E+00         0.00000E+00
 
    0.16585E+07         0.23219E+07         0.00000E+00
    0.23219E+07        -0.46292E+07         0.00000E+00
    0.00000E+00         0.00000E+00         0.00000E+00
 
    0.15873E+07         0.23981E+07         0.00000E+00
    0.23981E+07        -0.46117E+07         0.00000E+00
    0.00000E+00         0.00000E+00         0.00000E+00
 
    0.15163E+07         0.24738E+07         0.00000E+00
    0.24738E+07        -0.45934E+07         0.00000E+00
    0.00000E+00         0.00000E+00         0.00000E+00
 
    0.14457E+07         0.25492E+07         0.00000E+00
    0.25492E+07        -0.45746E+07         0.00000E+00
    0.00000E+00         0.00000E+00         0.00000E+00
 
    0.13752E+07         0.26242E+07         0.00000E+00
    0.26242E+07        -0.45551E+07         0.00000E+00
    0.00000E+00         0.00000E+00         0.00000E+00
 
    0.13049E+07         0.26989E+07         0.00000E+00
    0.26989E+07        -0.45350E+07         0.00000E+00
    0.00000E+00         0.00000E+00         0.00000E+00
 
    0.12348E+07         0.27734E+07         0.00000E+00
    0.27734E+07        -0.45141E+07         0.00000E+00
    0.00000E+00         0.00000E+00         0.00000E+00
 
    0.11648E+07         0.28476E+07         0.00000E+00
    0.28476E+07        -0.44926E+07         0.00000E+00
    0.00000E+00         0.00000E+00         0.00000E+00
 
    0.10948E+07         0.29215E+07         0.00000E+00
    0.29215E+07        -0.44703E+07         0.00000E+00
    0.00000E+00         0.00000E+00         0.00000E+00
 
    0.10250E+07         0.29952E+07         0.00000E+00
    0.29952E+07        -0.44474E+07         0.00000E+00
    0.00000E+00         0.00000E+00         0.00000E+00
 
    0.95521E+06         0.30687E+07         0.00000E+00
    0.30687E+07        -0.44236E+07         0.00000E+00
    0.00000E+00         0.00000E+00         0.00000E+00
 
    0.88542E+06         0.31420E+07         0.00000E+00
    0.31420E+07        -0.43991E+07         0.00000E+00
    0.00000E+00         0.00000E+00         0.00000E+00
 
    0.81560E+06         0.32152E+07         0.00000E+00
    0.32152E+07        -0.43738E+07         0.00000E+00
    0.00000E+00         0.00000E+00         0.00000E+00
 
    0.74572E+06         0.32881E+07         0.00000E+00
    0.32881E+07        -0.43477E+07         0.00000E+00
    0.00000E+00         0.00000E+00         0.00000E+00
 
    0.67575E+06         0.33610E+07         0.00000E+00
    0.33610E+07        -0.43207E+07         0.00000E+00
    0.00000E+00         0.00000E+00         0.00000E+00
 
    0.60565E+06         0.34336E+07         0.00000E+00
    0.34336E+07        -0.42929E+07         0.00000E+00
    0.00000E+00         0.00000E+00         0.00000E+00
 
    0.53539E+06         0.35062E+07         0.00000E+00
    0.35062E+07        -0.42642E+07         0.00000E+00
    0.00000E+00         0.00000E+00         0.00000E+00
 
    0.46494E+06         0.35786E+07         0.00000E+00
    0.35786E+07        -0.42346E+07         0.00000E+00
    0.00000E+00         0.00000E+00         0.00000E+00
 
    0.39426E+06         0.36508E+07         0.00000E+00
    0.36508E+07        -0.42042E+07         0.00000E+00
    0.00000E+00         0.00000E+00         0.00000E+00
 
    0.32332E+06         0.37230E+07         0.00000E+00
    0.37230E+07        -0.41727E+07         0.00000E+00
    0.00000E+00         0.00000E+00         0.00000E+00
 
    0.25209E+06         0.37950E+07         0.00000E+00
    0.37950E+07        -0.41404E+07         0.00000E+00
    0.00000E+00         0.00000E+00         0.00000E+00
 
    0.18052E+06         0.38668E+07         0.00000E+00
    0.38668E+07        -0.41070E+07         0.00000E+00
    0.00000E+00         0.00000E+00         0.00000E+00
 
    0.10859E+06         0.39386E+07         0.00000E+00
    0.39386E+07        -0.40727E+07         0.00000E+00
    0.00000E+00         0.00000E+00         0.00000E+00
 
    0.36267E+05         0.40102E+07         0.00000E+00
    0.40102E+07        -0.40374E+07         0.00000E+00
    0.00000E+00         0.00000E+00         0.00000E+00
 
    0.37827E+07         0.56260E+05         0.00000E+00
    0.56260E+05        -0.52518E+07         0.00000E+00
    0.00000E+00         0.00000E+00         0.00000E+00
 
    0.36950E+07         0.16293E+06         0.00000E+00
    0.16293E+06        -0.52509E+07         0.00000E+00
    0.00000E+00         0.00000E+00         0.00000E+00
 
    0.36076E+07         0.26758E+06         0.00000E+00
    0.26758E+06        -0.52491E+07         0.00000E+00
    0.00000E+00         0.00000E+00         0.00000E+00
 
    0.35205E+07         0.37031E+06         0.00000E+00
    0.37031E+06        -0.52467E+07         0.00000E+00
    0.00000E+00         0.00000E+00         0.00000E+00
 
    0.34337E+07         0.47121E+06         0.00000E+00
    0.47121E+06        -0.52435E+07         0.00000E+00
    0.00000E+00         0.00000E+00         0.00000E+00
 
    0.33474E+07         0.57036E+06         0.00000E+00
    0.57036E+06        -0.52397E+07         0.00000E+00
    0.00000E+00         0.00000E+00         0.00000E+00
 
    0.32615E+07         0.66786E+06         0.00000E+00
    0.66786E+06        -0.52352E+07         0.00000E+00
    0.00000E+00         0.00000E+00         0.00000E+00
 
    0.31762E+07         0.76379E+06         0.00000E+00
    0.76379E+06        -0.52301E+07         0.00000E+00
    0.00000E+00         0.00000E+00         0.00000E+00
 
    0.30915E+07         0.85823E+06         0.00000E+00
    0.85823E+06        -0.52244E+07         0.00000E+00
    0.00000E+00         0.00000E+00         0.00000E+00
 
    0.30073E+07         0.95127E+06         0.00000E+00
    0.95127E+06        -0.52183E+07         0.00000E+00
    0.00000E+00         0.00000E+00         0.00000E+00
 
    0.29238E+07         0.10430E+07         0.00000E+00
    0.10430E+07        -0.52115E+07         0.00000E+00
    0.00000E+00         0.00000E+00         0.00000E+00
 
    0.28409E+07         0.11335E+07         0.00000E+00
    0.11335E+07        -0.52043E+07         0.00000E+00
    0.00000E+00         0.00000E+00         0.00000E+00
 
    0.27587E+07         0.12228E+07         0.00000E+00
    0.12228E+07        -0.51966E+07         0.00000E+00
    0.00000E+00         0.00000E+00         0.00000E+00
 
    0.26771E+07         0.13110E+07         0.00000E+00
    0.13110E+07        -0.51884E+07         0.00000E+00
    0.00000E+00         0.00000E+00         0.00000E+00
 
    0.25963E+07         0.13982E+07         0.00000E+00
    0.13982E+07        -0.51797E+07         0.00000E+00
    0.00000E+00         0.00000E+00         0.00000E+00
 
    0.25161E+07         0.14844E+07         0.00000E+00
    0.14844E+07        -0.51705E+07         0.00000E+00
    0.00000E+00         0.00000E+00         0.00000E+00
 
    0.24366E+07         0.15698E+07         0.00000E+00
    0.15698E+07        -0.51608E+07         0.00000E+00
    0.00000E+00         0.00000E+00         0.00000E+00
 
    0.23578E+07         0.16544E+07         0.00000E+00
    0.16544E+07        -0.51507E+07         0.00000E+00
    0.00000E+00         0.00000E+00         0.00000E+00
 
    0.22796E+07         0.17382E+07         0.00000E+00
    0.17382E+07        -0.51400E+07         0.00000E+00
    0.00000E+00         0.00000E+00         0.00000E+00
 
    0.22021E+07         0.18213E+07         0.00000E+00
    0.18213E+07        -0.51289E+07         0.00000E+00
    0.00000E+00         0.00000E+00         0.00000E+00
 
    0.21253E+07         0.19038E+07         0.00000E+00
    0.19038E+07        -0.51173E+07         0.00000E+00
    0.00000E+00         0.00000E+00         0.00000E+00
 
    0.20491E+07         0.19857E+07         0.00000E+00
    0.19857E+07        -0.51052E+07         0.00000E+00
    0.00000E+00         0.00000E+00         0.00000E+00
 
    0.19734E+07         0.20671E+07         0.00000E+00
    0.20671E+07        -0.50925E+07         0.00000E+00
    0.00000E+00         0.00000E+00         0.00000E+00
 
    0.18984E+07         0.21480E+07         0.00000E+00
    0.21480E+07        -0.50793E+07         0.00000E+00
    0.00000E+00         0.00000E+00         0.00000E+00
 
    0.18239E+07         0.22285E+07         0.00000E+00
    0.22285E+07        -0.50655E+07         0.00000E+00
    0.00000E+00         0.00000E+00         0.00000E+00
 
    0.17499E+07         0.23086E+07         0.00000E+00
    0.23086E+07        -0.50511E+07         0.00000E+00
    0.00000E+00         0.00000E+00         0.00000E+00
 
    0.16764E+07         0.23884E+07         0.00000E+00
    0.23884E+07        -0.50362E+07         0.00000E+00
    0.00000E+00         0.00000E+00         0.00000E+00
 
    0.16034E+07         0.24679E+07         0.00000E+00
    0.24679E+07        -0.50206E+07         0.00000E+00
    0.00000E+00         0.00000E+00         0.00000E+00
 
    0.15308E+07         0.25471E+07         0.00000E+00
    0.25471E+07        -0.50044E+07         0.00000E+00
    0.00000E+00         0.00000E+00         0.00000E+00
 
    0.14586E+07         0.26261E+07         0.00000E+00
    0.26261E+07        -0.49875E+07         0.00000E+00
    0.00000E+00         0.00000E+00         0.00000E+00
 
    0.13867E+07         0.27049E+07         0.00000E+00
    0.27049E+07        -0.49699E+07         0.00000E+00
    0.00000E+00         0.00000E+00         0.00000E+00
 
    0.13152E+07         0.27835E+07         0.00000E+00
    0.27835E+07        -0.49517E+07         0.00000E+00
    0.00000E+00         0.00000E+00         0.00000E+00
 
    0.12440E+07         0.28620E+07         0.00000E+00
    0.28620E+07        -0.49326E+07         0.00000E+00
    0.00000E+00         0.00000E+00         0.00000E+00
 
    0.11730E+07         0.29403E+07         0.00000E+00
    0.29403E+07        -0.49129E+07         0.00000E+00
    0.00000E+00         0.00000E+00         0.00000E+00
 
    0.11022E+07         0.30186E+07         0.00000E+00
    0.30186E+07        -0.48923E+07         0.00000E+00
    0.00000E+00         0.00000E+00         0.00000E+00
 
    0.10315E+07         0.30968E+07         0.00000E+00
    0.30968E+07        -0.48710E+07         0.00000E+00
    0.00000E+00         0.00000E+00         0.00000E+00
 
    0.96102E+06         0.31749E+07         0.00000E+00
    0.31749E+07        -0.48488E+07         0.00000E+00
    0.00000E+00         0.00000E+00         0.00000E+00
 
    0.89059E+06         0.32530E+07         0.00000E+00
    0.32530E+07        -0.48257E+07         0.00000E+00
    0.00000E+00         0.00000E+00         0.00000E+00
 
    0.82019E+06         0.33310E+07         0.00000E+00
    0.33310E+07        -0.48018E+07         0.00000E+00
    0.00000E+00         0.00000E+00         0.00000E+00
 
    0.74979E+06         0.34091E+07         0.00000E+00
    0.34091E+07        -0.47769E+07         0.00000E+00
    0.00000E+00         0.00000E+00         0.00000E+00
 
    0.67935E+06         0.34871E+07         0.00000E+00
    0.34871E+07        -0.47511E+07         0.00000E+00
    0.00000E+00         0.00000E+00         0.00000E+00
 
    0.60882E+06         0.35651E+07         0.00000E+00
    0.35651E+07        -0.47243E+07         0.00000E+00
    0.00000E+00         0.00000E+00         0.00000E+00
 
    0.53816E+06         0.36431E+07         0.00000E+00
    0.36431E+07        -0.46966E+07         0.00000E+00
    0.00000E+00         0.00000E+00         0.00000E+00
 
    0.46733E+06         0.37211E+07         0.00000E+00
    0.37211E+07        -0.46678E+07         0.00000E+00
    0.00000E+00         0.00000E+00         0.00000E+00
 
    0.39629E+06         0.37992E+07         0.00000E+00
    0.37992E+07        -0.46380E+07         0.00000E+00
    0.00000E+00         0.00000E+00         0.00000E+00
 
    0.32500E+06         0.38772E+07         0.00000E+00
    0.38772E+07        -0.46071E+07         0.00000E+00
    0.00000E+00         0.00000E+00         0.00000E+00
 
    0.25341E+06         0.39552E+07         0.00000E+00
    0.39552E+07        -0.45752E+07         0.00000E+00
    0.00000E+00         0.00000E+00         0.00000E+00
 
    0.18148E+06         0.40333E+07         0.00000E+00
    0.40333E+07        -0.45421E+07         0.00000E+00
    0.00000E+00         0.00000E+00         0.00000E+00
 
    0.10918E+06         0.41113E+07         0.00000E+00
    0.41113E+07        -0.45079E+07         0.00000E+00
    0.00000E+00         0.00000E+00         0.00000E+00
 
    0.36467E+05         0.41893E+07         0.00000E+00
    0.41893E+07        -0.44725E+07         0.00000E+00
    0.00000E+00         0.00000E+00         0.00000E+00
 
    0.39245E+07         0.57686E+05         0.00000E+00
    0.57686E+05        -0.56550E+07         0.00000E+00
    0.00000E+00         0.00000E+00         0.00000E+00
 
    0.38260E+07         0.16663E+06         0.00000E+00
    0.16663E+06        -0.56543E+07         0.00000E+00
    0.00000E+00         0.00000E+00         0.00000E+00
 
    0.37283E+07         0.27338E+06         0.00000E+00
    0.27338E+06        -0.56530E+07         0.00000E+00
    0.00000E+00         0.00000E+00         0.00000E+00
 
    0.36314E+07         0.37807E+06         0.00000E+00
    0.37807E+06        -0.56511E+07         0.00000E+00
    0.00000E+00         0.00000E+00         0.00000E+00
 
    0.35354E+07         0.48080E+06         0.00000E+00
    0.48080E+06        -0.56486E+07         0.00000E+00
    0.00000E+00         0.00000E+00         0.00000E+00
 
    0.34403E+07         0.58169E+06         0.00000E+00
    0.58169E+06        -0.56457E+07         0.00000E+00
    0.00000E+00         0.00000E+00         0.00000E+00
 
    0.33462E+07         0.68084E+06         0.00000E+00
    0.68084E+06        -0.56422E+07         0.00000E+00
    0.00000E+00         0.00000E+00         0.00000E+00
 
    0.32530E+07         0.77836E+06         0.00000E+00
    0.77836E+06        -0.56384E+07         0.00000E+00
    0.00000E+00         0.00000E+00         0.00000E+00
 
    0.31609E+07         0.87436E+06         0.00000E+00
    0.87436E+06        -0.56341E+07         0.00000E+00
    0.00000E+00         0.00000E+00         0.00000E+00
 
    0.30699E+07         0.96894E+06         0.00000E+00
    0.96894E+06        -0.56295E+07         0.00000E+00
    0.00000E+00         0.00000E+00         0.00000E+00
 
    0.29799E+07         0.10622E+07         0.00000E+00
    0.10622E+07        -0.56244E+07         0.00000E+00
    0.00000E+00         0.00000E+00         0.00000E+00
 
    0.28909E+07         0.11542E+07         0.00000E+00
    0.11542E+07        -0.56190E+07         0.00000E+00
    0.00000E+00         0.00000E+00         0.00000E+00
 
    0.28031E+07         0.12452E+07         0.00000E+00
    0.12452E+07        -0.56132E+07         0.00000E+00
    0.00000E+00         0.00000E+00         0.00000E+00
 
    0.27163E+07         0.13350E+07         0.00000E+00
    0.13350E+07        -0.56071E+07         0.00000E+00
    0.00000E+00         0.00000E+00         0.00000E+00
 
    0.26306E+07         0.14239E+07         0.00000E+00
    0.14239E+07        -0.56005E+07         0.00000E+00
    0.00000E+00         0.00000E+00         0.00000E+00
 
    0.25459E+07         0.15120E+07         0.00000E+00
    0.15120E+07        -0.55936E+07         0.00000E+00
    0.00000E+00         0.00000E+00         0.00000E+00
 
    0.24623E+07         0.15992E+07         0.00000E+00
    0.15992E+07        -0.55863E+07         0.00000E+00
    0.00000E+00         0.00000E+00         0.00000E+00
 
    0.23797E+07         0.16858E+07         0.00000E+00
    0.16858E+07        -0.55786E+07         0.00000E+00
    0.00000E+00         0.00000E+00         0.00000E+00
 
    0.22981E+07         0.17717E+07         0.00000E+00
    0.17717E+07        -0.55705E+07         0.00000E+00
    0.00000E+00         0.00000E+00         0.00000E+00
 
    0.22174E+07         0.18571E+07         0.00000E+00
    0.18571E+07        -0.55619E+07         0.00000E+00
    0.00000E+00         0.00000E+00         0.00000E+00
 
    0.21377E+07         0.19419E+07         0.00000E+00
    0.19419E+07        -0.55529E+07         0.00000E+00
    0.00000E+00         0.00000E+00         0.00000E+00
 
    0.20590E+07         0.20263E+07         0.00000E+00
    0.20263E+07        -0.55434E+07         0.00000E+00
    0.00000E+00         0.00000E+00         0.00000E+00
 
    0.19810E+07         0.21103E+07         0.00000E+00
    0.21103E+07        -0.55334E+07         0.00000E+00
    0.00000E+00         0.00000E+00         0.00000E+00
 
    0.19040E+07         0.21940E+07         0.00000E+00
    0.21940E+07        -0.55229E+07         0.00000E+00
    0.00000E+00         0.00000E+00         0.00000E+00
 
    0.18277E+07         0.22775E+07         0.00000E+00
    0.22775E+07        -0.55118E+07         0.00000E+00
    0.00000E+00         0.00000E+00         0.00000E+00
 
    0.17521E+07         0.23607E+07         0.00000E+00
    0.23607E+07        -0.55002E+07         0.00000E+00
    0.00000E+00         0.00000E+00         0.00000E+00
 
    0.16773E+07         0.24438E+07         0.00000E+00
    0.24438E+07        -0.54879E+07         0.00000E+00
    0.00000E+00         0.00000E+00         0.00000E+00
 
    0.16031E+07         0.25267E+07         0.00000E+00
    0.25267E+07        -0.54750E+07         0.00000E+00
    0.00000E+00         0.00000E+00         0.00000E+00
 
    0.15296E+07         0.26095E+07         0.00000E+00
    0.26095E+07        -0.54615E+07         0.00000E+00
    0.00000E+00         0.00000E+00         0.00000E+00
 
    0.14566E+07         0.26923E+07         0.00000E+00
    0.26923E+07        -0.54472E+07         0.00000E+00
    0.00000E+00         0.00000E+00         0.00000E+00
 
    0.13841E+07         0.27751E+07         0.00000E+00
    0.27751E+07        -0.54322E+07         0.00000E+00
    0.00000E+00         0.00000E+00         0.00000E+00
 
    0.13121E+07         0.28578E+07         0.00000E+00
    0.28578E+07        -0.54165E+07         0.00000E+00
    0.00000E+00         0.00000E+00         0.00000E+00
 
    0.12405E+07         0.29406E+07         0.00000E+00
    0.29406E+07        -0.53999E+07         0.00000E+00
    0.00000E+00         0.00000E+00         0.00000E+00
 
    0.11692E+07         0.30235E+07         0.00000E+00
    0.30235E+07        -0.53826E+07         0.00000E+00
    0.00000E+00         0.00000E+00         0.00000E+00
 
    0.10983E+07         0.31065E+07         0.00000E+00
    0.31065E+07        -0.53643E+07         0.00000E+00
    0.00000E+00         0.00000E+00         0.00000E+00
 
    0.10276E+07         0.31895E+07         0.00000E+00
    0.31895E+07        -0.53452E+07         0.00000E+00
    0.00000E+00         0.00000E+00         0.00000E+00
 
    0.95713E+06         0.32727E+07         0.00000E+00
    0.32727E+07        -0.53251E+07         0.00000E+00
    0.00000E+00         0.00000E+00         0.00000E+00
 
    0.88682E+06         0.33560E+07         0.00000E+00
    0.33560E+07        -0.53041E+07         0.00000E+00
    0.00000E+00         0.00000E+00         0.00000E+00
 
    0.81660E+06         0.34395E+07         0.00000E+00
    0.34395E+07        -0.52821E+07         0.00000E+00
    0.00000E+00         0.00000E+00         0.00000E+00
 
    0.74644E+06         0.35231E+07         0.00000E+00
    0.35231E+07        -0.52590E+07         0.00000E+00
    0.00000E+00         0.00000E+00         0.00000E+00
 
    0.67627E+06         0.36069E+07         0.00000E+00
    0.36069E+07        -0.52349E+07         0.00000E+00
    0.00000E+00         0.00000E+00         0.00000E+00
 
    0.60605E+06         0.36908E+07         0.00000E+00
    0.36908E+07        -0.52097E+07         0.00000E+00
    0.00000E+00         0.00000E+00         0.00000E+00
 
    0.53573E+06         0.37749E+07         0.00000E+00
    0.37749E+07        -0.51833E+07         0.00000E+00
    0.00000E+00         0.00000E+00         0.00000E+00
 
    0.46524E+06         0.38592E+07         0.00000E+00
    0.38592E+07        -0.51558E+07         0.00000E+00
    0.00000E+00         0.00000E+00         0.00000E+00
 
    0.39456E+06         0.39437E+07         0.00000E+00
    0.39437E+07        -0.51271E+07         0.00000E+00
    0.00000E+00         0.00000E+00         0.00000E+00
 
    0.32362E+06         0.40283E+07         0.00000E+00
    0.40283E+07        -0.50972E+07         0.00000E+00
    0.00000E+00         0.00000E+00         0.00000E+00
 
    0.25237E+06         0.41131E+07         0.00000E+00
    0.41131E+07        -0.50661E+07         0.00000E+00
    0.00000E+00         0.00000E+00         0.00000E+00
 
    0.18078E+06         0.41980E+07         0.00000E+00
    0.41980E+07        -0.50336E+07         0.00000E+00
    0.00000E+00         0.00000E+00         0.00000E+00
 
    0.10878E+06         0.42831E+07         0.00000E+00
    0.42831E+07        -0.49999E+07         0.00000E+00
    0.00000E+00         0.00000E+00         0.00000E+00
 
    0.36338E+05         0.43683E+07         0.00000E+00
    0.43683E+07        -0.49648E+07         0.00000E+00
    0.00000E+00         0.00000E+00         0.00000E+00
 
    0.40395E+07         0.58584E+05         0.00000E+00
    0.58584E+05        -0.60944E+07         0.00000E+00
    0.00000E+00         0.00000E+00         0.00000E+00
 
    0.39294E+07         0.16878E+06         0.00000E+00
    0.16878E+06        -0.60940E+07         0.00000E+00
    0.00000E+00         0.00000E+00         0.00000E+00
 
    0.38207E+07         0.27663E+06         0.00000E+00
    0.27663E+06        -0.60931E+07         0.00000E+00
    0.00000E+00         0.00000E+00         0.00000E+00
 
    0.37134E+07         0.38229E+06         0.00000E+00
    0.38229E+06        -0.60920E+07         0.00000E+00
    0.00000E+00         0.00000E+00         0.00000E+00
 
    0.36076E+07         0.48589E+06         0.00000E+00
    0.48589E+06        -0.60905E+07         0.00000E+00
    0.00000E+00         0.00000E+00         0.00000E+00
 
    0.35033E+07         0.58758E+06         0.00000E+00
    0.58758E+06        -0.60888E+07         0.00000E+00
    0.00000E+00         0.00000E+00         0.00000E+00
 
    0.34006E+07         0.68749E+06         0.00000E+00
    0.68749E+06        -0.60868E+07         0.00000E+00
    0.00000E+00         0.00000E+00         0.00000E+00
 
    0.32994E+07         0.78576E+06         0.00000E+00
    0.78576E+06        -0.60846E+07         0.00000E+00
    0.00000E+00         0.00000E+00         0.00000E+00
 
    0.31999E+07         0.88250E+06         0.00000E+00
    0.88250E+06        -0.60822E+07         0.00000E+00
    0.00000E+00         0.00000E+00         0.00000E+00
 
    0.31019E+07         0.97785E+06         0.00000E+00
    0.97785E+06        -0.60795E+07         0.00000E+00
    0.00000E+00         0.00000E+00         0.00000E+00
 
    0.30055E+07         0.10719E+07         0.00000E+00
    0.10719E+07        -0.60767E+07         0.00000E+00
    0.00000E+00         0.00000E+00         0.00000E+00
 
    0.29107E+07         0.11649E+07         0.00000E+00
    0.11649E+07        -0.60737E+07         0.00000E+00
    0.00000E+00         0.00000E+00         0.00000E+00
 
    0.28175E+07         0.12567E+07         0.00000E+00
    0.12567E+07        -0.60704E+07         0.00000E+00
    0.00000E+00         0.00000E+00         0.00000E+00
 
    0.27258E+07         0.13477E+07         0.00000E+00
    0.13477E+07        -0.60669E+07         0.00000E+00
    0.00000E+00         0.00000E+00         0.00000E+00
 
    0.26356E+07         0.14378E+07         0.00000E+00
    0.14378E+07        -0.60632E+07         0.00000E+00
    0.00000E+00         0.00000E+00         0.00000E+00
 
    0.25469E+07         0.15271E+07         0.00000E+00
    0.15271E+07        -0.60593E+07         0.00000E+00
    0.00000E+00         0.00000E+00         0.00000E+00
 
    0.24597E+07         0.16158E+07         0.00000E+00
    0.16158E+07        -0.60550E+07         0.00000E+00
    0.00000E+00         0.00000E+00         0.00000E+00
 
    0.23739E+07         0.17040E+07         0.00000E+00
    0.17040E+07        -0.60504E+07         0.00000E+00
    0.00000E+00         0.00000E+00         0.00000E+00
 
    0.22895E+07         0.17917E+07         0.00000E+00
    0.17917E+07        -0.60455E+07         0.00000E+00
    0.00000E+00         0.00000E+00         0.00000E+00
 
    0.22064E+07         0.18790E+07         0.00000E+00
    0.18790E+07        -0.60403E+07         0.00000E+00
    0.00000E+00         0.00000E+00         0.00000E+00
 
    0.21246E+07         0.19659E+07         0.00000E+00
    0.19659E+07        -0.60346E+07         0.00000E+00
    0.00000E+00         0.00000E+00         0.00000E+00
 
    0.20440E+07         0.20527E+07         0.00000E+00
    0.20527E+07        -0.60285E+07         0.00000E+00
    0.00000E+00         0.00000E+00         0.00000E+00
 
    0.19646E+07         0.21392E+07         0.00000E+00
    0.21392E+07        -0.60220E+07         0.00000E+00
    0.00000E+00         0.00000E+00         0.00000E+00
 
    0.18863E+07         0.22256E+07         0.00000E+00
    0.22256E+07        -0.60149E+07         0.00000E+00
    0.00000E+00         0.00000E+00         0.00000E+00
 
    0.18091E+07         0.23120E+07         0.00000E+00
    0.23120E+07        -0.60073E+07         0.00000E+00
    0.00000E+00         0.00000E+00         0.00000E+00
 
    0.17328E+07         0.23984E+07         0.00000E+00
    0.23984E+07        -0.59992E+07         0.00000E+00
    0.00000E+00         0.00000E+00         0.00000E+00
 
    0.16575E+07         0.24848E+07         0.00000E+00
    0.24848E+07        -0.59904E+07         0.00000E+00
    0.00000E+00         0.00000E+00         0.00000E+00
 
    0.15831E+07         0.25712E+07         0.00000E+00
    0.25712E+07        -0.59809E+07         0.00000E+00
    0.00000E+00         0.00000E+00         0.00000E+00
 
    0.15095E+07         0.26579E+07         0.00000E+00
    0.26579E+07        -0.59708E+07         0.00000E+00
    0.00000E+00         0.00000E+00         0.00000E+00
 
    0.14366E+07         0.27447E+07         0.00000E+00
    0.27447E+07        -0.59599E+07         0.00000E+00
    0.00000E+00         0.00000E+00         0.00000E+00
 
    0.13644E+07         0.28316E+07         0.00000E+00
    0.28316E+07        -0.59482E+07         0.00000E+00
    0.00000E+00         0.00000E+00         0.00000E+00
 
    0.12928E+07         0.29189E+07         0.00000E+00
    0.29189E+07        -0.59357E+07         0.00000E+00
    0.00000E+00         0.00000E+00         0.00000E+00
 
    0.12218E+07         0.30063E+07         0.00000E+00
    0.30063E+07        -0.59223E+07         0.00000E+00
    0.00000E+00         0.00000E+00         0.00000E+00
 
    0.11512E+07         0.30941E+07         0.00000E+00
    0.30941E+07        -0.59080E+07         0.00000E+00
    0.00000E+00         0.00000E+00         0.00000E+00
 
    0.10811E+07         0.31822E+07         0.00000E+00
    0.31822E+07        -0.58928E+07         0.00000E+00
    0.00000E+00         0.00000E+00         0.00000E+00
 
    0.10113E+07         0.32706E+07         0.00000E+00
    0.32706E+07        -0.58765E+07         0.00000E+00
    0.00000E+00         0.00000E+00         0.00000E+00
 
    0.94180E+06         0.33593E+07         0.00000E+00
    0.33593E+07        -0.58593E+07         0.00000E+00
    0.00000E+00         0.00000E+00         0.00000E+00
 
    0.87253E+06         0.34484E+07         0.00000E+00
    0.34484E+07        -0.58409E+07         0.00000E+00
    0.00000E+00         0.00000E+00         0.00000E+00
 
    0.80340E+06         0.35378E+07         0.00000E+00
    0.35378E+07        -0.58214E+07         0.00000E+00
    0.00000E+00         0.00000E+00         0.00000E+00
 
    0.73437E+06         0.36276E+07         0.00000E+00
    0.36276E+07        -0.58008E+07         0.00000E+00
    0.00000E+00         0.00000E+00         0.00000E+00
 
    0.66537E+06         0.37178E+07         0.00000E+00
    0.37178E+07        -0.57789E+07         0.00000E+00
    0.00000E+00         0.00000E+00         0.00000E+00
 
    0.59634E+06         0.38083E+07         0.00000E+00
    0.38083E+07        -0.57558E+07         0.00000E+00
    0.00000E+00         0.00000E+00         0.00000E+00
 
    0.52722E+06         0.38992E+07         0.00000E+00
    0.38992E+07        -0.57314E+07         0.00000E+00
    0.00000E+00         0.00000E+00         0.00000E+00
 
    0.45795E+06         0.39905E+07         0.00000E+00
    0.39905E+07        -0.57057E+07         0.00000E+00
    0.00000E+00         0.00000E+00         0.00000E+00
 
    0.38846E+06         0.40821E+07         0.00000E+00
    0.40821E+07        -0.56787E+07         0.00000E+00
    0.00000E+00         0.00000E+00         0.00000E+00
 
    0.31870E+06         0.41741E+07         0.00000E+00
    0.41741E+07        -0.56502E+07         0.00000E+00
    0.00000E+00         0.00000E+00         0.00000E+00
 
    0.24861E+06         0.42664E+07         0.00000E+00
    0.42664E+07        -0.56204E+07         0.00000E+00
    0.00000E+00         0.00000E+00         0.00000E+00
 
    0.17814E+06         0.43591E+07         0.00000E+00
    0.43591E+07        -0.55890E+07         0.00000E+00
    0.00000E+00         0.00000E+00         0.00000E+00
 
    0.10723E+06         0.44520E+07         0.00000E+00
    0.44520E+07        -0.55562E+07         0.00000E+00
    0.00000E+00         0.00000E+00         0.00000E+00
 
    0.35830E+05         0.45453E+07         0.00000E+00
    0.45453E+07        -0.55218E+07         0.00000E+00
    0.00000E+00         0.00000E+00         0.00000E+00
 
    0.41176E+07         0.58774E+05         0.00000E+00
    0.58774E+05        -0.65743E+07         0.00000E+00
    0.00000E+00         0.00000E+00         0.00000E+00
 
    0.39950E+07         0.16887E+06         0.00000E+00
    0.16887E+06        -0.65742E+07         0.00000E+00
    0.00000E+00         0.00000E+00         0.00000E+00
 
    0.38747E+07         0.27651E+06         0.00000E+00
    0.27651E+06        -0.65740E+07         0.00000E+00
    0.00000E+00         0.00000E+00         0.00000E+00
 
    0.37565E+07         0.38187E+06         0.00000E+00
    0.38187E+06        -0.65738E+07         0.00000E+00
    0.00000E+00         0.00000E+00         0.00000E+00
 
    0.36405E+07         0.48511E+06         0.00000E+00
    0.48511E+06        -0.65736E+07         0.00000E+00
    0.00000E+00         0.00000E+00         0.00000E+00
 
    0.35269E+07         0.58643E+06         0.00000E+00
    0.58643E+06        -0.65735E+07         0.00000E+00
    0.00000E+00         0.00000E+00         0.00000E+00
 
    0.34155E+07         0.68596E+06         0.00000E+00
    0.68596E+06        -0.65733E+07         0.00000E+00
    0.00000E+00         0.00000E+00         0.00000E+00
 
    0.33063E+07         0.78389E+06         0.00000E+00
    0.78389E+06        -0.65733E+07         0.00000E+00
    0.00000E+00         0.00000E+00         0.00000E+00
 
    0.31995E+07         0.88036E+06         0.00000E+00
    0.88036E+06        -0.65732E+07         0.00000E+00
    0.00000E+00         0.00000E+00         0.00000E+00
 
    0.30948E+07         0.97552E+06         0.00000E+00
    0.97552E+06        -0.65732E+07         0.00000E+00
    0.00000E+00         0.00000E+00         0.00000E+00
 
    0.29924E+07         0.10695E+07         0.00000E+00
    0.10695E+07        -0.65732E+07         0.00000E+00
    0.00000E+00         0.00000E+00         0.00000E+00
 
    0.28922E+07         0.11625E+07         0.00000E+00
    0.11625E+07        -0.65732E+07         0.00000E+00
    0.00000E+00         0.00000E+00         0.00000E+00
 
    0.27941E+07         0.12545E+07         0.00000E+00
    0.12545E+07        -0.65732E+07         0.00000E+00
    0.00000E+00         0.00000E+00         0.00000E+00
 
    0.26982E+07         0.13458E+07         0.00000E+00
    0.13458E+07        -0.65732E+07         0.00000E+00
    0.00000E+00         0.00000E+00         0.00000E+00
 
    0.26042E+07         0.14364E+07         0.00000E+00
    0.14364E+07        -0.65730E+07         0.00000E+00
    0.00000E+00         0.00000E+00         0.00000E+00
 
    0.25123E+07         0.15265E+07         0.00000E+00
    0.15265E+07        -0.65728E+07         0.00000E+00
    0.00000E+00         0.00000E+00         0.00000E+00
 
    0.24223E+07         0.16162E+07         0.00000E+00
    0.16162E+07        -0.65723E+07         0.00000E+00
    0.00000E+00         0.00000E+00         0.00000E+00
 
    0.23342E+07         0.17055E+07         0.00000E+00
    0.17055E+07        -0.65717E+07         0.00000E+00
    0.00000E+00         0.00000E+00         0.00000E+00
 
    0.22478E+07         0.17946E+07         0.00000E+00
    0.17946E+07        -0.65709E+07         0.00000E+00
    0.00000E+00         0.00000E+00         0.00000E+00
 
    0.21632E+07         0.18835E+07         0.00000E+00
    0.18835E+07        -0.65698E+07         0.00000E+00
    0.00000E+00         0.00000E+00         0.00000E+00
 
    0.20803E+07         0.19723E+07         0.00000E+00
    0.19723E+07        -0.65683E+07         0.00000E+00
    0.00000E+00         0.00000E+00         0.00000E+00
 
    0.19989E+07         0.20612E+07         0.00000E+00
    0.20612E+07        -0.65665E+07         0.00000E+00
    0.00000E+00         0.00000E+00         0.00000E+00
 
    0.19191E+07         0.21501E+07         0.00000E+00
    0.21501E+07        -0.65642E+07         0.00000E+00
    0.00000E+00         0.00000E+00         0.00000E+00
 
    0.18407E+07         0.22392E+07         0.00000E+00
    0.22392E+07        -0.65615E+07         0.00000E+00
    0.00000E+00         0.00000E+00         0.00000E+00
 
    0.17636E+07         0.23284E+07         0.00000E+00
    0.23284E+07        -0.65582E+07         0.00000E+00
    0.00000E+00         0.00000E+00         0.00000E+00
 
    0.16877E+07         0.24180E+07         0.00000E+00
    0.24180E+07        -0.65544E+07         0.00000E+00
    0.00000E+00         0.00000E+00         0.00000E+00
 
    0.16131E+07         0.25078E+07         0.00000E+00
    0.25078E+07        -0.65499E+07         0.00000E+00
    0.00000E+00         0.00000E+00         0.00000E+00
 
    0.15396E+07         0.25980E+07         0.00000E+00
    0.25980E+07        -0.65448E+07         0.00000E+00
    0.00000E+00         0.00000E+00         0.00000E+00
 
    0.14670E+07         0.26886E+07         0.00000E+00
    0.26886E+07        -0.65388E+07         0.00000E+00
    0.00000E+00         0.00000E+00         0.00000E+00
 
    0.13954E+07         0.27797E+07         0.00000E+00
    0.27797E+07        -0.65321E+07         0.00000E+00
    0.00000E+00         0.00000E+00         0.00000E+00
 
    0.13246E+07         0.28712E+07         0.00000E+00
    0.28712E+07        -0.65246E+07         0.00000E+00
    0.00000E+00         0.00000E+00         0.00000E+00
 
    0.12546E+07         0.29632E+07         0.00000E+00
    0.29632E+07        -0.65161E+07         0.00000E+00
    0.00000E+00         0.00000E+00         0.00000E+00
 
    0.11853E+07         0.30558E+07         0.00000E+00
    0.30558E+07        -0.65067E+07         0.00000E+00
    0.00000E+00         0.00000E+00         0.00000E+00
 
    0.11166E+07         0.31489E+07         0.00000E+00
    0.31489E+07        -0.64962E+07         0.00000E+00
    0.00000E+00         0.00000E+00         0.00000E+00
 
    0.10484E+07         0.32426E+07         0.00000E+00
    0.32426E+07        -0.64847E+07         0.00000E+00
    0.00000E+00         0.00000E+00         0.00000E+00
 
    0.98058E+06         0.33368E+07         0.00000E+00
    0.33368E+07        -0.64721E+07         0.00000E+00
    0.00000E+00         0.00000E+00         0.00000E+00
 
    0.91315E+06         0.34316E+07         0.00000E+00
    0.34316E+07        -0.64583E+07         0.00000E+00
    0.00000E+00         0.00000E+00         0.00000E+00
 
    0.84600E+06         0.35271E+07         0.00000E+00
    0.35271E+07        -0.64433E+07         0.00000E+00
    0.00000E+00         0.00000E+00         0.00000E+00
 
    0.77905E+06         0.36231E+07         0.00000E+00
    0.36231E+07        -0.64271E+07         0.00000E+00
    0.00000E+00         0.00000E+00         0.00000E+00
 
    0.71222E+06         0.37198E+07         0.00000E+00
    0.37198E+07        -0.64095E+07         0.00000E+00
    0.00000E+00         0.00000E+00         0.00000E+00
 
    0.64544E+06         0.38170E+07         0.00000E+00
    0.38170E+07        -0.63905E+07         0.00000E+00
    0.00000E+00         0.00000E+00         0.00000E+00
 
    0.57863E+06         0.39149E+07         0.00000E+00
    0.39149E+07        -0.63702E+07         0.00000E+00
    0.00000E+00         0.00000E+00         0.00000E+00
 
    0.51173E+06         0.40134E+07         0.00000E+00
    0.40134E+07        -0.63484E+07         0.00000E+00
    0.00000E+00         0.00000E+00         0.00000E+00
 
    0.44465E+06         0.41124E+07         0.00000E+00
    0.41124E+07        -0.63251E+07         0.00000E+00
    0.00000E+00         0.00000E+00         0.00000E+00
 
    0.37734E+06         0.42120E+07         0.00000E+00
    0.42120E+07        -0.63002E+07         0.00000E+00
    0.00000E+00         0.00000E+00         0.00000E+00
 
    0.30972E+06         0.43122E+07         0.00000E+00
    0.43122E+07        -0.62737E+07         0.00000E+00
    0.00000E+00         0.00000E+00         0.00000E+00
 
    0.24173E+06         0.44130E+07         0.00000E+00
    0.44130E+07        -0.62457E+07         0.00000E+00
    0.00000E+00         0.00000E+00         0.00000E+00
 
    0.17330E+06         0.45142E+07         0.00000E+00
    0.45142E+07        -0.62159E+07         0.00000E+00
    0.00000E+00         0.00000E+00         0.00000E+00
 
    0.10438E+06         0.46160E+07         0.00000E+00
    0.46160E+07        -0.61844E+07         0.00000E+00
    0.00000E+00         0.00000E+00         0.00000E+00
 
    0.34891E+05         0.47183E+07         0.00000E+00
    0.47183E+07        -0.61512E+07         0.00000E+00
    0.00000E+00         0.00000E+00         0.00000E+00
 
    0.41461E+07         0.58039E+05         0.00000E+00
    0.58039E+05        -0.70995E+07         0.00000E+00
    0.00000E+00         0.00000E+00         0.00000E+00
 
    0.40105E+07         0.16632E+06         0.00000E+00
    0.16632E+06        -0.70998E+07         0.00000E+00
    0.00000E+00         0.00000E+00         0.00000E+00
 
    0.38780E+07         0.27207E+06         0.00000E+00
    0.27207E+06        -0.71005E+07         0.00000E+00
    0.00000E+00         0.00000E+00         0.00000E+00
 
    0.37487E+07         0.37552E+06         0.00000E+00
    0.37552E+06        -0.71015E+07         0.00000E+00
    0.00000E+00         0.00000E+00         0.00000E+00
 
    0.36226E+07         0.47686E+06         0.00000E+00
    0.47686E+06        -0.71030E+07         0.00000E+00
    0.00000E+00         0.00000E+00         0.00000E+00
 
    0.34996E+07         0.57632E+06         0.00000E+00
    0.57632E+06        -0.71048E+07         0.00000E+00
    0.00000E+00         0.00000E+00         0.00000E+00
 
    0.33798E+07         0.67408E+06         0.00000E+00
    0.67408E+06        -0.71071E+07         0.00000E+00
    0.00000E+00         0.00000E+00         0.00000E+00
 
    0.32630E+07         0.77034E+06         0.00000E+00
    0.77034E+06        -0.71097E+07         0.00000E+00
    0.00000E+00         0.00000E+00         0.00000E+00
 
    0.31493E+07         0.86527E+06         0.00000E+00
    0.86527E+06        -0.71126E+07         0.00000E+00
    0.00000E+00         0.00000E+00         0.00000E+00
 
    0.30386E+07         0.95907E+06         0.00000E+00
    0.95907E+06        -0.71159E+07         0.00000E+00
    0.00000E+00         0.00000E+00         0.00000E+00
 
    0.29309E+07         0.10519E+07         0.00000E+00
    0.10519E+07        -0.71195E+07         0.00000E+00
    0.00000E+00         0.00000E+00         0.00000E+00
 
    0.28261E+07         0.11439E+07         0.00000E+00
    0.11439E+07        -0.71233E+07         0.00000E+00
    0.00000E+00         0.00000E+00         0.00000E+00
 
    0.27240E+07         0.12352E+07         0.00000E+00
    0.12352E+07        -0.71273E+07         0.00000E+00
    0.00000E+00         0.00000E+00         0.00000E+00
 
    0.26247E+07         0.13260E+07         0.00000E+00
    0.13260E+07        -0.71315E+07         0.00000E+00
    0.00000E+00         0.00000E+00         0.00000E+00
 
    0.25281E+07         0.14164E+07         0.00000E+00
    0.14164E+07        -0.71358E+07         0.00000E+00
    0.00000E+00         0.00000E+00         0.00000E+00
 
    0.24340E+07         0.15065E+07         0.00000E+00
    0.15065E+07        -0.71401E+07         0.00000E+00
    0.00000E+00         0.00000E+00         0.00000E+00
 
    0.23424E+07         0.15965E+07         0.00000E+00
    0.15965E+07        -0.71444E+07         0.00000E+00
    0.00000E+00         0.00000E+00         0.00000E+00
 
    0.22531E+07         0.16864E+07         0.00000E+00
    0.16864E+07        -0.71487E+07         0.00000E+00
    0.00000E+00         0.00000E+00         0.00000E+00
 
    0.21662E+07         0.17765E+07         0.00000E+00
    0.17765E+07        -0.71528E+07         0.00000E+00
    0.00000E+00         0.00000E+00         0.00000E+00
 
    0.20814E+07         0.18666E+07         0.00000E+00
    0.18666E+07        -0.71568E+07         0.00000E+00
    0.00000E+00         0.00000E+00         0.00000E+00
 
    0.19986E+07         0.19571E+07         0.00000E+00
    0.19571E+07        -0.71605E+07         0.00000E+00
    0.00000E+00         0.00000E+00         0.00000E+00
 
    0.19179E+07         0.20478E+07         0.00000E+00
    0.20478E+07        -0.71638E+07         0.00000E+00
    0.00000E+00         0.00000E+00         0.00000E+00
 
    0.18389E+07         0.21390E+07         0.00000E+00
    0.21390E+07        -0.71668E+07         0.00000E+00
    0.00000E+00         0.00000E+00         0.00000E+00
 
    0.17618E+07         0.22306E+07         0.00000E+00
    0.22306E+07        -0.71693E+07         0.00000E+00
    0.00000E+00         0.00000E+00         0.00000E+00
 
    0.16862E+07         0.23228E+07         0.00000E+00
    0.23228E+07        -0.71713E+07         0.00000E+00
    0.00000E+00         0.00000E+00         0.00000E+00
 
    0.16123E+07         0.24156E+07         0.00000E+00
    0.24156E+07        -0.71727E+07         0.00000E+00
    0.00000E+00         0.00000E+00         0.00000E+00
 
    0.15397E+07         0.25090E+07         0.00000E+00
    0.25090E+07        -0.71735E+07         0.00000E+00
    0.00000E+00         0.00000E+00         0.00000E+00
 
    0.14684E+07         0.26031E+07         0.00000E+00
    0.26031E+07        -0.71735E+07         0.00000E+00
    0.00000E+00         0.00000E+00         0.00000E+00
 
    0.13984E+07         0.26980E+07         0.00000E+00
    0.26980E+07        -0.71727E+07         0.00000E+00
    0.00000E+00         0.00000E+00         0.00000E+00
 
    0.13294E+07         0.27936E+07         0.00000E+00
    0.27936E+07        -0.71711E+07         0.00000E+00
    0.00000E+00         0.00000E+00         0.00000E+00
 
    0.12615E+07         0.28900E+07         0.00000E+00
    0.28900E+07        -0.71685E+07         0.00000E+00
    0.00000E+00         0.00000E+00         0.00000E+00
 
    0.11945E+07         0.29873E+07         0.00000E+00
    0.29873E+07        -0.71649E+07         0.00000E+00
    0.00000E+00         0.00000E+00         0.00000E+00
 
    0.11282E+07         0.30853E+07         0.00000E+00
    0.30853E+07        -0.71603E+07         0.00000E+00
    0.00000E+00         0.00000E+00         0.00000E+00
 
    0.10627E+07         0.31843E+07         0.00000E+00
    0.31843E+07        -0.71545E+07         0.00000E+00
    0.00000E+00         0.00000E+00         0.00000E+00
 
    0.99771E+06         0.32841E+07         0.00000E+00
    0.32841E+07        -0.71475E+07         0.00000E+00
    0.00000E+00         0.00000E+00         0.00000E+00
 
    0.93325E+06         0.33848E+07         0.00000E+00
    0.33848E+07        -0.71393E+07         0.00000E+00
    0.00000E+00         0.00000E+00         0.00000E+00
 
    0.86919E+06         0.34864E+07         0.00000E+00
    0.34864E+07        -0.71298E+07         0.00000E+00
    0.00000E+00         0.00000E+00         0.00000E+00
 
    0.80545E+06         0.35889E+07         0.00000E+00
    0.35889E+07        -0.71189E+07         0.00000E+00
    0.00000E+00         0.00000E+00         0.00000E+00
 
    0.74193E+06         0.36922E+07         0.00000E+00
    0.36922E+07        -0.71066E+07         0.00000E+00
    0.00000E+00         0.00000E+00         0.00000E+00
 
    0.67853E+06         0.37965E+07         0.00000E+00
    0.37965E+07        -0.70928E+07         0.00000E+00
    0.00000E+00         0.00000E+00         0.00000E+00
 
    0.61518E+06         0.39016E+07         0.00000E+00
    0.39016E+07        -0.70774E+07         0.00000E+00
    0.00000E+00         0.00000E+00         0.00000E+00
 
    0.55178E+06         0.40076E+07         0.00000E+00
    0.40076E+07        -0.70605E+07         0.00000E+00
    0.00000E+00         0.00000E+00         0.00000E+00
 
    0.48826E+06         0.41144E+07         0.00000E+00
    0.41144E+07        -0.70419E+07         0.00000E+00
    0.00000E+00         0.00000E+00         0.00000E+00
 
    0.42453E+06         0.42221E+07         0.00000E+00
    0.42221E+07        -0.70216E+07         0.00000E+00
    0.00000E+00         0.00000E+00         0.00000E+00
 
    0.36052E+06         0.43307E+07         0.00000E+00
    0.43307E+07        -0.69995E+07         0.00000E+00
    0.00000E+00         0.00000E+00         0.00000E+00
 
    0.29613E+06         0.44400E+07         0.00000E+00
    0.44400E+07        -0.69757E+07         0.00000E+00
    0.00000E+00         0.00000E+00         0.00000E+00
 
    0.23131E+06         0.45501E+07         0.00000E+00
    0.45501E+07        -0.69500E+07         0.00000E+00
    0.00000E+00         0.00000E+00         0.00000E+00
 
    0.16597E+06         0.46610E+07         0.00000E+00
    0.46610E+07        -0.69223E+07         0.00000E+00
    0.00000E+00         0.00000E+00         0.00000E+00
 
    0.10004E+06         0.47726E+07         0.00000E+00
    0.47726E+07        -0.68928E+07         0.00000E+00
    0.00000E+00         0.00000E+00         0.00000E+00
 
    0.33463E+05         0.48849E+07         0.00000E+00
    0.48849E+07        -0.68612E+07         0.00000E+00
    0.00000E+00         0.00000E+00         0.00000E+00
 
    0.41098E+07         0.56114E+05         0.00000E+00
    0.56114E+05        -0.76754E+07         0.00000E+00
    0.00000E+00         0.00000E+00         0.00000E+00
 
    0.39608E+07         0.16041E+06         0.00000E+00
    0.16041E+06        -0.76763E+07         0.00000E+00
    0.00000E+00         0.00000E+00         0.00000E+00
 
    0.38162E+07         0.26219E+06         0.00000E+00
    0.26219E+06        -0.76781E+07         0.00000E+00
    0.00000E+00         0.00000E+00         0.00000E+00
 
    0.36759E+07         0.36172E+06         0.00000E+00
    0.36172E+06        -0.76807E+07         0.00000E+00
    0.00000E+00         0.00000E+00         0.00000E+00
 
    0.35399E+07         0.45926E+06         0.00000E+00
    0.45926E+06        -0.76842E+07         0.00000E+00
    0.00000E+00         0.00000E+00         0.00000E+00
 
    0.34081E+07         0.55505E+06         0.00000E+00
    0.55505E+06        -0.76886E+07         0.00000E+00
    0.00000E+00         0.00000E+00         0.00000E+00
 
    0.32804E+07         0.64932E+06         0.00000E+00
    0.64932E+06        -0.76937E+07         0.00000E+00
    0.00000E+00         0.00000E+00         0.00000E+00
 
    0.31569E+07         0.74230E+06         0.00000E+00
    0.74230E+06        -0.76996E+07         0.00000E+00
    0.00000E+00         0.00000E+00         0.00000E+00
 
    0.30373E+07         0.83421E+06         0.00000E+00
    0.83421E+06        -0.77063E+07         0.00000E+00
    0.00000E+00         0.00000E+00         0.00000E+00
 
    0.29216E+07         0.92523E+06         0.00000E+00
    0.92523E+06        -0.77136E+07         0.00000E+00
    0.00000E+00         0.00000E+00         0.00000E+00
 
    0.28097E+07         0.10156E+07         0.00000E+00
    0.10156E+07        -0.77215E+07         0.00000E+00
    0.00000E+00         0.00000E+00         0.00000E+00
 
    0.27015E+07         0.11054E+07         0.00000E+00
    0.11054E+07        -0.77299E+07         0.00000E+00
    0.00000E+00         0.00000E+00         0.00000E+00
 
    0.25969E+07         0.11949E+07         0.00000E+00
    0.11949E+07        -0.77389E+07         0.00000E+00
    0.00000E+00         0.00000E+00         0.00000E+00
 
    0.24957E+07         0.12842E+07         0.00000E+00
    0.12842E+07        -0.77482E+07         0.00000E+00
    0.00000E+00         0.00000E+00         0.00000E+00
 
    0.23978E+07         0.13735E+07         0.00000E+00
    0.13735E+07        -0.77578E+07         0.00000E+00
    0.00000E+00         0.00000E+00         0.00000E+00
 
    0.23031E+07         0.14629E+07         0.00000E+00
    0.14629E+07        -0.77677E+07         0.00000E+00
    0.00000E+00         0.00000E+00         0.00000E+00
 
    0.22115E+07         0.15525E+07         0.00000E+00
    0.15525E+07        -0.77778E+07         0.00000E+00
    0.00000E+00         0.00000E+00         0.00000E+00
 
    0.21228E+07         0.16425E+07         0.00000E+00
    0.16425E+07        -0.77879E+07         0.00000E+00
    0.00000E+00         0.00000E+00         0.00000E+00
 
    0.20369E+07         0.17330E+07         0.00000E+00
    0.17330E+07        -0.77980E+07         0.00000E+00
    0.00000E+00         0.00000E+00         0.00000E+00
 
    0.19536E+07         0.18241E+07         0.00000E+00
    0.18241E+07        -0.78081E+07         0.00000E+00
    0.00000E+00         0.00000E+00         0.00000E+00
 
    0.18728E+07         0.19158E+07         0.00000E+00
    0.19158E+07        -0.78179E+07         0.00000E+00
    0.00000E+00         0.00000E+00         0.00000E+00
 
    0.17944E+07         0.20082E+07         0.00000E+00
    0.20082E+07        -0.78275E+07         0.00000E+00
    0.00000E+00         0.00000E+00         0.00000E+00
 
    0.17181E+07         0.21015E+07         0.00000E+00
    0.21015E+07        -0.78367E+07         0.00000E+00
    0.00000E+00         0.00000E+00         0.00000E+00
 
    0.16440E+07         0.21957E+07         0.00000E+00
    0.21957E+07        -0.78455E+07         0.00000E+00
    0.00000E+00         0.00000E+00         0.00000E+00
 
    0.15718E+07         0.22908E+07         0.00000E+00
    0.22908E+07        -0.78538E+07         0.00000E+00
    0.00000E+00         0.00000E+00         0.00000E+00
 
    0.15014E+07         0.23869E+07         0.00000E+00
    0.23869E+07        -0.78614E+07         0.00000E+00
    0.00000E+00         0.00000E+00         0.00000E+00
 
    0.14326E+07         0.24841E+07         0.00000E+00
    0.24841E+07        -0.78684E+07         0.00000E+00
    0.00000E+00         0.00000E+00         0.00000E+00
 
    0.13654E+07         0.25824E+07         0.00000E+00
    0.25824E+07        -0.78745E+07         0.00000E+00
    0.00000E+00         0.00000E+00         0.00000E+00
 
    0.12996E+07         0.26818E+07         0.00000E+00
    0.26818E+07        -0.78798E+07         0.00000E+00
    0.00000E+00         0.00000E+00         0.00000E+00
 
    0.12350E+07         0.27823E+07         0.00000E+00
    0.27823E+07        -0.78842E+07         0.00000E+00
    0.00000E+00         0.00000E+00         0.00000E+00
 
    0.11716E+07         0.28841E+07         0.00000E+00
    0.28841E+07        -0.78875E+07         0.00000E+00
    0.00000E+00         0.00000E+00         0.00000E+00
 
    0.11091E+07         0.29870E+07         0.00000E+00
    0.29870E+07        -0.78897E+07         0.00000E+00
    0.00000E+00         0.00000E+00         0.00000E+00
 
    0.10476E+07         0.30912E+07         0.00000E+00
    0.30912E+07        -0.78907E+07         0.00000E+00
    0.00000E+00         0.00000E+00         0.00000E+00
 
    0.98678E+06         0.31965E+07         0.00000E+00
    0.31965E+07        -0.78904E+07         0.00000E+00
    0.00000E+00         0.00000E+00         0.00000E+00
 
    0.92664E+06         0.33031E+07         0.00000E+00
    0.33031E+07        -0.78889E+07         0.00000E+00
    0.00000E+00         0.00000E+00         0.00000E+00
 
    0.86704E+06         0.34109E+07         0.00000E+00
    0.34109E+07        -0.78859E+07         0.00000E+00
    0.00000E+00         0.00000E+00         0.00000E+00
 
    0.80786E+06         0.35200E+07         0.00000E+00
    0.35200E+07        -0.78814E+07         0.00000E+00
    0.00000E+00         0.00000E+00         0.00000E+00
 
    0.74899E+06         0.36302E+07         0.00000E+00
    0.36302E+07        -0.78754E+07         0.00000E+00
    0.00000E+00         0.00000E+00         0.00000E+00
 
    0.69033E+06         0.37417E+07         0.00000E+00
    0.37417E+07        -0.78678E+07         0.00000E+00
    0.00000E+00         0.00000E+00         0.00000E+00
 
    0.63178E+06         0.38544E+07         0.00000E+00
    0.38544E+07        -0.78585E+07         0.00000E+00
    0.00000E+00         0.00000E+00         0.00000E+00
 
    0.57324E+06         0.39682E+07         0.00000E+00
    0.39682E+07        -0.78475E+07         0.00000E+00
    0.00000E+00         0.00000E+00         0.00000E+00
 
    0.51461E+06         0.40832E+07         0.00000E+00
    0.40832E+07        -0.78346E+07         0.00000E+00
    0.00000E+00         0.00000E+00         0.00000E+00
 
    0.45580E+06         0.41994E+07         0.00000E+00
    0.41994E+07        -0.78199E+07         0.00000E+00
    0.00000E+00         0.00000E+00         0.00000E+00
 
    0.39671E+06         0.43167E+07         0.00000E+00
    0.43167E+07        -0.78033E+07         0.00000E+00
    0.00000E+00         0.00000E+00         0.00000E+00
 
    0.33725E+06         0.44351E+07         0.00000E+00
    0.44351E+07        -0.77847E+07         0.00000E+00
    0.00000E+00         0.00000E+00         0.00000E+00
 
    0.27734E+06         0.45546E+07         0.00000E+00
    0.45546E+07        -0.77641E+07         0.00000E+00
    0.00000E+00         0.00000E+00         0.00000E+00
 
    0.21689E+06         0.46751E+07         0.00000E+00
    0.46751E+07        -0.77414E+07         0.00000E+00
    0.00000E+00         0.00000E+00         0.00000E+00
 
    0.15582E+06         0.47966E+07         0.00000E+00
    0.47966E+07        -0.77165E+07         0.00000E+00
    0.00000E+00         0.00000E+00         0.00000E+00
 
    0.94042E+05         0.49192E+07         0.00000E+00
    0.49192E+07        -0.76894E+07         0.00000E+00
    0.00000E+00         0.00000E+00         0.00000E+00
 
    0.31484E+05         0.50427E+07         0.00000E+00
    0.50427E+07        -0.76600E+07         0.00000E+00
    0.00000E+00         0.00000E+00         0.00000E+00
 
    0.39901E+07         0.52688E+05         0.00000E+00
    0.52688E+05        -0.83082E+07         0.00000E+00
    0.00000E+00         0.00000E+00         0.00000E+00
 
    0.38281E+07         0.15031E+06         0.00000E+00
    0.15031E+06        -0.83097E+07         0.00000E+00
    0.00000E+00         0.00000E+00         0.00000E+00
 
    0.36718E+07         0.24555E+06         0.00000E+00
    0.24555E+06        -0.83128E+07         0.00000E+00
    0.00000E+00         0.00000E+00         0.00000E+00
 
    0.35212E+07         0.33873E+06         0.00000E+00
    0.33873E+06        -0.83174E+07         0.00000E+00
    0.00000E+00         0.00000E+00         0.00000E+00
 
    0.33762E+07         0.43016E+06         0.00000E+00
    0.43016E+06        -0.83234E+07         0.00000E+00
    0.00000E+00         0.00000E+00         0.00000E+00
 
    0.32366E+07         0.52011E+06         0.00000E+00
    0.52011E+06        -0.83308E+07         0.00000E+00
    0.00000E+00         0.00000E+00         0.00000E+00
 
    0.31024E+07         0.60885E+06         0.00000E+00
    0.60885E+06        -0.83395E+07         0.00000E+00
    0.00000E+00         0.00000E+00         0.00000E+00
 
    0.29734E+07         0.69665E+06         0.00000E+00
    0.69665E+06        -0.83495E+07         0.00000E+00
    0.00000E+00         0.00000E+00         0.00000E+00
 
    0.28494E+07         0.78375E+06         0.00000E+00
    0.78375E+06        -0.83606E+07         0.00000E+00
    0.00000E+00         0.00000E+00         0.00000E+00
 
    0.27304E+07         0.87037E+06         0.00000E+00
    0.87037E+06        -0.83727E+07         0.00000E+00
    0.00000E+00         0.00000E+00         0.00000E+00
 
    0.26161E+07         0.95673E+06         0.00000E+00
    0.95673E+06        -0.83858E+07         0.00000E+00
    0.00000E+00         0.00000E+00         0.00000E+00
 
    0.25064E+07         0.10430E+07         0.00000E+00
    0.10430E+07        -0.83998E+07         0.00000E+00
    0.00000E+00         0.00000E+00         0.00000E+00
 
    0.24010E+07         0.11294E+07         0.00000E+00
    0.11294E+07        -0.84146E+07         0.00000E+00
    0.00000E+00         0.00000E+00         0.00000E+00
 
    0.23000E+07         0.12162E+07         0.00000E+00
    0.12162E+07        -0.84301E+07         0.00000E+00
    0.00000E+00         0.00000E+00         0.00000E+00
 
    0.22029E+07         0.13034E+07         0.00000E+00
    0.13034E+07        -0.84461E+07         0.00000E+00
    0.00000E+00         0.00000E+00         0.00000E+00
 
    0.21098E+07         0.13912E+07         0.00000E+00
    0.13912E+07        -0.84626E+07         0.00000E+00
    0.00000E+00         0.00000E+00         0.00000E+00
 
    0.20203E+07         0.14797E+07         0.00000E+00
    0.14797E+07        -0.84794E+07         0.00000E+00
    0.00000E+00         0.00000E+00         0.00000E+00
 
    0.19343E+07         0.15691E+07         0.00000E+00
    0.15691E+07        -0.84965E+07         0.00000E+00
    0.00000E+00         0.00000E+00         0.00000E+00
 
    0.18516E+07         0.16595E+07         0.00000E+00
    0.16595E+07        -0.85136E+07         0.00000E+00
    0.00000E+00         0.00000E+00         0.00000E+00
 
    0.17720E+07         0.17510E+07         0.00000E+00
    0.17510E+07        -0.85308E+07         0.00000E+00
    0.00000E+00         0.00000E+00         0.00000E+00
 
    0.16954E+07         0.18437E+07         0.00000E+00
    0.18437E+07        -0.85479E+07         0.00000E+00
    0.00000E+00         0.00000E+00         0.00000E+00
 
    0.16216E+07         0.19376E+07         0.00000E+00
    0.19376E+07        -0.85648E+07         0.00000E+00
    0.00000E+00         0.00000E+00         0.00000E+00
 
    0.15503E+07         0.20329E+07         0.00000E+00
    0.20329E+07        -0.85813E+07         0.00000E+00
    0.00000E+00         0.00000E+00         0.00000E+00
 
    0.14813E+07         0.21296E+07         0.00000E+00
    0.21296E+07        -0.85974E+07         0.00000E+00
    0.00000E+00         0.00000E+00         0.00000E+00
 
    0.14146E+07         0.22277E+07         0.00000E+00
    0.22277E+07        -0.86130E+07         0.00000E+00
    0.00000E+00         0.00000E+00         0.00000E+00
 
    0.13500E+07         0.23274E+07         0.00000E+00
    0.23274E+07        -0.86279E+07         0.00000E+00
    0.00000E+00         0.00000E+00         0.00000E+00
 
    0.12872E+07         0.24286E+07         0.00000E+00
    0.24286E+07        -0.86421E+07         0.00000E+00
    0.00000E+00         0.00000E+00         0.00000E+00
 
    0.12260E+07         0.25313E+07         0.00000E+00
    0.25313E+07        -0.86554E+07         0.00000E+00
    0.00000E+00         0.00000E+00         0.00000E+00
 
    0.11665E+07         0.26356E+07         0.00000E+00
    0.26356E+07        -0.86677E+07         0.00000E+00
    0.00000E+00         0.00000E+00         0.00000E+00
 
    0.11083E+07         0.27416E+07         0.00000E+00
    0.27416E+07        -0.86790E+07         0.00000E+00
    0.00000E+00         0.00000E+00         0.00000E+00
 
    0.10513E+07         0.28492E+07         0.00000E+00
    0.28492E+07        -0.86891E+07         0.00000E+00
    0.00000E+00         0.00000E+00         0.00000E+00
 
    0.99537E+06         0.29584E+07         0.00000E+00
    0.29584E+07        -0.86980E+07         0.00000E+00
    0.00000E+00         0.00000E+00         0.00000E+00
 
    0.94039E+06         0.30692E+07         0.00000E+00
    0.30692E+07        -0.87056E+07         0.00000E+00
    0.00000E+00         0.00000E+00         0.00000E+00
 
    0.88619E+06         0.31817E+07         0.00000E+00
    0.31817E+07        -0.87118E+07         0.00000E+00
    0.00000E+00         0.00000E+00         0.00000E+00
 
    0.83265E+06         0.32958E+07         0.00000E+00
    0.32958E+07        -0.87164E+07         0.00000E+00
    0.00000E+00         0.00000E+00         0.00000E+00
 
    0.77964E+06         0.34114E+07         0.00000E+00
    0.34114E+07        -0.87195E+07         0.00000E+00
    0.00000E+00         0.00000E+00         0.00000E+00
 
    0.72702E+06         0.35287E+07         0.00000E+00
    0.35287E+07        -0.87209E+07         0.00000E+00
    0.00000E+00         0.00000E+00         0.00000E+00
 
    0.67469E+06         0.36476E+07         0.00000E+00
    0.36476E+07        -0.87205E+07         0.00000E+00
    0.00000E+00         0.00000E+00         0.00000E+00
 
    0.62251E+06         0.37680E+07         0.00000E+00
    0.37680E+07        -0.87184E+07         0.00000E+00
    0.00000E+00         0.00000E+00         0.00000E+00
 
    0.57038E+06         0.38900E+07         0.00000E+00
    0.38900E+07        -0.87144E+07         0.00000E+00
    0.00000E+00         0.00000E+00         0.00000E+00
 
    0.51819E+06         0.40135E+07         0.00000E+00
    0.40135E+07        -0.87084E+07         0.00000E+00
    0.00000E+00         0.00000E+00         0.00000E+00
 
    0.46583E+06         0.41385E+07         0.00000E+00
    0.41385E+07        -0.87004E+07         0.00000E+00
    0.00000E+00         0.00000E+00         0.00000E+00
 
    0.41320E+06         0.42649E+07         0.00000E+00
    0.42649E+07        -0.86904E+07         0.00000E+00
    0.00000E+00         0.00000E+00         0.00000E+00
 
    0.36019E+06         0.43928E+07         0.00000E+00
    0.43928E+07        -0.86781E+07         0.00000E+00
    0.00000E+00         0.00000E+00         0.00000E+00
 
    0.30672E+06         0.45221E+07         0.00000E+00
    0.45221E+07        -0.86637E+07         0.00000E+00
    0.00000E+00         0.00000E+00         0.00000E+00
 
    0.25267E+06         0.46528E+07         0.00000E+00
    0.46528E+07        -0.86469E+07         0.00000E+00
    0.00000E+00         0.00000E+00         0.00000E+00
 
    0.19795E+06         0.47848E+07         0.00000E+00
    0.47848E+07        -0.86279E+07         0.00000E+00
    0.00000E+00         0.00000E+00         0.00000E+00
 
    0.14247E+06         0.49181E+07         0.00000E+00
    0.49181E+07        -0.86064E+07         0.00000E+00
    0.00000E+00         0.00000E+00         0.00000E+00
 
    0.86147E+05         0.50527E+07         0.00000E+00
    0.50527E+07        -0.85824E+07         0.00000E+00
    0.00000E+00         0.00000E+00         0.00000E+00
 
    0.28881E+05         0.51885E+07         0.00000E+00
    0.51885E+07        -0.85559E+07         0.00000E+00
    0.00000E+00         0.00000E+00         0.00000E+00
 
    0.37654E+07         0.47400E+05         0.00000E+00
    0.47400E+05        -0.90043E+07         0.00000E+00
    0.00000E+00         0.00000E+00         0.00000E+00
 
    0.35913E+07         0.13509E+06         0.00000E+00
    0.13509E+06        -0.90067E+07         0.00000E+00
    0.00000E+00         0.00000E+00         0.00000E+00
 
    0.34245E+07         0.22071E+06         0.00000E+00
    0.22071E+06        -0.90114E+07         0.00000E+00
    0.00000E+00         0.00000E+00         0.00000E+00
 
    0.32650E+07         0.30464E+06         0.00000E+00
    0.30464E+06        -0.90183E+07         0.00000E+00
    0.00000E+00         0.00000E+00         0.00000E+00
 
    0.31127E+07         0.38722E+06         0.00000E+00
    0.38722E+06        -0.90274E+07         0.00000E+00
    0.00000E+00         0.00000E+00         0.00000E+00
 
    0.29672E+07         0.46877E+06         0.00000E+00
    0.46877E+06        -0.90384E+07         0.00000E+00
    0.00000E+00         0.00000E+00         0.00000E+00
 
    0.28284E+07         0.54961E+06         0.00000E+00
    0.54961E+06        -0.90513E+07         0.00000E+00
    0.00000E+00         0.00000E+00         0.00000E+00
 
    0.26960E+07         0.63001E+06         0.00000E+00
    0.63001E+06        -0.90660E+07         0.00000E+00
    0.00000E+00         0.00000E+00         0.00000E+00
 
    0.25700E+07         0.71025E+06         0.00000E+00
    0.71025E+06        -0.90823E+07         0.00000E+00
    0.00000E+00         0.00000E+00         0.00000E+00
 
    0.24499E+07         0.79059E+06         0.00000E+00
    0.79059E+06        -0.91002E+07         0.00000E+00
    0.00000E+00         0.00000E+00         0.00000E+00
 
    0.23357E+07         0.87125E+06         0.00000E+00
    0.87125E+06        -0.91194E+07         0.00000E+00
    0.00000E+00         0.00000E+00         0.00000E+00
 
    0.22270E+07         0.95245E+06         0.00000E+00
    0.95245E+06        -0.91399E+07         0.00000E+00
    0.00000E+00         0.00000E+00         0.00000E+00
 
    0.21236E+07         0.10344E+07         0.00000E+00
    0.10344E+07        -0.91616E+07         0.00000E+00
    0.00000E+00         0.00000E+00         0.00000E+00
 
    0.20253E+07         0.11173E+07         0.00000E+00
    0.11173E+07        -0.91842E+07         0.00000E+00
    0.00000E+00         0.00000E+00         0.00000E+00
 
    0.19319E+07         0.12013E+07         0.00000E+00
    0.12013E+07        -0.92076E+07         0.00000E+00
    0.00000E+00         0.00000E+00         0.00000E+00
 
    0.18430E+07         0.12865E+07         0.00000E+00
    0.12865E+07        -0.92317E+07         0.00000E+00
    0.00000E+00         0.00000E+00         0.00000E+00
 
    0.17584E+07         0.13731E+07         0.00000E+00
    0.13731E+07        -0.92564E+07         0.00000E+00
    0.00000E+00         0.00000E+00         0.00000E+00
 
    0.16780E+07         0.14613E+07         0.00000E+00
    0.14613E+07        -0.92814E+07         0.00000E+00
    0.00000E+00         0.00000E+00         0.00000E+00
 
    0.16013E+07         0.15511E+07         0.00000E+00
    0.15511E+07        -0.93068E+07         0.00000E+00
    0.00000E+00         0.00000E+00         0.00000E+00
 
    0.15283E+07         0.16426E+07         0.00000E+00
    0.16426E+07        -0.93322E+07         0.00000E+00
    0.00000E+00         0.00000E+00         0.00000E+00
 
    0.14586E+07         0.17359E+07         0.00000E+00
    0.17359E+07        -0.93576E+07         0.00000E+00
    0.00000E+00         0.00000E+00         0.00000E+00
 
    0.13921E+07         0.18312E+07         0.00000E+00
    0.18312E+07        -0.93829E+07         0.00000E+00
    0.00000E+00         0.00000E+00         0.00000E+00
 
    0.13284E+07         0.19284E+07         0.00000E+00
    0.19284E+07        -0.94078E+07         0.00000E+00
    0.00000E+00         0.00000E+00         0.00000E+00
 
    0.12674E+07         0.20276E+07         0.00000E+00
    0.20276E+07        -0.94323E+07         0.00000E+00
    0.00000E+00         0.00000E+00         0.00000E+00
 
    0.12089E+07         0.21288E+07         0.00000E+00
    0.21288E+07        -0.94563E+07         0.00000E+00
    0.00000E+00         0.00000E+00         0.00000E+00
 
    0.11526E+07         0.22322E+07         0.00000E+00
    0.22322E+07        -0.94795E+07         0.00000E+00
    0.00000E+00         0.00000E+00         0.00000E+00
 
    0.10983E+07         0.23377E+07         0.00000E+00
    0.23377E+07        -0.95019E+07         0.00000E+00
    0.00000E+00         0.00000E+00         0.00000E+00
 
    0.10457E+07         0.24453E+07         0.00000E+00
    0.24453E+07        -0.95234E+07         0.00000E+00
    0.00000E+00         0.00000E+00         0.00000E+00
 
    0.99485E+06         0.25550E+07         0.00000E+00
    0.25550E+07        -0.95438E+07         0.00000E+00
    0.00000E+00         0.00000E+00         0.00000E+00
 
    0.94538E+06         0.26669E+07         0.00000E+00
    0.26669E+07        -0.95630E+07         0.00000E+00
    0.00000E+00         0.00000E+00         0.00000E+00
 
    0.89715E+06         0.27810E+07         0.00000E+00
    0.27810E+07        -0.95809E+07         0.00000E+00
    0.00000E+00         0.00000E+00         0.00000E+00
 
    0.84999E+06         0.28971E+07         0.00000E+00
    0.28971E+07        -0.95974E+07         0.00000E+00
    0.00000E+00         0.00000E+00         0.00000E+00
 
    0.80372E+06         0.30153E+07         0.00000E+00
    0.30153E+07        -0.96125E+07         0.00000E+00
    0.00000E+00         0.00000E+00         0.00000E+00
 
    0.75820E+06         0.31357E+07         0.00000E+00
    0.31357E+07        -0.96259E+07         0.00000E+00
    0.00000E+00         0.00000E+00         0.00000E+00
 
    0.71327E+06         0.32581E+07         0.00000E+00
    0.32581E+07        -0.96376E+07         0.00000E+00
    0.00000E+00         0.00000E+00         0.00000E+00
 
    0.66878E+06         0.33825E+07         0.00000E+00
    0.33825E+07        -0.96476E+07         0.00000E+00
    0.00000E+00         0.00000E+00         0.00000E+00
 
    0.62460E+06         0.35089E+07         0.00000E+00
    0.35089E+07        -0.96557E+07         0.00000E+00
    0.00000E+00         0.00000E+00         0.00000E+00
 
    0.58061E+06         0.36373E+07         0.00000E+00
    0.36373E+07        -0.96618E+07         0.00000E+00
    0.00000E+00         0.00000E+00         0.00000E+00
 
    0.53667E+06         0.37676E+07         0.00000E+00
    0.37676E+07        -0.96659E+07         0.00000E+00
    0.00000E+00         0.00000E+00         0.00000E+00
 
    0.49268E+06         0.38998E+07         0.00000E+00
    0.38998E+07        -0.96679E+07         0.00000E+00
    0.00000E+00         0.00000E+00         0.00000E+00
 
    0.44851E+06         0.40339E+07         0.00000E+00
    0.40339E+07        -0.96677E+07         0.00000E+00
    0.00000E+00         0.00000E+00         0.00000E+00
 
    0.40405E+06         0.41698E+07         0.00000E+00
    0.41698E+07        -0.96653E+07         0.00000E+00
    0.00000E+00         0.00000E+00         0.00000E+00
 
    0.35921E+06         0.43075E+07         0.00000E+00
    0.43075E+07        -0.96606E+07         0.00000E+00
    0.00000E+00         0.00000E+00         0.00000E+00
 
    0.31386E+06         0.44470E+07         0.00000E+00
    0.44470E+07        -0.96535E+07         0.00000E+00
    0.00000E+00         0.00000E+00         0.00000E+00
 
    0.26792E+06         0.45882E+07         0.00000E+00
    0.45882E+07        -0.96439E+07         0.00000E+00
    0.00000E+00         0.00000E+00         0.00000E+00
 
    0.22127E+06         0.47311E+07         0.00000E+00
    0.47311E+07        -0.96318E+07         0.00000E+00
    0.00000E+00         0.00000E+00         0.00000E+00
 
    0.17381E+06         0.48757E+07         0.00000E+00
    0.48757E+07        -0.96172E+07         0.00000E+00
    0.00000E+00         0.00000E+00         0.00000E+00
 
    0.12545E+06         0.50220E+07         0.00000E+00
    0.50220E+07        -0.95998E+07         0.00000E+00
    0.00000E+00         0.00000E+00         0.00000E+00
 
    0.76052E+05         0.51698E+07         0.00000E+00
    0.51698E+07        -0.95797E+07         0.00000E+00
    0.00000E+00         0.00000E+00         0.00000E+00
 
    0.25541E+05         0.53191E+07         0.00000E+00
    0.53191E+07        -0.95568E+07         0.00000E+00
    0.00000E+00         0.00000E+00         0.00000E+00
 
    0.34101E+07         0.39858E+05         0.00000E+00
    0.39858E+05        -0.97711E+07         0.00000E+00
    0.00000E+00         0.00000E+00         0.00000E+00
 
    0.32258E+07         0.11376E+06         0.00000E+00
    0.11376E+06        -0.97745E+07         0.00000E+00
    0.00000E+00         0.00000E+00         0.00000E+00
 
    0.30509E+07         0.18616E+06         0.00000E+00
    0.18616E+06        -0.97811E+07         0.00000E+00
    0.00000E+00         0.00000E+00         0.00000E+00
 
    0.28850E+07         0.25745E+06         0.00000E+00
    0.25745E+06        -0.97907E+07         0.00000E+00
    0.00000E+00         0.00000E+00         0.00000E+00
 
    0.27278E+07         0.32803E+06         0.00000E+00
    0.32803E+06        -0.98032E+07         0.00000E+00
    0.00000E+00         0.00000E+00         0.00000E+00
 
    0.25792E+07         0.39825E+06         0.00000E+00
    0.39825E+06        -0.98184E+07         0.00000E+00
    0.00000E+00         0.00000E+00         0.00000E+00
 
    0.24388E+07         0.46846E+06         0.00000E+00
    0.46846E+06        -0.98362E+07         0.00000E+00
    0.00000E+00         0.00000E+00         0.00000E+00
 
    0.23062E+07         0.53896E+06         0.00000E+00
    0.53896E+06        -0.98563E+07         0.00000E+00
    0.00000E+00         0.00000E+00         0.00000E+00
 
    0.21812E+07         0.61005E+06         0.00000E+00
    0.61005E+06        -0.98787E+07         0.00000E+00
    0.00000E+00         0.00000E+00         0.00000E+00
 
    0.20635E+07         0.68200E+06         0.00000E+00
    0.68200E+06        -0.99031E+07         0.00000E+00
    0.00000E+00         0.00000E+00         0.00000E+00
 
    0.19526E+07         0.75505E+06         0.00000E+00
    0.75505E+06        -0.99293E+07         0.00000E+00
    0.00000E+00         0.00000E+00         0.00000E+00
 
    0.18484E+07         0.82943E+06         0.00000E+00
    0.82943E+06        -0.99572E+07         0.00000E+00
    0.00000E+00         0.00000E+00         0.00000E+00
 
    0.17504E+07         0.90536E+06         0.00000E+00
    0.90536E+06        -0.99866E+07         0.00000E+00
    0.00000E+00         0.00000E+00         0.00000E+00
 
    0.16584E+07         0.98301E+06         0.00000E+00
    0.98301E+06        -0.10017E+08         0.00000E+00
    0.00000E+00         0.00000E+00         0.00000E+00
 
    0.15720E+07         0.10626E+07         0.00000E+00
    0.10626E+07        -0.10049E+08         0.00000E+00
    0.00000E+00         0.00000E+00         0.00000E+00
 
    0.14909E+07         0.11442E+07         0.00000E+00
    0.11442E+07        -0.10082E+08         0.00000E+00
    0.00000E+00         0.00000E+00         0.00000E+00
 
    0.14148E+07         0.12280E+07         0.00000E+00
    0.12280E+07        -0.10115E+08         0.00000E+00
    0.00000E+00         0.00000E+00         0.00000E+00
 
    0.13434E+07         0.13141E+07         0.00000E+00
    0.13141E+07        -0.10149E+08         0.00000E+00
    0.00000E+00         0.00000E+00         0.00000E+00
 
    0.12763E+07         0.14027E+07         0.00000E+00
    0.14027E+07        -0.10184E+08         0.00000E+00
    0.00000E+00         0.00000E+00         0.00000E+00
 
    0.12133E+07         0.14937E+07         0.00000E+00
    0.14937E+07        -0.10219E+08         0.00000E+00
    0.00000E+00         0.00000E+00         0.00000E+00
 
    0.11540E+07         0.15874E+07         0.00000E+00
    0.15874E+07        -0.10253E+08         0.00000E+00
    0.00000E+00         0.00000E+00         0.00000E+00
 
    0.10982E+07         0.16837E+07         0.00000E+00
    0.16837E+07        -0.10288E+08         0.00000E+00
    0.00000E+00         0.00000E+00         0.00000E+00
 
    0.10455E+07         0.17827E+07         0.00000E+00
    0.17827E+07        -0.10323E+08         0.00000E+00
    0.00000E+00         0.00000E+00         0.00000E+00
 
    0.99568E+06         0.18845E+07         0.00000E+00
    0.18845E+07        -0.10357E+08         0.00000E+00
    0.00000E+00         0.00000E+00         0.00000E+00
 
    0.94849E+06         0.19891E+07         0.00000E+00
    0.19891E+07        -0.10390E+08         0.00000E+00
    0.00000E+00         0.00000E+00         0.00000E+00
 
    0.90363E+06         0.20964E+07         0.00000E+00
    0.20964E+07        -0.10423E+08         0.00000E+00
    0.00000E+00         0.00000E+00         0.00000E+00
 
    0.86086E+06         0.22065E+07         0.00000E+00
    0.22065E+07        -0.10454E+08         0.00000E+00
    0.00000E+00         0.00000E+00         0.00000E+00
 
    0.81992E+06         0.23195E+07         0.00000E+00
    0.23195E+07        -0.10485E+08         0.00000E+00
    0.00000E+00         0.00000E+00         0.00000E+00
 
    0.78058E+06         0.24352E+07         0.00000E+00
    0.24352E+07        -0.10514E+08         0.00000E+00
    0.00000E+00         0.00000E+00         0.00000E+00
 
    0.74261E+06         0.25536E+07         0.00000E+00
    0.25536E+07        -0.10543E+08         0.00000E+00
    0.00000E+00         0.00000E+00         0.00000E+00
 
    0.70579E+06         0.26748E+07         0.00000E+00
    0.26748E+07        -0.10569E+08         0.00000E+00
    0.00000E+00         0.00000E+00         0.00000E+00
 
    0.66993E+06         0.27987E+07         0.00000E+00
    0.27987E+07        -0.10594E+08         0.00000E+00
    0.00000E+00         0.00000E+00         0.00000E+00
 
    0.63483E+06         0.29252E+07         0.00000E+00
    0.29252E+07        -0.10618E+08         0.00000E+00
    0.00000E+00         0.00000E+00         0.00000E+00
 
    0.60031E+06         0.30542E+07         0.00000E+00
    0.30542E+07        -0.10640E+08         0.00000E+00
    0.00000E+00         0.00000E+00         0.00000E+00
 
    0.56621E+06         0.31859E+07         0.00000E+00
    0.31859E+07        -0.10659E+08         0.00000E+00
    0.00000E+00         0.00000E+00         0.00000E+00
 
    0.53237E+06         0.33200E+07         0.00000E+00
    0.33200E+07        -0.10677E+08         0.00000E+00
    0.00000E+00         0.00000E+00         0.00000E+00
 
    0.49865E+06         0.34565E+07         0.00000E+00
    0.34565E+07        -0.10693E+08         0.00000E+00
    0.00000E+00         0.00000E+00         0.00000E+00
 
    0.46492E+06         0.35954E+07         0.00000E+00
    0.35954E+07        -0.10706E+08         0.00000E+00
    0.00000E+00         0.00000E+00         0.00000E+00
 
    0.43106E+06         0.37366E+07         0.00000E+00
    0.37366E+07        -0.10717E+08         0.00000E+00
    0.00000E+00         0.00000E+00         0.00000E+00
 
    0.39697E+06         0.38800E+07         0.00000E+00
    0.38800E+07        -0.10726E+08         0.00000E+00
    0.00000E+00         0.00000E+00         0.00000E+00
 
    0.36255E+06         0.40257E+07         0.00000E+00
    0.40257E+07        -0.10732E+08         0.00000E+00
    0.00000E+00         0.00000E+00         0.00000E+00
 
    0.32769E+06         0.41735E+07         0.00000E+00
    0.41735E+07        -0.10736E+08         0.00000E+00
    0.00000E+00         0.00000E+00         0.00000E+00
 
    0.29231E+06         0.43235E+07         0.00000E+00
    0.43235E+07        -0.10738E+08         0.00000E+00
    0.00000E+00         0.00000E+00         0.00000E+00
 
    0.25630E+06         0.44755E+07         0.00000E+00
    0.44755E+07        -0.10736E+08         0.00000E+00
    0.00000E+00         0.00000E+00         0.00000E+00
 
    0.21956E+06         0.46297E+07         0.00000E+00
    0.46297E+07        -0.10733E+08         0.00000E+00
    0.00000E+00         0.00000E+00         0.00000E+00
 
    0.18199E+06         0.47859E+07         0.00000E+00
    0.47859E+07        -0.10726E+08         0.00000E+00
    0.00000E+00         0.00000E+00         0.00000E+00
 
    0.14348E+06         0.49441E+07         0.00000E+00
    0.49441E+07        -0.10716E+08         0.00000E+00
    0.00000E+00         0.00000E+00         0.00000E+00
 
    0.10395E+06         0.51042E+07         0.00000E+00
    0.51042E+07        -0.10704E+08         0.00000E+00
    0.00000E+00         0.00000E+00         0.00000E+00
 
    0.63314E+05         0.52663E+07         0.00000E+00
    0.52663E+07        -0.10689E+08         0.00000E+00
    0.00000E+00         0.00000E+00         0.00000E+00
 
    0.21354E+05         0.54305E+07         0.00000E+00
    0.54305E+07        -0.10670E+08         0.00000E+00
    0.00000E+00         0.00000E+00         0.00000E+00
 
    0.28952E+07         0.29667E+05         0.00000E+00
    0.29667E+05        -0.10616E+08         0.00000E+00
    0.00000E+00         0.00000E+00         0.00000E+00
 
    0.27041E+07         0.85380E+05         0.00000E+00
    0.85380E+05        -0.10621E+08         0.00000E+00
    0.00000E+00         0.00000E+00         0.00000E+00
 
    0.25245E+07         0.14044E+06         0.00000E+00
    0.14044E+06        -0.10629E+08         0.00000E+00
    0.00000E+00         0.00000E+00         0.00000E+00
 
    0.23559E+07         0.19529E+06         0.00000E+00
    0.19529E+06        -0.10642E+08         0.00000E+00
    0.00000E+00         0.00000E+00         0.00000E+00
 
    0.21979E+07         0.25035E+06         0.00000E+00
    0.25035E+06        -0.10659E+08         0.00000E+00
    0.00000E+00         0.00000E+00         0.00000E+00
 
    0.20502E+07         0.30599E+06         0.00000E+00
    0.30599E+06        -0.10678E+08         0.00000E+00
    0.00000E+00         0.00000E+00         0.00000E+00
 
    0.19122E+07         0.36259E+06         0.00000E+00
    0.36259E+06        -0.10702E+08         0.00000E+00
    0.00000E+00         0.00000E+00         0.00000E+00
 
    0.17836E+07         0.42045E+06         0.00000E+00
    0.42045E+06        -0.10728E+08         0.00000E+00
    0.00000E+00         0.00000E+00         0.00000E+00
 
    0.16640E+07         0.47988E+06         0.00000E+00
    0.47988E+06        -0.10757E+08         0.00000E+00
    0.00000E+00         0.00000E+00         0.00000E+00
 
    0.15528E+07         0.54116E+06         0.00000E+00
    0.54116E+06        -0.10788E+08         0.00000E+00
    0.00000E+00         0.00000E+00         0.00000E+00
 
    0.14498E+07         0.60453E+06         0.00000E+00
    0.60453E+06        -0.10822E+08         0.00000E+00
    0.00000E+00         0.00000E+00         0.00000E+00
 
    0.13543E+07         0.67023E+06         0.00000E+00
    0.67023E+06        -0.10858E+08         0.00000E+00
    0.00000E+00         0.00000E+00         0.00000E+00
 
    0.12662E+07         0.73845E+06         0.00000E+00
    0.73845E+06        -0.10896E+08         0.00000E+00
    0.00000E+00         0.00000E+00         0.00000E+00
 
    0.11848E+07         0.80939E+06         0.00000E+00
    0.80939E+06        -0.10936E+08         0.00000E+00
    0.00000E+00         0.00000E+00         0.00000E+00
 
    0.11098E+07         0.88321E+06         0.00000E+00
    0.88321E+06        -0.10977E+08         0.00000E+00
    0.00000E+00         0.00000E+00         0.00000E+00
 
    0.10409E+07         0.96005E+06         0.00000E+00
    0.96005E+06        -0.11019E+08         0.00000E+00
    0.00000E+00         0.00000E+00         0.00000E+00
 
    0.97754E+06         0.10400E+07         0.00000E+00
    0.10400E+07        -0.11062E+08         0.00000E+00
    0.00000E+00         0.00000E+00         0.00000E+00
 
    0.91940E+06         0.11233E+07         0.00000E+00
    0.11233E+07        -0.11106E+08         0.00000E+00
    0.00000E+00         0.00000E+00         0.00000E+00
 
    0.86608E+06         0.12099E+07         0.00000E+00
    0.12099E+07        -0.11150E+08         0.00000E+00
    0.00000E+00         0.00000E+00         0.00000E+00
 
    0.81720E+06         0.13000E+07         0.00000E+00
    0.13000E+07        -0.11195E+08         0.00000E+00
    0.00000E+00         0.00000E+00         0.00000E+00
 
    0.77239E+06         0.13935E+07         0.00000E+00
    0.13935E+07        -0.11240E+08         0.00000E+00
    0.00000E+00         0.00000E+00         0.00000E+00
 
    0.73130E+06         0.14906E+07         0.00000E+00
    0.14906E+07        -0.11285E+08         0.00000E+00
    0.00000E+00         0.00000E+00         0.00000E+00
 
    0.69357E+06         0.15913E+07         0.00000E+00
    0.15913E+07        -0.11330E+08         0.00000E+00
    0.00000E+00         0.00000E+00         0.00000E+00
 
    0.65885E+06         0.16955E+07         0.00000E+00
    0.16955E+07        -0.11375E+08         0.00000E+00
    0.00000E+00         0.00000E+00         0.00000E+00
 
    0.62682E+06         0.18034E+07         0.00000E+00
    0.18034E+07        -0.11418E+08         0.00000E+00
    0.00000E+00         0.00000E+00         0.00000E+00
 
    0.59715E+06         0.19149E+07         0.00000E+00
    0.19149E+07        -0.11461E+08         0.00000E+00
    0.00000E+00         0.00000E+00         0.00000E+00
 
    0.56953E+06         0.20300E+07         0.00000E+00
    0.20300E+07        -0.11503E+08         0.00000E+00
    0.00000E+00         0.00000E+00         0.00000E+00
 
    0.54366E+06         0.21486E+07         0.00000E+00
    0.21486E+07        -0.11544E+08         0.00000E+00
    0.00000E+00         0.00000E+00         0.00000E+00
 
    0.51926E+06         0.22708E+07         0.00000E+00
    0.22708E+07        -0.11584E+08         0.00000E+00
    0.00000E+00         0.00000E+00         0.00000E+00
 
    0.49606E+06         0.23964E+07         0.00000E+00
    0.23964E+07        -0.11622E+08         0.00000E+00
    0.00000E+00         0.00000E+00         0.00000E+00
 
    0.47379E+06         0.25255E+07         0.00000E+00
    0.25255E+07        -0.11659E+08         0.00000E+00
    0.00000E+00         0.00000E+00         0.00000E+00
 
    0.45223E+06         0.26578E+07         0.00000E+00
    0.26578E+07        -0.11694E+08         0.00000E+00
    0.00000E+00         0.00000E+00         0.00000E+00
 
    0.43113E+06         0.27935E+07         0.00000E+00
    0.27935E+07        -0.11727E+08         0.00000E+00
    0.00000E+00         0.00000E+00         0.00000E+00
 
    0.41031E+06         0.29323E+07         0.00000E+00
    0.29323E+07        -0.11758E+08         0.00000E+00
    0.00000E+00         0.00000E+00         0.00000E+00
 
    0.38956E+06         0.30742E+07         0.00000E+00
    0.30742E+07        -0.11786E+08         0.00000E+00
    0.00000E+00         0.00000E+00         0.00000E+00
 
    0.36872E+06         0.32191E+07         0.00000E+00
    0.32191E+07        -0.11813E+08         0.00000E+00
    0.00000E+00         0.00000E+00         0.00000E+00
 
    0.34765E+06         0.33669E+07         0.00000E+00
    0.33669E+07        -0.11837E+08         0.00000E+00
    0.00000E+00         0.00000E+00         0.00000E+00
 
    0.32621E+06         0.35175E+07         0.00000E+00
    0.35175E+07        -0.11859E+08         0.00000E+00
    0.00000E+00         0.00000E+00         0.00000E+00
 
    0.30431E+06         0.36707E+07         0.00000E+00
    0.36707E+07        -0.11878E+08         0.00000E+00
    0.00000E+00         0.00000E+00         0.00000E+00
 
    0.28185E+06         0.38266E+07         0.00000E+00
    0.38266E+07        -0.11895E+08         0.00000E+00
    0.00000E+00         0.00000E+00         0.00000E+00
 
    0.25877E+06         0.39849E+07         0.00000E+00
    0.39849E+07        -0.11908E+08         0.00000E+00
    0.00000E+00         0.00000E+00         0.00000E+00
 
    0.23502E+06         0.41457E+07         0.00000E+00
    0.41457E+07        -0.11919E+08         0.00000E+00
    0.00000E+00         0.00000E+00         0.00000E+00
 
    0.21059E+06         0.43088E+07         0.00000E+00
    0.43088E+07        -0.11928E+08         0.00000E+00
    0.00000E+00         0.00000E+00         0.00000E+00
 
    0.18546E+06         0.44743E+07         0.00000E+00
    0.44743E+07        -0.11933E+08         0.00000E+00
    0.00000E+00         0.00000E+00         0.00000E+00
 
    0.15963E+06         0.46420E+07         0.00000E+00
    0.46420E+07        -0.11936E+08         0.00000E+00
    0.00000E+00         0.00000E+00         0.00000E+00
 
    0.13303E+06         0.48122E+07         0.00000E+00
    0.48122E+07        -0.11936E+08         0.00000E+00
    0.00000E+00         0.00000E+00         0.00000E+00
 
    0.10550E+06         0.49849E+07         0.00000E+00
    0.49849E+07        -0.11933E+08         0.00000E+00
    0.00000E+00         0.00000E+00         0.00000E+00
 
    0.76831E+05         0.51601E+07         0.00000E+00
    0.51601E+07        -0.11926E+08         0.00000E+00
    0.00000E+00         0.00000E+00         0.00000E+00
 
    0.46812E+05         0.53377E+07         0.00000E+00
    0.53377E+07        -0.11917E+08         0.00000E+00
    0.00000E+00         0.00000E+00         0.00000E+00
 
    0.15720E+05         0.55170E+07         0.00000E+00
    0.55170E+07        -0.11904E+08         0.00000E+00
    0.00000E+00         0.00000E+00         0.00000E+00
 
    0.21884E+07         0.16489E+05         0.00000E+00
    0.16489E+05        -0.11548E+08         0.00000E+00
    0.00000E+00         0.00000E+00         0.00000E+00
 
    0.19956E+07         0.49178E+05         0.00000E+00
    0.49178E+05        -0.11554E+08         0.00000E+00
    0.00000E+00         0.00000E+00         0.00000E+00
 
    0.18165E+07         0.82456E+05         0.00000E+00
    0.82456E+05        -0.11565E+08         0.00000E+00
    0.00000E+00         0.00000E+00         0.00000E+00
 
    0.16506E+07         0.11678E+06         0.00000E+00
    0.11678E+06        -0.11581E+08         0.00000E+00
    0.00000E+00         0.00000E+00         0.00000E+00
 
    0.14972E+07         0.15257E+06         0.00000E+00
    0.15257E+06        -0.11601E+08         0.00000E+00
    0.00000E+00         0.00000E+00         0.00000E+00
 
    0.13558E+07         0.19021E+06         0.00000E+00
    0.19021E+06        -0.11626E+08         0.00000E+00
    0.00000E+00         0.00000E+00         0.00000E+00
 
    0.12259E+07         0.23005E+06         0.00000E+00
    0.23005E+06        -0.11655E+08         0.00000E+00
    0.00000E+00         0.00000E+00         0.00000E+00
 
    0.11067E+07         0.27241E+06         0.00000E+00
    0.27241E+06        -0.11687E+08         0.00000E+00
    0.00000E+00         0.00000E+00         0.00000E+00
 
    0.99792E+06         0.31758E+06         0.00000E+00
    0.31758E+06        -0.11723E+08         0.00000E+00
    0.00000E+00         0.00000E+00         0.00000E+00
 
    0.89883E+06         0.36583E+06         0.00000E+00
    0.36583E+06        -0.11762E+08         0.00000E+00
    0.00000E+00         0.00000E+00         0.00000E+00
 
    0.80895E+06         0.41739E+06         0.00000E+00
    0.41739E+06        -0.11804E+08         0.00000E+00
    0.00000E+00         0.00000E+00         0.00000E+00
 
    0.72773E+06         0.47246E+06         0.00000E+00
    0.47246E+06        -0.11849E+08         0.00000E+00
    0.00000E+00         0.00000E+00         0.00000E+00
 
    0.65466E+06         0.53124E+06         0.00000E+00
    0.53124E+06        -0.11895E+08         0.00000E+00
    0.00000E+00         0.00000E+00         0.00000E+00
 
    0.58922E+06         0.59390E+06         0.00000E+00
    0.59390E+06        -0.11944E+08         0.00000E+00
    0.00000E+00         0.00000E+00         0.00000E+00
 
    0.53091E+06         0.66057E+06         0.00000E+00
    0.66057E+06        -0.11995E+08         0.00000E+00
    0.00000E+00         0.00000E+00         0.00000E+00
 
    0.47923E+06         0.73139E+06         0.00000E+00
    0.73139E+06        -0.12046E+08         0.00000E+00
    0.00000E+00         0.00000E+00         0.00000E+00
 
    0.43370E+06         0.80646E+06         0.00000E+00
    0.80646E+06        -0.12100E+08         0.00000E+00
    0.00000E+00         0.00000E+00         0.00000E+00
 
    0.39384E+06         0.88587E+06         0.00000E+00
    0.88587E+06        -0.12154E+08         0.00000E+00
    0.00000E+00         0.00000E+00         0.00000E+00
 
    0.35919E+06         0.96970E+06         0.00000E+00
    0.96970E+06        -0.12209E+08         0.00000E+00
    0.00000E+00         0.00000E+00         0.00000E+00
 
    0.32930E+06         0.10580E+07         0.00000E+00
    0.10580E+07        -0.12264E+08         0.00000E+00
    0.00000E+00         0.00000E+00         0.00000E+00
 
    0.30373E+06         0.11508E+07         0.00000E+00
    0.11508E+07        -0.12320E+08         0.00000E+00
    0.00000E+00         0.00000E+00         0.00000E+00
 
    0.28205E+06         0.12482E+07         0.00000E+00
    0.12482E+07        -0.12376E+08         0.00000E+00
    0.00000E+00         0.00000E+00         0.00000E+00
 
    0.26384E+06         0.13501E+07         0.00000E+00
    0.13501E+07        -0.12431E+08         0.00000E+00
    0.00000E+00         0.00000E+00         0.00000E+00
 
    0.24869E+06         0.14565E+07         0.00000E+00
    0.14565E+07        -0.12487E+08         0.00000E+00
    0.00000E+00         0.00000E+00         0.00000E+00
 
    0.23621E+06         0.15676E+07         0.00000E+00
    0.15676E+07        -0.12542E+08         0.00000E+00
    0.00000E+00         0.00000E+00         0.00000E+00
 
    0.22602E+06         0.16831E+07         0.00000E+00
    0.16831E+07        -0.12596E+08         0.00000E+00
    0.00000E+00         0.00000E+00         0.00000E+00
 
    0.21774E+06         0.18031E+07         0.00000E+00
    0.18031E+07        -0.12649E+08         0.00000E+00
    0.00000E+00         0.00000E+00         0.00000E+00
 
    0.21103E+06         0.19276E+07         0.00000E+00
    0.19276E+07        -0.12701E+08         0.00000E+00
    0.00000E+00         0.00000E+00         0.00000E+00
 
    0.20554E+06         0.20564E+07         0.00000E+00
    0.20564E+07        -0.12752E+08         0.00000E+00
    0.00000E+00         0.00000E+00         0.00000E+00
 
    0.20094E+06         0.21895E+07         0.00000E+00
    0.21895E+07        -0.12801E+08         0.00000E+00
    0.00000E+00         0.00000E+00         0.00000E+00
 
    0.19694E+06         0.23268E+07         0.00000E+00
    0.23268E+07        -0.12849E+08         0.00000E+00
    0.00000E+00         0.00000E+00         0.00000E+00
 
    0.19322E+06         0.24682E+07         0.00000E+00
    0.24682E+07        -0.12895E+08         0.00000E+00
    0.00000E+00         0.00000E+00         0.00000E+00
 
    0.18954E+06         0.26137E+07         0.00000E+00
    0.26137E+07        -0.12939E+08         0.00000E+00
    0.00000E+00         0.00000E+00         0.00000E+00
 
    0.18563E+06         0.27630E+07         0.00000E+00
    0.27630E+07        -0.12981E+08         0.00000E+00
    0.00000E+00         0.00000E+00         0.00000E+00
 
    0.18128E+06         0.29161E+07         0.00000E+00
    0.29161E+07        -0.13020E+08         0.00000E+00
    0.00000E+00         0.00000E+00         0.00000E+00
 
    0.17628E+06         0.30728E+07         0.00000E+00
    0.30728E+07        -0.13057E+08         0.00000E+00
    0.00000E+00         0.00000E+00         0.00000E+00
 
    0.17044E+06         0.32329E+07         0.00000E+00
    0.32329E+07        -0.13092E+08         0.00000E+00
    0.00000E+00         0.00000E+00         0.00000E+00
 
    0.16363E+06         0.33964E+07         0.00000E+00
    0.33964E+07        -0.13123E+08         0.00000E+00
    0.00000E+00         0.00000E+00         0.00000E+00
 
    0.15576E+06         0.35630E+07         0.00000E+00
    0.35630E+07        -0.13153E+08         0.00000E+00
    0.00000E+00         0.00000E+00         0.00000E+00
 
    0.14677E+06         0.37326E+07         0.00000E+00
    0.37326E+07        -0.13179E+08         0.00000E+00
    0.00000E+00         0.00000E+00         0.00000E+00
 
    0.13667E+06         0.39051E+07         0.00000E+00
    0.39051E+07        -0.13202E+08         0.00000E+00
    0.00000E+00         0.00000E+00         0.00000E+00
 
    0.12542E+06         0.40803E+07         0.00000E+00
    0.40803E+07        -0.13222E+08         0.00000E+00
    0.00000E+00         0.00000E+00         0.00000E+00
 
    0.11305E+06         0.42580E+07         0.00000E+00
    0.42580E+07        -0.13239E+08         0.00000E+00
    0.00000E+00         0.00000E+00         0.00000E+00
 
    0.99623E+05         0.44383E+07         0.00000E+00
    0.44383E+07        -0.13252E+08         0.00000E+00
    0.00000E+00         0.00000E+00         0.00000E+00
 
    0.85216E+05         0.46208E+07         0.00000E+00
    0.46208E+07        -0.13262E+08         0.00000E+00
    0.00000E+00         0.00000E+00         0.00000E+00
 
    0.70237E+05         0.48052E+07         0.00000E+00
    0.48052E+07        -0.13269E+08         0.00000E+00
    0.00000E+00         0.00000E+00         0.00000E+00
 
    0.55212E+05         0.49918E+07         0.00000E+00
    0.49918E+07        -0.13273E+08         0.00000E+00
    0.00000E+00         0.00000E+00         0.00000E+00
 
    0.40492E+05         0.51808E+07         0.00000E+00
    0.51808E+07        -0.13275E+08         0.00000E+00
    0.00000E+00         0.00000E+00         0.00000E+00
 
    0.25988E+05         0.53735E+07         0.00000E+00
    0.53735E+07        -0.13274E+08         0.00000E+00
    0.00000E+00         0.00000E+00         0.00000E+00
 
    0.93656E+04         0.55727E+07         0.00000E+00
    0.55727E+07        -0.13270E+08         0.00000E+00
    0.00000E+00         0.00000E+00         0.00000E+00
 
    0.12554E+07         0.12906E+03         0.00000E+00
    0.12906E+03        -0.12574E+08         0.00000E+00
    0.00000E+00         0.00000E+00         0.00000E+00
 
    0.10683E+07         0.48106E+04         0.00000E+00
    0.48106E+04        -0.12581E+08         0.00000E+00
    0.00000E+00         0.00000E+00         0.00000E+00
 
    0.89710E+06         0.11772E+05         0.00000E+00
    0.11772E+05        -0.12595E+08         0.00000E+00
    0.00000E+00         0.00000E+00         0.00000E+00
 
    0.74107E+06         0.21449E+05         0.00000E+00
    0.21449E+05        -0.12614E+08         0.00000E+00
    0.00000E+00         0.00000E+00         0.00000E+00
 
    0.59945E+06         0.34233E+05         0.00000E+00
    0.34233E+05        -0.12639E+08         0.00000E+00
    0.00000E+00         0.00000E+00         0.00000E+00
 
    0.47150E+06         0.50478E+05         0.00000E+00
    0.50478E+05        -0.12668E+08         0.00000E+00
    0.00000E+00         0.00000E+00         0.00000E+00
 
    0.35649E+06         0.70503E+05         0.00000E+00
    0.70503E+05        -0.12703E+08         0.00000E+00
    0.00000E+00         0.00000E+00         0.00000E+00
 
    0.25372E+06         0.94591E+05         0.00000E+00
    0.94591E+05        -0.12742E+08         0.00000E+00
    0.00000E+00         0.00000E+00         0.00000E+00
 
    0.16248E+06         0.12300E+06         0.00000E+00
    0.12300E+06        -0.12784E+08         0.00000E+00
    0.00000E+00         0.00000E+00         0.00000E+00
 
    0.82098E+05         0.15594E+06         0.00000E+00
    0.15594E+06        -0.12831E+08         0.00000E+00
    0.00000E+00         0.00000E+00         0.00000E+00
 
    0.11911E+05         0.19363E+06         0.00000E+00
    0.19363E+06        -0.12880E+08         0.00000E+00
    0.00000E+00         0.00000E+00         0.00000E+00
 
   -0.48727E+05         0.23622E+06         0.00000E+00
    0.23622E+06        -0.12933E+08         0.00000E+00
    0.00000E+00         0.00000E+00         0.00000E+00
 
   -0.10045E+06         0.28387E+06         0.00000E+00
    0.28387E+06        -0.12988E+08         0.00000E+00
    0.00000E+00         0.00000E+00         0.00000E+00
 
   -0.14386E+06         0.33671E+06         0.00000E+00
    0.33671E+06        -0.13045E+08         0.00000E+00
    0.00000E+00         0.00000E+00         0.00000E+00
 
   -0.17956E+06         0.39484E+06         0.00000E+00
    0.39484E+06        -0.13105E+08         0.00000E+00
    0.00000E+00         0.00000E+00         0.00000E+00
 
   -0.20813E+06         0.45836E+06         0.00000E+00
    0.45836E+06        -0.13166E+08         0.00000E+00
    0.00000E+00         0.00000E+00         0.00000E+00
 
   -0.23014E+06         0.52733E+06         0.00000E+00
    0.52733E+06        -0.13229E+08         0.00000E+00
    0.00000E+00         0.00000E+00         0.00000E+00
 
   -0.24613E+06         0.60181E+06         0.00000E+00
    0.60181E+06        -0.13293E+08         0.00000E+00
    0.00000E+00         0.00000E+00         0.00000E+00
 
   -0.25665E+06         0.68184E+06         0.00000E+00
    0.68184E+06        -0.13358E+08         0.00000E+00
    0.00000E+00         0.00000E+00         0.00000E+00
 
   -0.26221E+06         0.76745E+06         0.00000E+00
    0.76745E+06        -0.13423E+08         0.00000E+00
    0.00000E+00         0.00000E+00         0.00000E+00
 
   -0.26332E+06         0.85866E+06         0.00000E+00
    0.85866E+06        -0.13489E+08         0.00000E+00
    0.00000E+00         0.00000E+00         0.00000E+00
 
   -0.26048E+06         0.95546E+06         0.00000E+00
    0.95546E+06        -0.13556E+08         0.00000E+00
    0.00000E+00         0.00000E+00         0.00000E+00
 
   -0.25416E+06         0.10578E+07         0.00000E+00
    0.10578E+07        -0.13622E+08         0.00000E+00
    0.00000E+00         0.00000E+00         0.00000E+00
 
   -0.24483E+06         0.11658E+07         0.00000E+00
    0.11658E+07        -0.13688E+08         0.00000E+00
    0.00000E+00         0.00000E+00         0.00000E+00
 
   -0.23295E+06         0.12792E+07         0.00000E+00
    0.12792E+07        -0.13754E+08         0.00000E+00
    0.00000E+00         0.00000E+00         0.00000E+00
 
   -0.21895E+06         0.13982E+07         0.00000E+00
    0.13982E+07        -0.13820E+08         0.00000E+00
    0.00000E+00         0.00000E+00         0.00000E+00
 
   -0.20327E+06         0.15226E+07         0.00000E+00
    0.15226E+07        -0.13884E+08         0.00000E+00
    0.00000E+00         0.00000E+00         0.00000E+00
 
   -0.18632E+06         0.16523E+07         0.00000E+00
    0.16523E+07        -0.13948E+08         0.00000E+00
    0.00000E+00         0.00000E+00         0.00000E+00
 
   -0.16849E+06         0.17872E+07         0.00000E+00
    0.17872E+07        -0.14010E+08         0.00000E+00
    0.00000E+00         0.00000E+00         0.00000E+00
 
   -0.15018E+06         0.19274E+07         0.00000E+00
    0.19274E+07        -0.14071E+08         0.00000E+00
    0.00000E+00         0.00000E+00         0.00000E+00
 
   -0.13174E+06         0.20726E+07         0.00000E+00
    0.20726E+07        -0.14131E+08         0.00000E+00
    0.00000E+00         0.00000E+00         0.00000E+00
 
   -0.11352E+06         0.22227E+07         0.00000E+00
    0.22227E+07        -0.14189E+08         0.00000E+00
    0.00000E+00         0.00000E+00         0.00000E+00
 
   -0.95868E+05         0.23777E+07         0.00000E+00
    0.23777E+07        -0.14245E+08         0.00000E+00
    0.00000E+00         0.00000E+00         0.00000E+00
 
   -0.79087E+05         0.25374E+07         0.00000E+00
    0.25374E+07        -0.14299E+08         0.00000E+00
    0.00000E+00         0.00000E+00         0.00000E+00
 
   -0.63456E+05         0.27015E+07         0.00000E+00
    0.27015E+07        -0.14351E+08         0.00000E+00
    0.00000E+00         0.00000E+00         0.00000E+00
 
   -0.49196E+05         0.28699E+07         0.00000E+00
    0.28699E+07        -0.14401E+08         0.00000E+00
    0.00000E+00         0.00000E+00         0.00000E+00
 
   -0.36502E+05         0.30425E+07         0.00000E+00
    0.30425E+07        -0.14448E+08         0.00000E+00
    0.00000E+00         0.00000E+00         0.00000E+00
 
   -0.25585E+05         0.32192E+07         0.00000E+00
    0.32192E+07        -0.14493E+08         0.00000E+00
    0.00000E+00         0.00000E+00         0.00000E+00
 
   -0.16641E+05         0.33996E+07         0.00000E+00
    0.33996E+07        -0.14535E+08         0.00000E+00
    0.00000E+00         0.00000E+00         0.00000E+00
 
   -0.98473E+04         0.35838E+07         0.00000E+00
    0.35838E+07        -0.14574E+08         0.00000E+00
    0.00000E+00         0.00000E+00         0.00000E+00
 
   -0.52763E+04         0.37711E+07         0.00000E+00
    0.37711E+07        -0.14610E+08         0.00000E+00
    0.00000E+00         0.00000E+00         0.00000E+00
 
   -0.26256E+04         0.39611E+07         0.00000E+00
    0.39611E+07        -0.14643E+08         0.00000E+00
    0.00000E+00         0.00000E+00         0.00000E+00
 
   -0.15226E+04         0.41539E+07         0.00000E+00
    0.41539E+07        -0.14674E+08         0.00000E+00
    0.00000E+00         0.00000E+00         0.00000E+00
 
   -0.14455E+04         0.43493E+07         0.00000E+00
    0.43493E+07        -0.14703E+08         0.00000E+00
    0.00000E+00         0.00000E+00         0.00000E+00
 
   -0.18782E+04         0.45478E+07         0.00000E+00
    0.45478E+07        -0.14729E+08         0.00000E+00
    0.00000E+00         0.00000E+00         0.00000E+00
 
   -0.34250E+04         0.47508E+07         0.00000E+00
    0.47508E+07        -0.14752E+08         0.00000E+00
    0.00000E+00         0.00000E+00         0.00000E+00
 
   -0.66516E+04         0.49567E+07         0.00000E+00
    0.49567E+07        -0.14769E+08         0.00000E+00
    0.00000E+00         0.00000E+00         0.00000E+00
 
   -0.11067E+05         0.51643E+07         0.00000E+00
    0.51643E+07        -0.14777E+08         0.00000E+00
    0.00000E+00         0.00000E+00         0.00000E+00
 
   -0.14584E+05         0.53708E+07         0.00000E+00
    0.53708E+07        -0.14780E+08         0.00000E+00
    0.00000E+00         0.00000E+00         0.00000E+00
 
   -0.78433E+04         0.55688E+07         0.00000E+00
    0.55688E+07        -0.14784E+08         0.00000E+00
    0.00000E+00         0.00000E+00         0.00000E+00
 
    0.62246E+05        -0.19364E+05         0.00000E+00
   -0.19364E+05        -0.13704E+08         0.00000E+00
    0.00000E+00         0.00000E+00         0.00000E+00
 
   -0.10947E+06        -0.47416E+05         0.00000E+00
   -0.47416E+05        -0.13712E+08         0.00000E+00
    0.00000E+00         0.00000E+00         0.00000E+00
 
   -0.26323E+06        -0.70998E+05         0.00000E+00
   -0.70998E+05        -0.13728E+08         0.00000E+00
    0.00000E+00         0.00000E+00         0.00000E+00
 
   -0.40003E+06        -0.89748E+05         0.00000E+00
   -0.89748E+05        -0.13750E+08         0.00000E+00
    0.00000E+00         0.00000E+00         0.00000E+00
 
   -0.52081E+06        -0.10334E+06         0.00000E+00
   -0.10334E+06        -0.13778E+08         0.00000E+00
    0.00000E+00         0.00000E+00         0.00000E+00
 
   -0.62649E+06        -0.11150E+06         0.00000E+00
   -0.11150E+06        -0.13812E+08         0.00000E+00
    0.00000E+00         0.00000E+00         0.00000E+00
 
   -0.71795E+06        -0.11397E+06         0.00000E+00
   -0.11397E+06        -0.13852E+08         0.00000E+00
    0.00000E+00         0.00000E+00         0.00000E+00
 
   -0.79606E+06        -0.11054E+06         0.00000E+00
   -0.11054E+06        -0.13896E+08         0.00000E+00
    0.00000E+00         0.00000E+00         0.00000E+00
 
   -0.86166E+06        -0.10103E+06         0.00000E+00
   -0.10103E+06        -0.13945E+08         0.00000E+00
    0.00000E+00         0.00000E+00         0.00000E+00
 
   -0.91555E+06        -0.85290E+05         0.00000E+00
   -0.85290E+05        -0.13997E+08         0.00000E+00
    0.00000E+00         0.00000E+00         0.00000E+00
 
   -0.95851E+06        -0.63187E+05         0.00000E+00
   -0.63187E+05        -0.14053E+08         0.00000E+00
    0.00000E+00         0.00000E+00         0.00000E+00
 
   -0.99130E+06        -0.34619E+05         0.00000E+00
   -0.34619E+05        -0.14113E+08         0.00000E+00
    0.00000E+00         0.00000E+00         0.00000E+00
 
   -0.10146E+07         0.49776E+03         0.00000E+00
    0.49776E+03        -0.14175E+08         0.00000E+00
    0.00000E+00         0.00000E+00         0.00000E+00
 
   -0.10292E+07         0.42227E+05         0.00000E+00
    0.42227E+05        -0.14240E+08         0.00000E+00
    0.00000E+00         0.00000E+00         0.00000E+00
 
   -0.10358E+07         0.90615E+05         0.00000E+00
    0.90615E+05        -0.14307E+08         0.00000E+00
    0.00000E+00         0.00000E+00         0.00000E+00
 
   -0.10349E+07         0.14569E+06         0.00000E+00
    0.14569E+06        -0.14376E+08         0.00000E+00
    0.00000E+00         0.00000E+00         0.00000E+00
 
   -0.10273E+07         0.20747E+06         0.00000E+00
    0.20747E+06        -0.14447E+08         0.00000E+00
    0.00000E+00         0.00000E+00         0.00000E+00
 
   -0.10135E+07         0.27597E+06         0.00000E+00
    0.27597E+06        -0.14519E+08         0.00000E+00
    0.00000E+00         0.00000E+00         0.00000E+00
 
   -0.99417E+06         0.35116E+06         0.00000E+00
    0.35116E+06        -0.14592E+08         0.00000E+00
    0.00000E+00         0.00000E+00         0.00000E+00
 
   -0.96985E+06         0.43304E+06         0.00000E+00
    0.43304E+06        -0.14666E+08         0.00000E+00
    0.00000E+00         0.00000E+00         0.00000E+00
 
   -0.94112E+06         0.52157E+06         0.00000E+00
    0.52157E+06        -0.14741E+08         0.00000E+00
    0.00000E+00         0.00000E+00         0.00000E+00
 
   -0.90851E+06         0.61673E+06         0.00000E+00
    0.61673E+06        -0.14816E+08         0.00000E+00
    0.00000E+00         0.00000E+00         0.00000E+00
 
   -0.87256E+06         0.71846E+06         0.00000E+00
    0.71846E+06        -0.14891E+08         0.00000E+00
    0.00000E+00         0.00000E+00         0.00000E+00
 
   -0.83377E+06         0.82671E+06         0.00000E+00
    0.82671E+06        -0.14967E+08         0.00000E+00
    0.00000E+00         0.00000E+00         0.00000E+00
 
   -0.79267E+06         0.94141E+06         0.00000E+00
    0.94141E+06        -0.15042E+08         0.00000E+00
    0.00000E+00         0.00000E+00         0.00000E+00
 
   -0.74973E+06         0.10625E+07         0.00000E+00
    0.10625E+07        -0.15117E+08         0.00000E+00
    0.00000E+00         0.00000E+00         0.00000E+00
 
   -0.70544E+06         0.11899E+07         0.00000E+00
    0.11899E+07        -0.15192E+08         0.00000E+00
    0.00000E+00         0.00000E+00         0.00000E+00
 
   -0.66026E+06         0.13235E+07         0.00000E+00
    0.13235E+07        -0.15265E+08         0.00000E+00
    0.00000E+00         0.00000E+00         0.00000E+00
 
   -0.61465E+06         0.14632E+07         0.00000E+00
    0.14632E+07        -0.15338E+08         0.00000E+00
    0.00000E+00         0.00000E+00         0.00000E+00
 
   -0.56907E+06         0.16089E+07         0.00000E+00
    0.16089E+07        -0.15410E+08         0.00000E+00
    0.00000E+00         0.00000E+00         0.00000E+00
 
   -0.52397E+06         0.17605E+07         0.00000E+00
    0.17605E+07        -0.15481E+08         0.00000E+00
    0.00000E+00         0.00000E+00         0.00000E+00
 
   -0.47975E+06         0.19178E+07         0.00000E+00
    0.19178E+07        -0.15551E+08         0.00000E+00
    0.00000E+00         0.00000E+00         0.00000E+00
 
   -0.43680E+06         0.20806E+07         0.00000E+00
    0.20806E+07        -0.15619E+08         0.00000E+00
    0.00000E+00         0.00000E+00         0.00000E+00
 
   -0.39545E+06         0.22488E+07         0.00000E+00
    0.22488E+07        -0.15685E+08         0.00000E+00
    0.00000E+00         0.00000E+00         0.00000E+00
 
   -0.35613E+06         0.24222E+07         0.00000E+00
    0.24222E+07        -0.15750E+08         0.00000E+00
    0.00000E+00         0.00000E+00         0.00000E+00
 
   -0.31930E+06         0.26007E+07         0.00000E+00
    0.26007E+07        -0.15813E+08         0.00000E+00
    0.00000E+00         0.00000E+00         0.00000E+00
 
   -0.28533E+06         0.27838E+07         0.00000E+00
    0.27838E+07        -0.15874E+08         0.00000E+00
    0.00000E+00         0.00000E+00         0.00000E+00
 
   -0.25428E+06         0.29709E+07         0.00000E+00
    0.29709E+07        -0.15933E+08         0.00000E+00
    0.00000E+00         0.00000E+00         0.00000E+00
 
   -0.22607E+06         0.31619E+07         0.00000E+00
    0.31619E+07        -0.15990E+08         0.00000E+00
    0.00000E+00         0.00000E+00         0.00000E+00
 
   -0.20045E+06         0.33565E+07         0.00000E+00
    0.33565E+07        -0.16046E+08         0.00000E+00
    0.00000E+00         0.00000E+00         0.00000E+00
 
   -0.17754E+06         0.35555E+07         0.00000E+00
    0.35555E+07        -0.16101E+08         0.00000E+00
    0.00000E+00         0.00000E+00         0.00000E+00
 
   -0.15863E+06         0.37598E+07         0.00000E+00
    0.37598E+07        -0.16155E+08         0.00000E+00
    0.00000E+00         0.00000E+00         0.00000E+00
 
   -0.14475E+06         0.39670E+07         0.00000E+00
    0.39670E+07        -0.16202E+08         0.00000E+00
    0.00000E+00         0.00000E+00         0.00000E+00
 
   -0.13685E+06         0.41769E+07         0.00000E+00
    0.41769E+07        -0.16243E+08         0.00000E+00
    0.00000E+00         0.00000E+00         0.00000E+00
 
   -0.13449E+06         0.43844E+07         0.00000E+00
    0.43844E+07        -0.16282E+08         0.00000E+00
    0.00000E+00         0.00000E+00         0.00000E+00
 
   -0.13116E+06         0.45835E+07         0.00000E+00
    0.45835E+07        -0.16322E+08         0.00000E+00
    0.00000E+00         0.00000E+00         0.00000E+00
 
   -0.11992E+06         0.47818E+07         0.00000E+00
    0.47818E+07        -0.16380E+08         0.00000E+00
    0.00000E+00         0.00000E+00         0.00000E+00
 
   -0.96495E+05         0.49850E+07         0.00000E+00
    0.49850E+07        -0.16471E+08         0.00000E+00
    0.00000E+00         0.00000E+00         0.00000E+00
 
   -0.11760E+06         0.51737E+07         0.00000E+00
    0.51737E+07        -0.16554E+08         0.00000E+00
    0.00000E+00         0.00000E+00        -0.56700E+05
 
   -0.15517E+06         0.53558E+07         0.00000E+00
    0.53558E+07        -0.16635E+08         0.00000E+00
    0.00000E+00         0.00000E+00        -0.13473E+06
 
   -0.14224E+07        -0.41628E+05         0.00000E+00
   -0.41628E+05        -0.14945E+08         0.00000E+00
    0.00000E+00         0.00000E+00         0.00000E+00
 
   -0.15663E+07        -0.10634E+06         0.00000E+00
   -0.10634E+06        -0.14954E+08         0.00000E+00
    0.00000E+00         0.00000E+00         0.00000E+00
 
   -0.16906E+07        -0.16390E+06         0.00000E+00
   -0.16390E+06        -0.14971E+08         0.00000E+00
    0.00000E+00         0.00000E+00         0.00000E+00
 
   -0.17967E+07        -0.21405E+06         0.00000E+00
   -0.21405E+06        -0.14996E+08         0.00000E+00
    0.00000E+00         0.00000E+00         0.00000E+00
 
   -0.18855E+07        -0.25659E+06         0.00000E+00
   -0.25659E+06        -0.15027E+08         0.00000E+00
    0.00000E+00         0.00000E+00         0.00000E+00
 
   -0.19583E+07        -0.29134E+06         0.00000E+00
   -0.29134E+06        -0.15064E+08         0.00000E+00
    0.00000E+00         0.00000E+00         0.00000E+00
 
   -0.20161E+07        -0.31818E+06         0.00000E+00
   -0.31818E+06        -0.15107E+08         0.00000E+00
    0.00000E+00         0.00000E+00         0.00000E+00
 
   -0.20598E+07        -0.33702E+06         0.00000E+00
   -0.33702E+06        -0.15156E+08         0.00000E+00
    0.00000E+00         0.00000E+00         0.00000E+00
 
   -0.20905E+07        -0.34777E+06         0.00000E+00
   -0.34777E+06        -0.15208E+08         0.00000E+00
    0.00000E+00         0.00000E+00         0.00000E+00
 
   -0.21091E+07        -0.35039E+06         0.00000E+00
   -0.35039E+06        -0.15265E+08         0.00000E+00
    0.00000E+00         0.00000E+00         0.00000E+00
 
   -0.21164E+07        -0.34487E+06         0.00000E+00
   -0.34487E+06        -0.15326E+08         0.00000E+00
    0.00000E+00         0.00000E+00         0.00000E+00
 
   -0.21133E+07        -0.33119E+06         0.00000E+00
   -0.33119E+06        -0.15390E+08         0.00000E+00
    0.00000E+00         0.00000E+00         0.00000E+00
 
   -0.21006E+07        -0.30938E+06         0.00000E+00
   -0.30938E+06        -0.15457E+08         0.00000E+00
    0.00000E+00         0.00000E+00         0.00000E+00
 
   -0.20792E+07        -0.27946E+06         0.00000E+00
   -0.27946E+06        -0.15526E+08         0.00000E+00
    0.00000E+00         0.00000E+00         0.00000E+00
 
   -0.20497E+07        -0.24149E+06         0.00000E+00
   -0.24149E+06        -0.15598E+08         0.00000E+00
    0.00000E+00         0.00000E+00         0.00000E+00
 
   -0.20128E+07        -0.19552E+06         0.00000E+00
   -0.19552E+06        -0.15672E+08         0.00000E+00
    0.00000E+00         0.00000E+00         0.00000E+00
 
   -0.19693E+07        -0.14161E+06         0.00000E+00
   -0.14161E+06        -0.15747E+08         0.00000E+00
    0.00000E+00         0.00000E+00         0.00000E+00
 
   -0.19199E+07        -0.79828E+05         0.00000E+00
   -0.79828E+05        -0.15824E+08         0.00000E+00
    0.00000E+00         0.00000E+00         0.00000E+00
 
   -0.18650E+07        -0.10264E+05         0.00000E+00
   -0.10264E+05        -0.15902E+08         0.00000E+00
    0.00000E+00         0.00000E+00         0.00000E+00
 
   -0.18055E+07         0.67005E+05         0.00000E+00
    0.67005E+05        -0.15981E+08         0.00000E+00
    0.00000E+00         0.00000E+00         0.00000E+00
 
   -0.17417E+07         0.15189E+06         0.00000E+00
    0.15189E+06        -0.16061E+08         0.00000E+00
    0.00000E+00         0.00000E+00         0.00000E+00
 
   -0.16744E+07         0.24431E+06         0.00000E+00
    0.24431E+06        -0.16141E+08         0.00000E+00
    0.00000E+00         0.00000E+00         0.00000E+00
 
   -0.16040E+07         0.34417E+06         0.00000E+00
    0.34417E+06        -0.16222E+08         0.00000E+00
    0.00000E+00         0.00000E+00         0.00000E+00
 
   -0.15312E+07         0.45138E+06         0.00000E+00
    0.45138E+06        -0.16303E+08         0.00000E+00
    0.00000E+00         0.00000E+00         0.00000E+00
 
   -0.14564E+07         0.56583E+06         0.00000E+00
    0.56583E+06        -0.16384E+08         0.00000E+00
    0.00000E+00         0.00000E+00         0.00000E+00
 
   -0.13801E+07         0.68745E+06         0.00000E+00
    0.68745E+06        -0.16465E+08         0.00000E+00
    0.00000E+00         0.00000E+00         0.00000E+00
 
   -0.13030E+07         0.81613E+06         0.00000E+00
    0.81613E+06        -0.16546E+08         0.00000E+00
    0.00000E+00         0.00000E+00         0.00000E+00
 
   -0.12255E+07         0.95176E+06         0.00000E+00
    0.95176E+06        -0.16627E+08         0.00000E+00
    0.00000E+00         0.00000E+00         0.00000E+00
 
   -0.11480E+07         0.10942E+07         0.00000E+00
    0.10942E+07        -0.16707E+08         0.00000E+00
    0.00000E+00         0.00000E+00         0.00000E+00
 
   -0.10712E+07         0.12433E+07         0.00000E+00
    0.12433E+07        -0.16786E+08         0.00000E+00
    0.00000E+00         0.00000E+00         0.00000E+00
 
   -0.99553E+06         0.13989E+07         0.00000E+00
    0.13989E+07        -0.16865E+08         0.00000E+00
    0.00000E+00         0.00000E+00         0.00000E+00
 
   -0.92150E+06         0.15610E+07         0.00000E+00
    0.15610E+07        -0.16943E+08         0.00000E+00
    0.00000E+00         0.00000E+00         0.00000E+00
 
   -0.84982E+06         0.17295E+07         0.00000E+00
    0.17295E+07        -0.17019E+08         0.00000E+00
    0.00000E+00         0.00000E+00         0.00000E+00
 
   -0.78107E+06         0.19038E+07         0.00000E+00
    0.19038E+07        -0.17095E+08         0.00000E+00
    0.00000E+00         0.00000E+00         0.00000E+00
 
   -0.71546E+06         0.20833E+07         0.00000E+00
    0.20833E+07        -0.17168E+08         0.00000E+00
    0.00000E+00         0.00000E+00         0.00000E+00
 
   -0.65299E+06         0.22677E+07         0.00000E+00
    0.22677E+07        -0.17242E+08         0.00000E+00
    0.00000E+00         0.00000E+00         0.00000E+00
 
   -0.59395E+06         0.24578E+07         0.00000E+00
    0.24578E+07        -0.17315E+08         0.00000E+00
    0.00000E+00         0.00000E+00         0.00000E+00
 
   -0.53981E+06         0.26543E+07         0.00000E+00
    0.26543E+07        -0.17387E+08         0.00000E+00
    0.00000E+00         0.00000E+00         0.00000E+00
 
   -0.49243E+06         0.28559E+07         0.00000E+00
    0.28559E+07        -0.17453E+08         0.00000E+00
    0.00000E+00         0.00000E+00         0.00000E+00
 
   -0.45378E+06         0.30615E+07         0.00000E+00
    0.30615E+07        -0.17512E+08         0.00000E+00
    0.00000E+00         0.00000E+00         0.00000E+00
 
   -0.42362E+06         0.32648E+07         0.00000E+00
    0.32648E+07        -0.17569E+08         0.00000E+00
    0.00000E+00         0.00000E+00         0.00000E+00
 
   -0.39607E+06         0.34610E+07         0.00000E+00
    0.34610E+07        -0.17626E+08         0.00000E+00
    0.00000E+00         0.00000E+00         0.00000E+00
 
   -0.36615E+06         0.36583E+07         0.00000E+00
    0.36583E+07        -0.17707E+08         0.00000E+00
    0.00000E+00         0.00000E+00         0.00000E+00
 
   -0.33048E+06         0.38558E+07         0.00000E+00
    0.38558E+07        -0.17811E+08         0.00000E+00
    0.00000E+00         0.00000E+00        -0.21658E+04
 
   -0.34756E+06         0.40433E+07         0.00000E+00
    0.40433E+07        -0.17900E+08         0.00000E+00
    0.00000E+00         0.00000E+00        -0.68127E+05
 
   -0.36885E+06         0.42302E+07         0.00000E+00
    0.42302E+07        -0.17988E+08         0.00000E+00
    0.00000E+00         0.00000E+00        -0.14150E+06
 
   -0.41488E+06         0.44074E+07         0.00000E+00
    0.44074E+07        -0.18066E+08         0.00000E+00
    0.00000E+00         0.00000E+00        -0.24344E+06
 
   -0.51209E+06         0.45616E+07         0.00000E+00
    0.45616E+07        -0.18125E+08         0.00000E+00
    0.00000E+00         0.00000E+00        -0.39775E+06
 
   -0.62816E+06         0.47110E+07         0.00000E+00
    0.47110E+07        -0.18210E+08         0.00000E+00
    0.00000E+00         0.00000E+00        -0.56716E+06
 
   -0.75289E+06         0.48476E+07         0.00000E+00
    0.48476E+07        -0.18310E+08         0.00000E+00
    0.00000E+00         0.00000E+00        -0.73535E+06
 
   -0.32235E+07        -0.65950E+05         0.00000E+00
   -0.65950E+05        -0.16304E+08         0.00000E+00
    0.00000E+00         0.00000E+00         0.00000E+00
 
   -0.33244E+07        -0.16995E+06         0.00000E+00
   -0.16995E+06        -0.16314E+08         0.00000E+00
    0.00000E+00         0.00000E+00         0.00000E+00
 
   -0.34049E+07        -0.26357E+06         0.00000E+00
   -0.26357E+06        -0.16332E+08         0.00000E+00
    0.00000E+00         0.00000E+00         0.00000E+00
 
   -0.34665E+07        -0.34678E+06         0.00000E+00
   -0.34678E+06        -0.16358E+08         0.00000E+00
    0.00000E+00         0.00000E+00         0.00000E+00
 
   -0.35105E+07        -0.41952E+06         0.00000E+00
   -0.41952E+06        -0.16390E+08         0.00000E+00
    0.00000E+00         0.00000E+00         0.00000E+00
 
   -0.35380E+07        -0.48179E+06         0.00000E+00
   -0.48179E+06        -0.16429E+08         0.00000E+00
    0.00000E+00         0.00000E+00         0.00000E+00
 
   -0.35504E+07        -0.53362E+06         0.00000E+00
   -0.53362E+06        -0.16474E+08         0.00000E+00
    0.00000E+00         0.00000E+00         0.00000E+00
 
   -0.35487E+07        -0.57508E+06         0.00000E+00
   -0.57508E+06        -0.16524E+08         0.00000E+00
    0.00000E+00         0.00000E+00         0.00000E+00
 
   -0.35341E+07        -0.60623E+06         0.00000E+00
   -0.60623E+06        -0.16578E+08         0.00000E+00
    0.00000E+00         0.00000E+00         0.00000E+00
 
   -0.35075E+07        -0.62718E+06         0.00000E+00
   -0.62718E+06        -0.16636E+08         0.00000E+00
    0.00000E+00         0.00000E+00         0.00000E+00
 
   -0.34700E+07        -0.63807E+06         0.00000E+00
   -0.63807E+06        -0.16698E+08         0.00000E+00
    0.00000E+00         0.00000E+00         0.00000E+00
 
   -0.34224E+07        -0.63903E+06         0.00000E+00
   -0.63903E+06        -0.16763E+08         0.00000E+00
    0.00000E+00         0.00000E+00         0.00000E+00
 
   -0.33658E+07        -0.63021E+06         0.00000E+00
   -0.63021E+06        -0.16831E+08         0.00000E+00
    0.00000E+00         0.00000E+00         0.00000E+00
 
   -0.33008E+07        -0.61179E+06         0.00000E+00
   -0.61179E+06        -0.16901E+08         0.00000E+00
    0.00000E+00         0.00000E+00         0.00000E+00
 
   -0.32283E+07        -0.58392E+06         0.00000E+00
   -0.58392E+06        -0.16973E+08         0.00000E+00
    0.00000E+00         0.00000E+00         0.00000E+00
 
   -0.31490E+07        -0.54679E+06         0.00000E+00
   -0.54679E+06        -0.17047E+08         0.00000E+00
    0.00000E+00         0.00000E+00         0.00000E+00
 
   -0.30636E+07        -0.50058E+06         0.00000E+00
   -0.50058E+06        -0.17122E+08         0.00000E+00
    0.00000E+00         0.00000E+00         0.00000E+00
 
   -0.29729E+07        -0.44545E+06         0.00000E+00
   -0.44545E+06        -0.17199E+08         0.00000E+00
    0.00000E+00         0.00000E+00         0.00000E+00
 
   -0.28774E+07        -0.38160E+06         0.00000E+00
   -0.38160E+06        -0.17276E+08         0.00000E+00
    0.00000E+00         0.00000E+00         0.00000E+00
 
   -0.27777E+07        -0.30919E+06         0.00000E+00
   -0.30919E+06        -0.17355E+08         0.00000E+00
    0.00000E+00         0.00000E+00         0.00000E+00
 
   -0.26745E+07        -0.22838E+06         0.00000E+00
   -0.22838E+06        -0.17434E+08         0.00000E+00
    0.00000E+00         0.00000E+00         0.00000E+00
 
   -0.25682E+07        -0.13932E+06         0.00000E+00
   -0.13932E+06        -0.17514E+08         0.00000E+00
    0.00000E+00         0.00000E+00         0.00000E+00
 
   -0.24594E+07        -0.42164E+05         0.00000E+00
   -0.42164E+05        -0.17595E+08         0.00000E+00
    0.00000E+00         0.00000E+00         0.00000E+00
 
   -0.23487E+07         0.62961E+05         0.00000E+00
    0.62961E+05        -0.17675E+08         0.00000E+00
    0.00000E+00         0.00000E+00         0.00000E+00
 
   -0.22365E+07         0.17591E+06         0.00000E+00
    0.17591E+06        -0.17756E+08         0.00000E+00
    0.00000E+00         0.00000E+00         0.00000E+00
 
   -0.21234E+07         0.29654E+06         0.00000E+00
    0.29654E+06        -0.17837E+08         0.00000E+00
    0.00000E+00         0.00000E+00         0.00000E+00
 
   -0.20099E+07         0.42474E+06         0.00000E+00
    0.42474E+06        -0.17918E+08         0.00000E+00
    0.00000E+00         0.00000E+00         0.00000E+00
 
   -0.18964E+07         0.56043E+06         0.00000E+00
    0.56043E+06        -0.17999E+08         0.00000E+00
    0.00000E+00         0.00000E+00         0.00000E+00
 
   -0.17836E+07         0.70363E+06         0.00000E+00
    0.70363E+06        -0.18080E+08         0.00000E+00
    0.00000E+00         0.00000E+00         0.00000E+00
 
   -0.16721E+07         0.85425E+06         0.00000E+00
    0.85425E+06        -0.18160E+08         0.00000E+00
    0.00000E+00         0.00000E+00         0.00000E+00
 
   -0.15626E+07         0.10119E+07         0.00000E+00
    0.10119E+07        -0.18240E+08         0.00000E+00
    0.00000E+00         0.00000E+00         0.00000E+00
 
   -0.14555E+07         0.11762E+07         0.00000E+00
    0.11762E+07        -0.18319E+08         0.00000E+00
    0.00000E+00         0.00000E+00         0.00000E+00
 
   -0.13508E+07         0.13468E+07         0.00000E+00
    0.13468E+07        -0.18398E+08         0.00000E+00
    0.00000E+00         0.00000E+00         0.00000E+00
 
   -0.12492E+07         0.15251E+07         0.00000E+00
    0.15251E+07        -0.18477E+08         0.00000E+00
    0.00000E+00         0.00000E+00         0.00000E+00
 
   -0.11531E+07         0.17120E+07         0.00000E+00
    0.17120E+07        -0.18556E+08         0.00000E+00
    0.00000E+00         0.00000E+00         0.00000E+00
 
   -0.10651E+07         0.19062E+07         0.00000E+00
    0.19062E+07        -0.18626E+08         0.00000E+00
    0.00000E+00         0.00000E+00         0.00000E+00
 
   -0.98658E+06         0.21031E+07         0.00000E+00
    0.21031E+07        -0.18692E+08         0.00000E+00
    0.00000E+00         0.00000E+00         0.00000E+00
 
   -0.91362E+06         0.22966E+07         0.00000E+00
    0.22966E+07        -0.18756E+08         0.00000E+00
    0.00000E+00         0.00000E+00         0.00000E+00
 
   -0.84064E+06         0.24911E+07         0.00000E+00
    0.24911E+07        -0.18839E+08         0.00000E+00
    0.00000E+00         0.00000E+00         0.00000E+00
 
   -0.76583E+06         0.26882E+07         0.00000E+00
    0.26882E+07        -0.18946E+08         0.00000E+00
    0.00000E+00         0.00000E+00        -0.51128E+04
 
   -0.74421E+06         0.28824E+07         0.00000E+00
    0.28824E+07        -0.19035E+08         0.00000E+00
    0.00000E+00         0.00000E+00        -0.77363E+05
 
   -0.72118E+06         0.30814E+07         0.00000E+00
    0.30814E+07        -0.19123E+08         0.00000E+00
    0.00000E+00         0.00000E+00        -0.15349E+06
 
   -0.73594E+06         0.32747E+07         0.00000E+00
    0.32747E+07        -0.19189E+08         0.00000E+00
    0.00000E+00         0.00000E+00        -0.27621E+06
 
   -0.78679E+06         0.34560E+07         0.00000E+00
    0.34560E+07        -0.19240E+08         0.00000E+00
    0.00000E+00         0.00000E+00        -0.43843E+06
 
   -0.85933E+06         0.36371E+07         0.00000E+00
    0.36371E+07        -0.19316E+08         0.00000E+00
    0.00000E+00         0.00000E+00        -0.61948E+06
 
   -0.93875E+06         0.38063E+07         0.00000E+00
    0.38063E+07        -0.19396E+08         0.00000E+00
    0.00000E+00         0.00000E+00        -0.79722E+06
 
   -0.10306E+07         0.39637E+07         0.00000E+00
    0.39637E+07        -0.19482E+08         0.00000E+00
    0.00000E+00         0.00000E+00        -0.96461E+06
 
   -0.11392E+07         0.41173E+07         0.00000E+00
    0.41173E+07        -0.19570E+08         0.00000E+00
    0.00000E+00         0.00000E+00        -0.11216E+07
 
   -0.12580E+07         0.42678E+07         0.00000E+00
    0.42678E+07        -0.19652E+08         0.00000E+00
    0.00000E+00         0.00000E+00        -0.12625E+07
 
   -0.13877E+07         0.44204E+07         0.00000E+00
    0.44204E+07        -0.19727E+08         0.00000E+00
    0.00000E+00         0.00000E+00        -0.13922E+07
 
   -0.53562E+07        -0.91412E+05         0.00000E+00
   -0.91412E+05        -0.17786E+08         0.00000E+00
    0.00000E+00         0.00000E+00         0.00000E+00
 
   -0.53964E+07        -0.23535E+06         0.00000E+00
   -0.23535E+06        -0.17796E+08         0.00000E+00
    0.00000E+00         0.00000E+00         0.00000E+00
 
   -0.54164E+07        -0.36538E+06         0.00000E+00
   -0.36538E+06        -0.17814E+08         0.00000E+00
    0.00000E+00         0.00000E+00         0.00000E+00
 
   -0.54178E+07        -0.48154E+06         0.00000E+00
   -0.48154E+06        -0.17840E+08         0.00000E+00
    0.00000E+00         0.00000E+00         0.00000E+00
 
   -0.54019E+07        -0.58399E+06         0.00000E+00
   -0.58399E+06        -0.17873E+08         0.00000E+00
    0.00000E+00         0.00000E+00         0.00000E+00
 
   -0.53702E+07        -0.67295E+06         0.00000E+00
   -0.67295E+06        -0.17911E+08         0.00000E+00
    0.00000E+00         0.00000E+00         0.00000E+00
 
   -0.53241E+07        -0.74865E+06         0.00000E+00
   -0.74865E+06        -0.17955E+08         0.00000E+00
    0.00000E+00         0.00000E+00         0.00000E+00
 
   -0.52647E+07        -0.81137E+06         0.00000E+00
   -0.81137E+06        -0.18003E+08         0.00000E+00
    0.00000E+00         0.00000E+00         0.00000E+00
 
   -0.51933E+07        -0.86139E+06         0.00000E+00
   -0.86139E+06        -0.18055E+08         0.00000E+00
    0.00000E+00         0.00000E+00         0.00000E+00
 
   -0.51111E+07        -0.89900E+06         0.00000E+00
   -0.89900E+06        -0.18111E+08         0.00000E+00
    0.00000E+00         0.00000E+00         0.00000E+00
 
   -0.50190E+07        -0.92452E+06         0.00000E+00
   -0.92452E+06        -0.18170E+08         0.00000E+00
    0.00000E+00         0.00000E+00         0.00000E+00
 
   -0.49180E+07        -0.93828E+06         0.00000E+00
   -0.93828E+06        -0.18231E+08         0.00000E+00
    0.00000E+00         0.00000E+00         0.00000E+00
 
   -0.48090E+07        -0.94062E+06         0.00000E+00
   -0.94062E+06        -0.18295E+08         0.00000E+00
    0.00000E+00         0.00000E+00         0.00000E+00
 
   -0.46930E+07        -0.93187E+06         0.00000E+00
   -0.93187E+06        -0.18360E+08         0.00000E+00
    0.00000E+00         0.00000E+00         0.00000E+00
 
   -0.45707E+07        -0.91237E+06         0.00000E+00
   -0.91237E+06        -0.18427E+08         0.00000E+00
    0.00000E+00         0.00000E+00         0.00000E+00
 
   -0.44429E+07        -0.88244E+06         0.00000E+00
   -0.88244E+06        -0.18495E+08         0.00000E+00
    0.00000E+00         0.00000E+00         0.00000E+00
 
   -0.43102E+07        -0.84242E+06         0.00000E+00
   -0.84242E+06        -0.18564E+08         0.00000E+00
    0.00000E+00         0.00000E+00         0.00000E+00
 
   -0.41733E+07        -0.79262E+06         0.00000E+00
   -0.79262E+06        -0.18634E+08         0.00000E+00
    0.00000E+00         0.00000E+00         0.00000E+00
 
   -0.40327E+07        -0.73335E+06         0.00000E+00
   -0.73335E+06        -0.18704E+08         0.00000E+00
    0.00000E+00         0.00000E+00         0.00000E+00
 
   -0.38891E+07        -0.66491E+06         0.00000E+00
   -0.66491E+06        -0.18775E+08         0.00000E+00
    0.00000E+00         0.00000E+00         0.00000E+00
 
   -0.37429E+07        -0.58756E+06         0.00000E+00
   -0.58756E+06        -0.18847E+08         0.00000E+00
    0.00000E+00         0.00000E+00         0.00000E+00
 
   -0.35946E+07        -0.50158E+06         0.00000E+00
   -0.50158E+06        -0.18918E+08         0.00000E+00
    0.00000E+00         0.00000E+00         0.00000E+00
 
   -0.34446E+07        -0.40718E+06         0.00000E+00
   -0.40718E+06        -0.18990E+08         0.00000E+00
    0.00000E+00         0.00000E+00         0.00000E+00
 
   -0.32934E+07        -0.30453E+06         0.00000E+00
   -0.30453E+06        -0.19062E+08         0.00000E+00
    0.00000E+00         0.00000E+00         0.00000E+00
 
   -0.31413E+07        -0.19372E+06         0.00000E+00
   -0.19372E+06        -0.19135E+08         0.00000E+00
    0.00000E+00         0.00000E+00         0.00000E+00
 
   -0.29888E+07        -0.74857E+05         0.00000E+00
   -0.74857E+05        -0.19207E+08         0.00000E+00
    0.00000E+00         0.00000E+00         0.00000E+00
 
   -0.28365E+07         0.51922E+05         0.00000E+00
    0.51922E+05        -0.19280E+08         0.00000E+00
    0.00000E+00         0.00000E+00         0.00000E+00
 
   -0.26848E+07         0.18639E+06         0.00000E+00
    0.18639E+06        -0.19353E+08         0.00000E+00
    0.00000E+00         0.00000E+00         0.00000E+00
 
   -0.25338E+07         0.32810E+06         0.00000E+00
    0.32810E+06        -0.19425E+08         0.00000E+00
    0.00000E+00         0.00000E+00         0.00000E+00
 
   -0.23837E+07         0.47733E+06         0.00000E+00
    0.47733E+06        -0.19498E+08         0.00000E+00
    0.00000E+00         0.00000E+00         0.00000E+00
 
   -0.22353E+07         0.63521E+06         0.00000E+00
    0.63521E+06        -0.19571E+08         0.00000E+00
    0.00000E+00         0.00000E+00         0.00000E+00
 
   -0.20906E+07         0.80267E+06         0.00000E+00
    0.80267E+06        -0.19645E+08         0.00000E+00
    0.00000E+00         0.00000E+00         0.00000E+00
 
   -0.19520E+07         0.97886E+06         0.00000E+00
    0.97886E+06        -0.19714E+08         0.00000E+00
    0.00000E+00         0.00000E+00         0.00000E+00
 
   -0.18195E+07         0.11580E+07         0.00000E+00
    0.11580E+07        -0.19778E+08         0.00000E+00
    0.00000E+00         0.00000E+00         0.00000E+00
 
   -0.16881E+07         0.13372E+07         0.00000E+00
    0.13372E+07        -0.19841E+08         0.00000E+00
    0.00000E+00         0.00000E+00         0.00000E+00
 
   -0.15512E+07         0.15215E+07         0.00000E+00
    0.15215E+07        -0.19937E+08         0.00000E+00
    0.00000E+00         0.00000E+00         0.00000E+00
 
   -0.14555E+07         0.17094E+07         0.00000E+00
    0.17094E+07        -0.20026E+08         0.00000E+00
    0.00000E+00         0.00000E+00        -0.60267E+05
 
   -0.13663E+07         0.19057E+07         0.00000E+00
    0.19057E+07        -0.20111E+08         0.00000E+00
    0.00000E+00         0.00000E+00        -0.13900E+06
 
   -0.13046E+07         0.21055E+07         0.00000E+00
    0.21055E+07        -0.20178E+08         0.00000E+00
    0.00000E+00         0.00000E+00        -0.25927E+06
 
   -0.12860E+07         0.23006E+07         0.00000E+00
    0.23006E+07        -0.20226E+08         0.00000E+00
    0.00000E+00         0.00000E+00        -0.43251E+06
 
   -0.12903E+07         0.24970E+07         0.00000E+00
    0.24970E+07        -0.20300E+08         0.00000E+00
    0.00000E+00         0.00000E+00        -0.62800E+06
 
   -0.13059E+07         0.26848E+07         0.00000E+00
    0.26848E+07        -0.20377E+08         0.00000E+00
    0.00000E+00         0.00000E+00        -0.82174E+06
 
   -0.13398E+07         0.28652E+07         0.00000E+00
    0.28652E+07        -0.20459E+08         0.00000E+00
    0.00000E+00         0.00000E+00        -0.10092E+07
 
   -0.13946E+07         0.30433E+07         0.00000E+00
    0.30433E+07        -0.20544E+08         0.00000E+00
    0.00000E+00         0.00000E+00        -0.11879E+07
 
   -0.14650E+07         0.32192E+07         0.00000E+00
    0.32192E+07        -0.20624E+08         0.00000E+00
    0.00000E+00         0.00000E+00        -0.13510E+07
 
   -0.15526E+07         0.33976E+07         0.00000E+00
    0.33976E+07        -0.20702E+08         0.00000E+00
    0.00000E+00         0.00000E+00        -0.15040E+07
 
   -0.16523E+07         0.35790E+07         0.00000E+00
    0.35790E+07        -0.20773E+08         0.00000E+00
    0.00000E+00         0.00000E+00        -0.16470E+07
 
   -0.17612E+07         0.37616E+07         0.00000E+00
    0.37616E+07        -0.20836E+08         0.00000E+00
    0.00000E+00         0.00000E+00        -0.17797E+07
 
   -0.18800E+07         0.39464E+07         0.00000E+00
    0.39464E+07        -0.20892E+08         0.00000E+00
    0.00000E+00         0.00000E+00        -0.19040E+07
 
   -0.20081E+07         0.41317E+07         0.00000E+00
    0.41317E+07        -0.20942E+08         0.00000E+00
    0.00000E+00         0.00000E+00        -0.20193E+07
 
   -0.78224E+07        -0.11665E+06         0.00000E+00
   -0.11665E+06        -0.19394E+08         0.00000E+00
    0.00000E+00         0.00000E+00         0.00000E+00
 
   -0.77821E+07        -0.29948E+06         0.00000E+00
   -0.29948E+06        -0.19404E+08         0.00000E+00
    0.00000E+00         0.00000E+00         0.00000E+00
 
   -0.77225E+07        -0.46390E+06         0.00000E+00
   -0.46390E+06        -0.19421E+08         0.00000E+00
    0.00000E+00         0.00000E+00         0.00000E+00
 
   -0.76457E+07        -0.61057E+06         0.00000E+00
   -0.61057E+06        -0.19445E+08         0.00000E+00
    0.00000E+00         0.00000E+00         0.00000E+00
 
   -0.75534E+07        -0.74000E+06         0.00000E+00
   -0.74000E+06        -0.19475E+08         0.00000E+00
    0.00000E+00         0.00000E+00         0.00000E+00
 
   -0.74469E+07        -0.85264E+06         0.00000E+00
   -0.85264E+06        -0.19510E+08         0.00000E+00
    0.00000E+00         0.00000E+00         0.00000E+00
 
   -0.73278E+07        -0.94899E+06         0.00000E+00
   -0.94899E+06        -0.19550E+08         0.00000E+00
    0.00000E+00         0.00000E+00         0.00000E+00
 
   -0.71975E+07        -0.10295E+07         0.00000E+00
   -0.10295E+07        -0.19593E+08         0.00000E+00
    0.00000E+00         0.00000E+00         0.00000E+00
 
   -0.70571E+07        -0.10949E+07         0.00000E+00
   -0.10949E+07        -0.19639E+08         0.00000E+00
    0.00000E+00         0.00000E+00         0.00000E+00
 
   -0.69079E+07        -0.11454E+07         0.00000E+00
   -0.11454E+07        -0.19688E+08         0.00000E+00
    0.00000E+00         0.00000E+00         0.00000E+00
 
   -0.67510E+07        -0.11819E+07         0.00000E+00
   -0.11819E+07        -0.19739E+08         0.00000E+00
    0.00000E+00         0.00000E+00         0.00000E+00
 
   -0.65874E+07        -0.12047E+07         0.00000E+00
   -0.12047E+07        -0.19791E+08         0.00000E+00
    0.00000E+00         0.00000E+00         0.00000E+00
 
   -0.64180E+07        -0.12144E+07         0.00000E+00
   -0.12144E+07        -0.19844E+08         0.00000E+00
    0.00000E+00         0.00000E+00         0.00000E+00
 
   -0.62438E+07        -0.12117E+07         0.00000E+00
   -0.12117E+07        -0.19899E+08         0.00000E+00
    0.00000E+00         0.00000E+00         0.00000E+00
 
   -0.60654E+07        -0.11970E+07         0.00000E+00
   -0.11970E+07        -0.19953E+08         0.00000E+00
    0.00000E+00         0.00000E+00         0.00000E+00
 
   -0.58836E+07        -0.11709E+07         0.00000E+00
   -0.11709E+07        -0.20008E+08         0.00000E+00
    0.00000E+00         0.00000E+00         0.00000E+00
 
   -0.56989E+07        -0.11339E+07         0.00000E+00
   -0.11339E+07        -0.20064E+08         0.00000E+00
    0.00000E+00         0.00000E+00         0.00000E+00
 
   -0.55120E+07        -0.10866E+07         0.00000E+00
   -0.10866E+07        -0.20119E+08         0.00000E+00
    0.00000E+00         0.00000E+00         0.00000E+00
 
   -0.53233E+07        -0.10294E+07         0.00000E+00
   -0.10294E+07        -0.20174E+08         0.00000E+00
    0.00000E+00         0.00000E+00         0.00000E+00
 
   -0.51333E+07        -0.96268E+06         0.00000E+00
   -0.96268E+06        -0.20229E+08         0.00000E+00
    0.00000E+00         0.00000E+00         0.00000E+00
 
   -0.49422E+07        -0.88689E+06         0.00000E+00
   -0.88689E+06        -0.20284E+08         0.00000E+00
    0.00000E+00         0.00000E+00         0.00000E+00
 
   -0.47504E+07        -0.80237E+06         0.00000E+00
   -0.80237E+06        -0.20339E+08         0.00000E+00
    0.00000E+00         0.00000E+00         0.00000E+00
 
   -0.45584E+07        -0.70947E+06         0.00000E+00
   -0.70947E+06        -0.20394E+08         0.00000E+00
    0.00000E+00         0.00000E+00         0.00000E+00
 
   -0.43661E+07        -0.60860E+06         0.00000E+00
   -0.60860E+06        -0.20448E+08         0.00000E+00
    0.00000E+00         0.00000E+00         0.00000E+00
 
   -0.41736E+07        -0.50014E+06         0.00000E+00
   -0.50014E+06        -0.20502E+08         0.00000E+00
    0.00000E+00         0.00000E+00         0.00000E+00
 
   -0.39810E+07        -0.38410E+06         0.00000E+00
   -0.38410E+06        -0.20557E+08         0.00000E+00
    0.00000E+00         0.00000E+00         0.00000E+00
 
   -0.37882E+07        -0.26025E+06         0.00000E+00
   -0.26025E+06        -0.20612E+08         0.00000E+00
    0.00000E+00         0.00000E+00         0.00000E+00
 
   -0.35960E+07        -0.12800E+06         0.00000E+00
   -0.12800E+06        -0.20668E+08         0.00000E+00
    0.00000E+00         0.00000E+00         0.00000E+00
 
   -0.34056E+07         0.13590E+05         0.00000E+00
    0.13590E+05        -0.20725E+08         0.00000E+00
    0.00000E+00         0.00000E+00         0.00000E+00
 
   -0.32182E+07         0.16267E+06         0.00000E+00
    0.16267E+06        -0.20779E+08         0.00000E+00
    0.00000E+00         0.00000E+00         0.00000E+00
 
   -0.30319E+07         0.31526E+06         0.00000E+00
    0.31526E+06        -0.20831E+08         0.00000E+00
    0.00000E+00         0.00000E+00         0.00000E+00
 
   -0.28421E+07         0.47092E+06         0.00000E+00
    0.47092E+06        -0.20882E+08         0.00000E+00
    0.00000E+00         0.00000E+00         0.00000E+00
 
   -0.26546E+07         0.63262E+06         0.00000E+00
    0.63262E+06        -0.20954E+08         0.00000E+00
    0.00000E+00         0.00000E+00        -0.15860E+05
 
   -0.24975E+07         0.80303E+06         0.00000E+00
    0.80303E+06        -0.21022E+08         0.00000E+00
    0.00000E+00         0.00000E+00        -0.88601E+05
 
   -0.23324E+07         0.98511E+06         0.00000E+00
    0.98511E+06        -0.21092E+08         0.00000E+00
    0.00000E+00         0.00000E+00        -0.16625E+06
 
   -0.22133E+07         0.11714E+07         0.00000E+00
    0.11714E+07        -0.21135E+08         0.00000E+00
    0.00000E+00         0.00000E+00        -0.31643E+06
 
   -0.21243E+07         0.13594E+07         0.00000E+00
    0.13594E+07        -0.21193E+08         0.00000E+00
    0.00000E+00         0.00000E+00        -0.50940E+06
 
   -0.20494E+07         0.15443E+07         0.00000E+00
    0.15443E+07        -0.21261E+08         0.00000E+00
    0.00000E+00         0.00000E+00        -0.71148E+06
 
   -0.19938E+07         0.17242E+07         0.00000E+00
    0.17242E+07        -0.21335E+08         0.00000E+00
    0.00000E+00         0.00000E+00        -0.91379E+06
 
   -0.19620E+07         0.19040E+07         0.00000E+00
    0.19040E+07        -0.21415E+08         0.00000E+00
    0.00000E+00         0.00000E+00        -0.11129E+07
 
   -0.19502E+07         0.20854E+07         0.00000E+00
    0.20854E+07        -0.21493E+08         0.00000E+00
    0.00000E+00         0.00000E+00        -0.13009E+07
 
   -0.19605E+07         0.22723E+07         0.00000E+00
    0.22723E+07        -0.21572E+08         0.00000E+00
    0.00000E+00         0.00000E+00        -0.14820E+07
 
   -0.19884E+07         0.24638E+07         0.00000E+00
    0.24638E+07        -0.21648E+08         0.00000E+00
    0.00000E+00         0.00000E+00        -0.16551E+07
 
   -0.20318E+07         0.26596E+07         0.00000E+00
    0.26596E+07        -0.21720E+08         0.00000E+00
    0.00000E+00         0.00000E+00        -0.18198E+07
 
   -0.20904E+07         0.28604E+07         0.00000E+00
    0.28604E+07        -0.21788E+08         0.00000E+00
    0.00000E+00         0.00000E+00        -0.19775E+07
 
   -0.21630E+07         0.30661E+07         0.00000E+00
    0.30661E+07        -0.21851E+08         0.00000E+00
    0.00000E+00         0.00000E+00        -0.21275E+07
 
   -0.22522E+07         0.32735E+07         0.00000E+00
    0.32735E+07        -0.21910E+08         0.00000E+00
    0.00000E+00         0.00000E+00        -0.22683E+07
 
   -0.23575E+07         0.34820E+07         0.00000E+00
    0.34820E+07        -0.21967E+08         0.00000E+00
    0.00000E+00         0.00000E+00        -0.24005E+07
 
   -0.24792E+07         0.36900E+07         0.00000E+00
    0.36900E+07        -0.22021E+08         0.00000E+00
    0.00000E+00         0.00000E+00        -0.25228E+07
 
   -0.26166E+07         0.38937E+07         0.00000E+00
    0.38937E+07        -0.22074E+08         0.00000E+00
    0.00000E+00         0.00000E+00        -0.26351E+07
 
   -0.10608E+08        -0.14162E+06         0.00000E+00
   -0.14162E+06        -0.21128E+08         0.00000E+00
    0.00000E+00         0.00000E+00         0.00000E+00
 
   -0.10464E+08        -0.35753E+06         0.00000E+00
   -0.35753E+06        -0.21135E+08         0.00000E+00
    0.00000E+00         0.00000E+00         0.00000E+00
 
   -0.10304E+08        -0.55163E+06         0.00000E+00
   -0.55163E+06        -0.21149E+08         0.00000E+00
    0.00000E+00         0.00000E+00         0.00000E+00
 
   -0.10130E+08        -0.72408E+06         0.00000E+00
   -0.72408E+06        -0.21170E+08         0.00000E+00
    0.00000E+00         0.00000E+00         0.00000E+00
 
   -0.99430E+07        -0.87548E+06         0.00000E+00
   -0.87548E+06        -0.21194E+08         0.00000E+00
    0.00000E+00         0.00000E+00         0.00000E+00
 
   -0.97451E+07        -0.10066E+07         0.00000E+00
   -0.10066E+07        -0.21223E+08         0.00000E+00
    0.00000E+00         0.00000E+00         0.00000E+00
 
   -0.95376E+07        -0.11183E+07         0.00000E+00
   -0.11183E+07        -0.21254E+08         0.00000E+00
    0.00000E+00         0.00000E+00         0.00000E+00
 
   -0.93219E+07        -0.12112E+07         0.00000E+00
   -0.12112E+07        -0.21288E+08         0.00000E+00
    0.00000E+00         0.00000E+00         0.00000E+00
 
   -0.90993E+07        -0.12860E+07         0.00000E+00
   -0.12860E+07        -0.21324E+08         0.00000E+00
    0.00000E+00         0.00000E+00         0.00000E+00
 
   -0.88712E+07        -0.13437E+07         0.00000E+00
   -0.13437E+07        -0.21361E+08         0.00000E+00
    0.00000E+00         0.00000E+00         0.00000E+00
 
   -0.86389E+07        -0.13848E+07         0.00000E+00
   -0.13848E+07        -0.21398E+08         0.00000E+00
    0.00000E+00         0.00000E+00         0.00000E+00
 
   -0.84034E+07        -0.14104E+07         0.00000E+00
   -0.14104E+07        -0.21435E+08         0.00000E+00
    0.00000E+00         0.00000E+00         0.00000E+00
 
   -0.81657E+07        -0.14214E+07         0.00000E+00
   -0.14214E+07        -0.21471E+08         0.00000E+00
    0.00000E+00         0.00000E+00         0.00000E+00
 
   -0.79267E+07        -0.14186E+07         0.00000E+00
   -0.14186E+07        -0.21507E+08         0.00000E+00
    0.00000E+00         0.00000E+00         0.00000E+00
 
   -0.76870E+07        -0.14030E+07         0.00000E+00
   -0.14030E+07        -0.21542E+08         0.00000E+00
    0.00000E+00         0.00000E+00         0.00000E+00
 
   -0.74473E+07        -0.13754E+07         0.00000E+00
   -0.13754E+07        -0.21576E+08         0.00000E+00
    0.00000E+00         0.00000E+00         0.00000E+00
 
   -0.72081E+07        -0.13367E+07         0.00000E+00
   -0.13367E+07        -0.21609E+08         0.00000E+00
    0.00000E+00         0.00000E+00         0.00000E+00
 
   -0.69695E+07        -0.12876E+07         0.00000E+00
   -0.12876E+07        -0.21641E+08         0.00000E+00
    0.00000E+00         0.00000E+00         0.00000E+00
 
   -0.67319E+07        -0.12287E+07         0.00000E+00
   -0.12287E+07        -0.21671E+08         0.00000E+00
    0.00000E+00         0.00000E+00         0.00000E+00
 
   -0.64953E+07        -0.11609E+07         0.00000E+00
   -0.11609E+07        -0.21701E+08         0.00000E+00
    0.00000E+00         0.00000E+00         0.00000E+00
 
   -0.62598E+07        -0.10845E+07         0.00000E+00
   -0.10845E+07        -0.21731E+08         0.00000E+00
    0.00000E+00         0.00000E+00         0.00000E+00
 
   -0.60254E+07        -0.99997E+06         0.00000E+00
   -0.99997E+06        -0.21760E+08         0.00000E+00
    0.00000E+00         0.00000E+00         0.00000E+00
 
   -0.57920E+07        -0.90754E+06         0.00000E+00
   -0.90754E+06        -0.21788E+08         0.00000E+00
    0.00000E+00         0.00000E+00         0.00000E+00
 
   -0.55600E+07        -0.80709E+06         0.00000E+00
   -0.80709E+06        -0.21818E+08         0.00000E+00
    0.00000E+00         0.00000E+00         0.00000E+00
 
   -0.53299E+07        -0.69896E+06         0.00000E+00
   -0.69896E+06        -0.21847E+08         0.00000E+00
    0.00000E+00         0.00000E+00         0.00000E+00
 
   -0.51013E+07        -0.58459E+06         0.00000E+00
   -0.58459E+06        -0.21877E+08         0.00000E+00
    0.00000E+00         0.00000E+00         0.00000E+00
 
   -0.48729E+07        -0.46508E+06         0.00000E+00
   -0.46508E+06        -0.21904E+08         0.00000E+00
    0.00000E+00         0.00000E+00         0.00000E+00
 
   -0.46422E+07        -0.34130E+06         0.00000E+00
   -0.34130E+06        -0.21931E+08         0.00000E+00
    0.00000E+00         0.00000E+00         0.00000E+00
 
   -0.44062E+07        -0.21319E+06         0.00000E+00
   -0.21319E+06        -0.21957E+08         0.00000E+00
    0.00000E+00         0.00000E+00        -0.75417E+03
 
   -0.41854E+07        -0.77954E+05         0.00000E+00
   -0.77954E+05        -0.21988E+08         0.00000E+00
    0.00000E+00         0.00000E+00        -0.41705E+05
 
   -0.39669E+07         0.66828E+05         0.00000E+00
    0.66828E+05        -0.22026E+08         0.00000E+00
    0.00000E+00         0.00000E+00        -0.10236E+06
 
   -0.37409E+07         0.22187E+06         0.00000E+00
    0.22187E+06        -0.22066E+08         0.00000E+00
    0.00000E+00         0.00000E+00        -0.16839E+06
 
   -0.35466E+07         0.38265E+06         0.00000E+00
    0.38265E+06        -0.22093E+08         0.00000E+00
    0.00000E+00         0.00000E+00        -0.29916E+06
 
   -0.33796E+07         0.54430E+06         0.00000E+00
    0.54430E+06        -0.22135E+08         0.00000E+00
    0.00000E+00         0.00000E+00        -0.47788E+06
 
   -0.32238E+07         0.70166E+06         0.00000E+00
    0.70166E+06        -0.22183E+08         0.00000E+00
    0.00000E+00         0.00000E+00        -0.66509E+06
 
   -0.30882E+07         0.85574E+06         0.00000E+00
    0.85574E+06        -0.22241E+08         0.00000E+00
    0.00000E+00         0.00000E+00        -0.85834E+06
 
   -0.29723E+07         0.10128E+07         0.00000E+00
    0.10128E+07        -0.22301E+08         0.00000E+00
    0.00000E+00         0.00000E+00        -0.10495E+07
 
   -0.28777E+07         0.11761E+07         0.00000E+00
    0.11761E+07        -0.22365E+08         0.00000E+00
    0.00000E+00         0.00000E+00        -0.12398E+07
 
   -0.28025E+07         0.13464E+07         0.00000E+00
    0.13464E+07        -0.22432E+08         0.00000E+00
    0.00000E+00         0.00000E+00        -0.14288E+07
 
   -0.27451E+07         0.15237E+07         0.00000E+00
    0.15237E+07        -0.22500E+08         0.00000E+00
    0.00000E+00         0.00000E+00        -0.16150E+07
 
   -0.27062E+07         0.17085E+07         0.00000E+00
    0.17085E+07        -0.22569E+08         0.00000E+00
    0.00000E+00         0.00000E+00        -0.17994E+07
 
   -0.26849E+07         0.19007E+07         0.00000E+00
    0.19007E+07        -0.22638E+08         0.00000E+00
    0.00000E+00         0.00000E+00        -0.19807E+07
 
   -0.26819E+07         0.21009E+07         0.00000E+00
    0.21009E+07        -0.22708E+08         0.00000E+00
    0.00000E+00         0.00000E+00        -0.21595E+07
 
   -0.26990E+07         0.23088E+07         0.00000E+00
    0.23088E+07        -0.22778E+08         0.00000E+00
    0.00000E+00         0.00000E+00        -0.23339E+07
 
   -0.27370E+07         0.25217E+07         0.00000E+00
    0.25217E+07        -0.22848E+08         0.00000E+00
    0.00000E+00         0.00000E+00        -0.25019E+07
 
   -0.27966E+07         0.27371E+07         0.00000E+00
    0.27371E+07        -0.22919E+08         0.00000E+00
    0.00000E+00         0.00000E+00        -0.26623E+07
 
   -0.28766E+07         0.29569E+07         0.00000E+00
    0.29569E+07        -0.22989E+08         0.00000E+00
    0.00000E+00         0.00000E+00        -0.28151E+07
 
   -0.29758E+07         0.31799E+07         0.00000E+00
    0.31799E+07        -0.23057E+08         0.00000E+00
    0.00000E+00         0.00000E+00        -0.29601E+07
 
   -0.30912E+07         0.34051E+07         0.00000E+00
    0.34051E+07        -0.23122E+08         0.00000E+00
    0.00000E+00         0.00000E+00        -0.30979E+07
 
   -0.32215E+07         0.36395E+07         0.00000E+00
    0.36395E+07        -0.23177E+08         0.00000E+00
    0.00000E+00         0.00000E+00        -0.32277E+07
 
   -0.13671E+08        -0.15699E+06         0.00000E+00
   -0.15699E+06        -0.22968E+08         0.00000E+00
    0.00000E+00         0.00000E+00         0.00000E+00
 
   -0.13405E+08        -0.40194E+06         0.00000E+00
   -0.40194E+06        -0.22976E+08         0.00000E+00
    0.00000E+00         0.00000E+00         0.00000E+00
 
   -0.13125E+08        -0.61926E+06         0.00000E+00
   -0.61926E+06        -0.22987E+08         0.00000E+00
    0.00000E+00         0.00000E+00         0.00000E+00
 
   -0.12834E+08        -0.81139E+06         0.00000E+00
   -0.81139E+06        -0.23001E+08         0.00000E+00
    0.00000E+00         0.00000E+00         0.00000E+00
 
   -0.12534E+08        -0.97906E+06         0.00000E+00
   -0.97906E+06        -0.23018E+08         0.00000E+00
    0.00000E+00         0.00000E+00         0.00000E+00
 
   -0.12225E+08        -0.11225E+07         0.00000E+00
   -0.11225E+07        -0.23038E+08         0.00000E+00
    0.00000E+00         0.00000E+00         0.00000E+00
 
   -0.11911E+08        -0.12419E+07         0.00000E+00
   -0.12419E+07        -0.23060E+08         0.00000E+00
    0.00000E+00         0.00000E+00         0.00000E+00
 
   -0.11592E+08        -0.13380E+07         0.00000E+00
   -0.13380E+07        -0.23081E+08         0.00000E+00
    0.00000E+00         0.00000E+00         0.00000E+00
 
   -0.11272E+08        -0.14122E+07         0.00000E+00
   -0.14122E+07        -0.23101E+08         0.00000E+00
    0.00000E+00         0.00000E+00         0.00000E+00
 
   -0.10952E+08        -0.14661E+07         0.00000E+00
   -0.14661E+07        -0.23119E+08         0.00000E+00
    0.00000E+00         0.00000E+00         0.00000E+00
 
   -0.10634E+08        -0.15017E+07         0.00000E+00
   -0.15017E+07        -0.23134E+08         0.00000E+00
    0.00000E+00         0.00000E+00         0.00000E+00
 
   -0.10318E+08        -0.15202E+07         0.00000E+00
   -0.15202E+07        -0.23147E+08         0.00000E+00
    0.00000E+00         0.00000E+00         0.00000E+00
 
   -0.10007E+08        -0.15232E+07         0.00000E+00
   -0.15232E+07        -0.23157E+08         0.00000E+00
    0.00000E+00         0.00000E+00         0.00000E+00
 
   -0.96989E+07        -0.15120E+07         0.00000E+00
   -0.15120E+07        -0.23165E+08         0.00000E+00
    0.00000E+00         0.00000E+00         0.00000E+00
 
   -0.93959E+07        -0.14879E+07         0.00000E+00
   -0.14879E+07        -0.23170E+08         0.00000E+00
    0.00000E+00         0.00000E+00         0.00000E+00
 
   -0.90978E+07        -0.14521E+07         0.00000E+00
   -0.14521E+07        -0.23172E+08         0.00000E+00
    0.00000E+00         0.00000E+00         0.00000E+00
 
   -0.88047E+07        -0.14058E+07         0.00000E+00
   -0.14058E+07        -0.23172E+08         0.00000E+00
    0.00000E+00         0.00000E+00         0.00000E+00
 
   -0.85168E+07        -0.13500E+07         0.00000E+00
   -0.13500E+07        -0.23171E+08         0.00000E+00
    0.00000E+00         0.00000E+00         0.00000E+00
 
   -0.82337E+07        -0.12855E+07         0.00000E+00
   -0.12855E+07        -0.23167E+08         0.00000E+00
    0.00000E+00         0.00000E+00         0.00000E+00
 
   -0.79552E+07        -0.12134E+07         0.00000E+00
   -0.12134E+07        -0.23162E+08         0.00000E+00
    0.00000E+00         0.00000E+00         0.00000E+00
 
   -0.76807E+07        -0.11344E+07         0.00000E+00
   -0.11344E+07        -0.23157E+08         0.00000E+00
    0.00000E+00         0.00000E+00         0.00000E+00
 
   -0.74096E+07        -0.10494E+07         0.00000E+00
   -0.10494E+07        -0.23150E+08         0.00000E+00
    0.00000E+00         0.00000E+00         0.00000E+00
 
   -0.71407E+07        -0.95891E+06         0.00000E+00
   -0.95891E+06        -0.23143E+08         0.00000E+00
    0.00000E+00         0.00000E+00         0.00000E+00
 
   -0.68725E+07        -0.86377E+06         0.00000E+00
   -0.86377E+06        -0.23135E+08         0.00000E+00
    0.00000E+00         0.00000E+00         0.00000E+00
 
   -0.66104E+07        -0.76335E+06         0.00000E+00
   -0.76335E+06        -0.23121E+08         0.00000E+00
    0.00000E+00         0.00000E+00        -0.16794E+05
 
   -0.63517E+07        -0.65698E+06         0.00000E+00
   -0.65698E+06        -0.23109E+08         0.00000E+00
    0.00000E+00         0.00000E+00        -0.46103E+05
 
   -0.60941E+07        -0.54424E+06         0.00000E+00
   -0.54424E+06        -0.23106E+08         0.00000E+00
    0.00000E+00         0.00000E+00        -0.83767E+05
 
   -0.58340E+07        -0.42443E+06         0.00000E+00
   -0.42443E+06        -0.23105E+08         0.00000E+00
    0.00000E+00         0.00000E+00        -0.12516E+06
 
   -0.55702E+07        -0.29801E+06         0.00000E+00
   -0.29801E+06        -0.23106E+08         0.00000E+00
    0.00000E+00         0.00000E+00        -0.17167E+06
 
   -0.53256E+07        -0.16845E+06         0.00000E+00
   -0.16845E+06        -0.23114E+08         0.00000E+00
    0.00000E+00         0.00000E+00        -0.26866E+06
 
   -0.50984E+07        -0.39909E+05         0.00000E+00
   -0.39909E+05        -0.23124E+08         0.00000E+00
    0.00000E+00         0.00000E+00        -0.40500E+06
 
   -0.48797E+07         0.83774E+05         0.00000E+00
    0.83774E+05        -0.23140E+08         0.00000E+00
    0.00000E+00         0.00000E+00        -0.55194E+06
 
   -0.46764E+07         0.20329E+06         0.00000E+00
    0.20329E+06        -0.23164E+08         0.00000E+00
    0.00000E+00         0.00000E+00        -0.70717E+06
 
   -0.44885E+07         0.32455E+06         0.00000E+00
    0.32455E+06        -0.23193E+08         0.00000E+00
    0.00000E+00         0.00000E+00        -0.86568E+06
 
   -0.43172E+07         0.45064E+06         0.00000E+00
    0.45064E+06        -0.23229E+08         0.00000E+00
    0.00000E+00         0.00000E+00        -0.10296E+07
 
   -0.41600E+07         0.58241E+06         0.00000E+00
    0.58241E+06        -0.23269E+08         0.00000E+00
    0.00000E+00         0.00000E+00        -0.11975E+07
 
   -0.40162E+07         0.72012E+06         0.00000E+00
    0.72012E+06        -0.23314E+08         0.00000E+00
    0.00000E+00         0.00000E+00        -0.13707E+07
 
   -0.38861E+07         0.86448E+06         0.00000E+00
    0.86448E+06        -0.23364E+08         0.00000E+00
    0.00000E+00         0.00000E+00        -0.15484E+07
 
   -0.37711E+07         0.10170E+07         0.00000E+00
    0.10170E+07        -0.23419E+08         0.00000E+00
    0.00000E+00         0.00000E+00        -0.17304E+07
 
   -0.36721E+07         0.11787E+07         0.00000E+00
    0.11787E+07        -0.23479E+08         0.00000E+00
    0.00000E+00         0.00000E+00        -0.19173E+07
 
   -0.35895E+07         0.13501E+07         0.00000E+00
    0.13501E+07        -0.23543E+08         0.00000E+00
    0.00000E+00         0.00000E+00        -0.21084E+07
 
   -0.35246E+07         0.15316E+07         0.00000E+00
    0.15316E+07        -0.23613E+08         0.00000E+00
    0.00000E+00         0.00000E+00        -0.23035E+07
 
   -0.34798E+07         0.17222E+07         0.00000E+00
    0.17222E+07        -0.23688E+08         0.00000E+00
    0.00000E+00         0.00000E+00        -0.25001E+07
 
   -0.34587E+07         0.19230E+07         0.00000E+00
    0.19230E+07        -0.23767E+08         0.00000E+00
    0.00000E+00         0.00000E+00        -0.26958E+07
 
   -0.34600E+07         0.21341E+07         0.00000E+00
    0.21341E+07        -0.23850E+08         0.00000E+00
    0.00000E+00         0.00000E+00        -0.28909E+07
 
   -0.34842E+07         0.23568E+07         0.00000E+00
    0.23568E+07        -0.23934E+08         0.00000E+00
    0.00000E+00         0.00000E+00        -0.30832E+07
 
   -0.35304E+07         0.25899E+07         0.00000E+00
    0.25899E+07        -0.24017E+08         0.00000E+00
    0.00000E+00         0.00000E+00        -0.32712E+07
 
   -0.35976E+07         0.28326E+07         0.00000E+00
    0.28326E+07        -0.24097E+08         0.00000E+00
    0.00000E+00         0.00000E+00        -0.34535E+07
 
   -0.36884E+07         0.30819E+07         0.00000E+00
    0.30819E+07        -0.24173E+08         0.00000E+00
    0.00000E+00         0.00000E+00        -0.36262E+07
 
   -0.38061E+07         0.33327E+07         0.00000E+00
    0.33327E+07        -0.24252E+08         0.00000E+00
    0.00000E+00         0.00000E+00        -0.37905E+07
 
   -0.16961E+08        -0.17454E+06         0.00000E+00
   -0.17454E+06        -0.24944E+08         0.00000E+00
    0.00000E+00         0.00000E+00         0.00000E+00
 
   -0.16554E+08        -0.43782E+06         0.00000E+00
   -0.43782E+06        -0.24942E+08         0.00000E+00
    0.00000E+00         0.00000E+00         0.00000E+00
 
   -0.16132E+08        -0.67567E+06         0.00000E+00
   -0.67567E+06        -0.24951E+08         0.00000E+00
    0.00000E+00         0.00000E+00         0.00000E+00
 
   -0.15695E+08        -0.87950E+06         0.00000E+00
   -0.87950E+06        -0.24966E+08         0.00000E+00
    0.00000E+00         0.00000E+00         0.00000E+00
 
   -0.15250E+08        -0.10475E+07         0.00000E+00
   -0.10475E+07        -0.24981E+08         0.00000E+00
    0.00000E+00         0.00000E+00         0.00000E+00
 
   -0.14802E+08        -0.11816E+07         0.00000E+00
   -0.11816E+07        -0.24987E+08         0.00000E+00
    0.00000E+00         0.00000E+00         0.00000E+00
 
   -0.14357E+08        -0.12856E+07         0.00000E+00
   -0.12856E+07        -0.24983E+08         0.00000E+00
    0.00000E+00         0.00000E+00         0.00000E+00
 
   -0.13919E+08        -0.13634E+07         0.00000E+00
   -0.13634E+07        -0.24973E+08         0.00000E+00
    0.00000E+00         0.00000E+00         0.00000E+00
 
   -0.13489E+08        -0.14181E+07         0.00000E+00
   -0.14181E+07        -0.24955E+08         0.00000E+00
    0.00000E+00         0.00000E+00         0.00000E+00
 
   -0.13070E+08        -0.14515E+07         0.00000E+00
   -0.14515E+07        -0.24931E+08         0.00000E+00
    0.00000E+00         0.00000E+00        -0.79228E+04
 
   -0.12662E+08        -0.14660E+07         0.00000E+00
   -0.14660E+07        -0.24901E+08         0.00000E+00
    0.00000E+00         0.00000E+00        -0.18429E+05
 
   -0.12266E+08        -0.14646E+07         0.00000E+00
   -0.14646E+07        -0.24865E+08         0.00000E+00
    0.00000E+00         0.00000E+00        -0.27465E+05
 
   -0.11882E+08        -0.14491E+07         0.00000E+00
   -0.14491E+07        -0.24824E+08         0.00000E+00
    0.00000E+00         0.00000E+00        -0.35299E+05
 
   -0.11509E+08        -0.14215E+07         0.00000E+00
   -0.14215E+07        -0.24780E+08         0.00000E+00
    0.00000E+00         0.00000E+00        -0.42149E+05
 
   -0.11148E+08        -0.13833E+07         0.00000E+00
   -0.13833E+07        -0.24732E+08         0.00000E+00
    0.00000E+00         0.00000E+00        -0.48379E+05
 
   -0.10799E+08        -0.13359E+07         0.00000E+00
   -0.13359E+07        -0.24682E+08         0.00000E+00
    0.00000E+00         0.00000E+00        -0.54287E+05
 
   -0.10460E+08        -0.12807E+07         0.00000E+00
   -0.12807E+07        -0.24631E+08         0.00000E+00
    0.00000E+00         0.00000E+00        -0.60256E+05
 
   -0.10131E+08        -0.12187E+07         0.00000E+00
   -0.12187E+07        -0.24578E+08         0.00000E+00
    0.00000E+00         0.00000E+00        -0.66675E+05
 
   -0.98114E+07        -0.11507E+07         0.00000E+00
   -0.11507E+07        -0.24526E+08         0.00000E+00
    0.00000E+00         0.00000E+00        -0.73925E+05
 
   -0.94998E+07        -0.10772E+07         0.00000E+00
   -0.10772E+07        -0.24474E+08         0.00000E+00
    0.00000E+00         0.00000E+00        -0.82381E+05
 
   -0.91953E+07        -0.99884E+06         0.00000E+00
   -0.99884E+06        -0.24423E+08         0.00000E+00
    0.00000E+00         0.00000E+00        -0.92445E+05
 
   -0.88969E+07        -0.91584E+06         0.00000E+00
   -0.91584E+06        -0.24373E+08         0.00000E+00
    0.00000E+00         0.00000E+00        -0.10456E+06
 
   -0.86033E+07        -0.82843E+06         0.00000E+00
   -0.82843E+06        -0.24326E+08         0.00000E+00
    0.00000E+00         0.00000E+00        -0.11924E+06
 
   -0.83134E+07        -0.73680E+06         0.00000E+00
   -0.73680E+06        -0.24281E+08         0.00000E+00
    0.00000E+00         0.00000E+00        -0.13714E+06
 
   -0.80258E+07        -0.64221E+06         0.00000E+00
   -0.64221E+06        -0.24247E+08         0.00000E+00
    0.00000E+00         0.00000E+00        -0.15867E+06
 
   -0.77441E+07        -0.54525E+06         0.00000E+00
   -0.54525E+06        -0.24218E+08         0.00000E+00
    0.00000E+00         0.00000E+00        -0.19807E+06
 
   -0.74751E+07        -0.44809E+06         0.00000E+00
   -0.44809E+06        -0.24187E+08         0.00000E+00
    0.00000E+00         0.00000E+00        -0.27310E+06
 
   -0.72110E+07        -0.35321E+06         0.00000E+00
   -0.35321E+06        -0.24161E+08         0.00000E+00
    0.00000E+00         0.00000E+00        -0.35800E+06
 
   -0.69552E+07        -0.26258E+06         0.00000E+00
   -0.26258E+06        -0.24144E+08         0.00000E+00
    0.00000E+00         0.00000E+00        -0.45265E+06
 
   -0.67102E+07        -0.17549E+06         0.00000E+00
   -0.17549E+06        -0.24131E+08         0.00000E+00
    0.00000E+00         0.00000E+00        -0.55415E+06
 
   -0.64781E+07        -0.88212E+05         0.00000E+00
   -0.88212E+05        -0.24127E+08         0.00000E+00
    0.00000E+00         0.00000E+00        -0.66301E+06
 
   -0.62572E+07         0.68305E+03         0.00000E+00
    0.68305E+03        -0.24129E+08         0.00000E+00
    0.00000E+00         0.00000E+00        -0.77950E+06
 
   -0.60458E+07         0.91708E+05         0.00000E+00
    0.91708E+05        -0.24137E+08         0.00000E+00
    0.00000E+00         0.00000E+00        -0.90271E+06
 
   -0.58438E+07         0.18484E+06         0.00000E+00
    0.18484E+06        -0.24150E+08         0.00000E+00
    0.00000E+00         0.00000E+00        -0.10332E+07
 
   -0.56507E+07         0.28087E+06         0.00000E+00
    0.28087E+06        -0.24170E+08         0.00000E+00
    0.00000E+00         0.00000E+00        -0.11708E+07
 
   -0.54662E+07         0.38115E+06         0.00000E+00
    0.38115E+06        -0.24195E+08         0.00000E+00
    0.00000E+00         0.00000E+00        -0.13172E+07
 
   -0.52897E+07         0.48683E+06         0.00000E+00
    0.48683E+06        -0.24228E+08         0.00000E+00
    0.00000E+00         0.00000E+00        -0.14731E+07
 
   -0.51226E+07         0.59894E+06         0.00000E+00
    0.59894E+06        -0.24268E+08         0.00000E+00
    0.00000E+00         0.00000E+00        -0.16389E+07
 
   -0.49652E+07         0.71851E+06         0.00000E+00
    0.71851E+06        -0.24316E+08         0.00000E+00
    0.00000E+00         0.00000E+00        -0.18152E+07
 
   -0.48184E+07         0.84682E+06         0.00000E+00
    0.84682E+06        -0.24371E+08         0.00000E+00
    0.00000E+00         0.00000E+00        -0.20022E+07
 
   -0.46837E+07         0.98526E+06         0.00000E+00
    0.98526E+06        -0.24436E+08         0.00000E+00
    0.00000E+00         0.00000E+00        -0.22004E+07
 
   -0.45630E+07         0.11353E+07         0.00000E+00
    0.11353E+07        -0.24508E+08         0.00000E+00
    0.00000E+00         0.00000E+00        -0.24097E+07
 
   -0.44580E+07         0.12986E+07         0.00000E+00
    0.12986E+07        -0.24590E+08         0.00000E+00
    0.00000E+00         0.00000E+00        -0.26297E+07
 
   -0.43690E+07         0.14761E+07         0.00000E+00
    0.14761E+07        -0.24679E+08         0.00000E+00
    0.00000E+00         0.00000E+00        -0.28605E+07
 
   -0.42988E+07         0.16718E+07         0.00000E+00
    0.16718E+07        -0.24775E+08         0.00000E+00
    0.00000E+00         0.00000E+00        -0.31011E+07
 
   -0.42521E+07         0.18858E+07         0.00000E+00
    0.18858E+07        -0.24879E+08         0.00000E+00
    0.00000E+00         0.00000E+00        -0.33499E+07
 
   -0.42348E+07         0.21186E+07         0.00000E+00
    0.21186E+07        -0.24990E+08         0.00000E+00
    0.00000E+00         0.00000E+00        -0.36021E+07
 
   -0.42517E+07         0.23646E+07         0.00000E+00
    0.23646E+07        -0.25106E+08         0.00000E+00
    0.00000E+00         0.00000E+00        -0.38513E+07
 
   -0.43063E+07         0.26288E+07         0.00000E+00
    0.26288E+07        -0.25224E+08         0.00000E+00
    0.00000E+00         0.00000E+00        -0.40912E+07
 
   -0.43821E+07         0.28982E+07         0.00000E+00
    0.28982E+07        -0.25330E+08         0.00000E+00
    0.00000E+00         0.00000E+00        -0.43152E+07
 
   -0.20447E+08        -0.19720E+06         0.00000E+00
   -0.19720E+06        -0.26909E+08         0.00000E+00
    0.00000E+00         0.00000E+00        -0.71972E+06
 
   -0.19843E+08        -0.49687E+06         0.00000E+00
   -0.49687E+06        -0.26938E+08         0.00000E+00
    0.00000E+00         0.00000E+00        -0.68276E+06
 
   -0.19196E+08        -0.71801E+06         0.00000E+00
   -0.71801E+06        -0.26933E+08         0.00000E+00
    0.00000E+00         0.00000E+00        -0.63886E+06
 
   -0.18547E+08        -0.88087E+06         0.00000E+00
   -0.88087E+06        -0.26898E+08         0.00000E+00
    0.00000E+00         0.00000E+00        -0.59266E+06
 
   -0.17914E+08        -0.99904E+06         0.00000E+00
   -0.99904E+06        -0.26843E+08         0.00000E+00
    0.00000E+00         0.00000E+00        -0.54680E+06
 
   -0.17299E+08        -0.10792E+07         0.00000E+00
   -0.10792E+07        -0.26788E+08         0.00000E+00
    0.00000E+00         0.00000E+00        -0.51108E+06
 
   -0.16712E+08        -0.11284E+07         0.00000E+00
   -0.11284E+07        -0.26733E+08         0.00000E+00
    0.00000E+00         0.00000E+00        -0.48452E+06
 
   -0.16154E+08        -0.11545E+07         0.00000E+00
   -0.11545E+07        -0.26663E+08         0.00000E+00
    0.00000E+00         0.00000E+00        -0.45715E+06
 
   -0.15625E+08        -0.11631E+07         0.00000E+00
   -0.11631E+07        -0.26584E+08         0.00000E+00
    0.00000E+00         0.00000E+00        -0.43027E+06
 
   -0.15120E+08        -0.11597E+07         0.00000E+00
   -0.11597E+07        -0.26492E+08         0.00000E+00
    0.00000E+00         0.00000E+00        -0.40128E+06
 
   -0.14638E+08        -0.11451E+07         0.00000E+00
   -0.11451E+07        -0.26397E+08         0.00000E+00
    0.00000E+00         0.00000E+00        -0.37469E+06
 
   -0.14178E+08        -0.11194E+07         0.00000E+00
   -0.11194E+07        -0.26299E+08         0.00000E+00
    0.00000E+00         0.00000E+00        -0.34933E+06
 
   -0.13740E+08        -0.10849E+07         0.00000E+00
   -0.10849E+07        -0.26197E+08         0.00000E+00
    0.00000E+00         0.00000E+00        -0.32502E+06
 
   -0.13322E+08        -0.10436E+07         0.00000E+00
   -0.10436E+07        -0.26095E+08         0.00000E+00
    0.00000E+00         0.00000E+00        -0.30237E+06
 
   -0.12923E+08        -0.99733E+06         0.00000E+00
   -0.99733E+06        -0.25992E+08         0.00000E+00
    0.00000E+00         0.00000E+00        -0.28184E+06
 
   -0.12541E+08        -0.94712E+06         0.00000E+00
   -0.94712E+06        -0.25891E+08         0.00000E+00
    0.00000E+00         0.00000E+00        -0.26423E+06
 
   -0.12175E+08        -0.89368E+06         0.00000E+00
   -0.89368E+06        -0.25792E+08         0.00000E+00
    0.00000E+00         0.00000E+00        -0.25013E+06
 
   -0.11822E+08        -0.83751E+06         0.00000E+00
   -0.83751E+06        -0.25695E+08         0.00000E+00
    0.00000E+00         0.00000E+00        -0.24011E+06
 
   -0.11482E+08        -0.77909E+06         0.00000E+00
   -0.77909E+06        -0.25603E+08         0.00000E+00
    0.00000E+00         0.00000E+00        -0.23476E+06
 
   -0.11152E+08        -0.71885E+06         0.00000E+00
   -0.71885E+06        -0.25515E+08         0.00000E+00
    0.00000E+00         0.00000E+00        -0.23470E+06
 
   -0.10832E+08        -0.65723E+06         0.00000E+00
   -0.65723E+06        -0.25432E+08         0.00000E+00
    0.00000E+00         0.00000E+00        -0.24063E+06
 
   -0.10521E+08        -0.59472E+06         0.00000E+00
   -0.59472E+06        -0.25355E+08         0.00000E+00
    0.00000E+00         0.00000E+00        -0.25322E+06
 
   -0.10218E+08        -0.53201E+06         0.00000E+00
   -0.53201E+06        -0.25284E+08         0.00000E+00
    0.00000E+00         0.00000E+00        -0.27316E+06
 
   -0.99225E+07        -0.47002E+06         0.00000E+00
   -0.47002E+06        -0.25220E+08         0.00000E+00
    0.00000E+00         0.00000E+00        -0.30107E+06
 
   -0.96355E+07        -0.40936E+06         0.00000E+00
   -0.40936E+06        -0.25162E+08         0.00000E+00
    0.00000E+00         0.00000E+00        -0.33619E+06
 
   -0.93577E+07        -0.35064E+06         0.00000E+00
   -0.35064E+06        -0.25112E+08         0.00000E+00
    0.00000E+00         0.00000E+00        -0.37915E+06
 
   -0.90899E+07        -0.29294E+06         0.00000E+00
   -0.29294E+06        -0.25069E+08         0.00000E+00
    0.00000E+00         0.00000E+00        -0.43048E+06
 
   -0.88319E+07        -0.23594E+06         0.00000E+00
   -0.23594E+06        -0.25035E+08         0.00000E+00
    0.00000E+00         0.00000E+00        -0.48983E+06
 
   -0.85828E+07        -0.17951E+06         0.00000E+00
   -0.17951E+06        -0.25008E+08         0.00000E+00
    0.00000E+00         0.00000E+00        -0.55662E+06
 
   -0.83415E+07        -0.12350E+06         0.00000E+00
   -0.12350E+06        -0.24988E+08         0.00000E+00
    0.00000E+00         0.00000E+00        -0.63088E+06
 
   -0.81077E+07        -0.67888E+05         0.00000E+00
   -0.67888E+05        -0.24973E+08         0.00000E+00
    0.00000E+00         0.00000E+00        -0.71203E+06
 
   -0.78814E+07        -0.11900E+05         0.00000E+00
   -0.11900E+05        -0.24965E+08         0.00000E+00
    0.00000E+00         0.00000E+00        -0.80029E+06
 
   -0.76619E+07         0.45091E+05         0.00000E+00
    0.45091E+05        -0.24964E+08         0.00000E+00
    0.00000E+00         0.00000E+00        -0.89659E+06
 
   -0.74485E+07         0.10373E+06         0.00000E+00
    0.10373E+06        -0.24969E+08         0.00000E+00
    0.00000E+00         0.00000E+00        -0.10016E+07
 
   -0.72406E+07         0.16441E+06         0.00000E+00
    0.16441E+06        -0.24982E+08         0.00000E+00
    0.00000E+00         0.00000E+00        -0.11161E+07
 
   -0.70370E+07         0.22750E+06         0.00000E+00
    0.22750E+06        -0.25002E+08         0.00000E+00
    0.00000E+00         0.00000E+00        -0.12409E+07
 
   -0.68367E+07         0.29372E+06         0.00000E+00
    0.29372E+06        -0.25031E+08         0.00000E+00
    0.00000E+00         0.00000E+00        -0.13774E+07
 
   -0.66399E+07         0.36414E+06         0.00000E+00
    0.36414E+06        -0.25067E+08         0.00000E+00
    0.00000E+00         0.00000E+00        -0.15264E+07
 
   -0.64466E+07         0.43971E+06         0.00000E+00
    0.43971E+06        -0.25112E+08         0.00000E+00
    0.00000E+00         0.00000E+00        -0.16893E+07
 
   -0.62569E+07         0.52163E+06         0.00000E+00
    0.52163E+06        -0.25167E+08         0.00000E+00
    0.00000E+00         0.00000E+00        -0.18676E+07
 
   -0.60710E+07         0.61141E+06         0.00000E+00
    0.61141E+06        -0.25232E+08         0.00000E+00
    0.00000E+00         0.00000E+00        -0.20630E+07
 
   -0.58897E+07         0.71090E+06         0.00000E+00
    0.71090E+06        -0.25309E+08         0.00000E+00
    0.00000E+00         0.00000E+00        -0.22771E+07
 
   -0.57145E+07         0.82318E+06         0.00000E+00
    0.82318E+06        -0.25398E+08         0.00000E+00
    0.00000E+00         0.00000E+00        -0.25118E+07
 
   -0.55453E+07         0.95044E+06         0.00000E+00
    0.95044E+06        -0.25500E+08         0.00000E+00
    0.00000E+00         0.00000E+00        -0.27705E+07
 
   -0.53796E+07         0.10935E+07         0.00000E+00
    0.10935E+07        -0.25616E+08         0.00000E+00
    0.00000E+00         0.00000E+00        -0.30587E+07
 
   -0.52261E+07         0.12561E+07         0.00000E+00
    0.12561E+07        -0.25746E+08         0.00000E+00
    0.00000E+00         0.00000E+00        -0.33724E+07
 
   -0.50918E+07         0.14453E+07         0.00000E+00
    0.14453E+07        -0.25891E+08         0.00000E+00
    0.00000E+00         0.00000E+00        -0.37109E+07
 
   -0.49903E+07         0.16704E+07         0.00000E+00
    0.16704E+07        -0.26051E+08         0.00000E+00
    0.00000E+00         0.00000E+00        -0.40692E+07
 
   -0.49336E+07         0.19255E+07         0.00000E+00
    0.19255E+07        -0.26229E+08         0.00000E+00
    0.00000E+00         0.00000E+00        -0.44408E+07
 
   -0.49596E+07         0.22298E+07         0.00000E+00
    0.22298E+07        -0.26437E+08         0.00000E+00
    0.00000E+00         0.00000E+00        -0.48148E+07
 
   -0.23672E+08        -0.25500E+06         0.00000E+00
   -0.25500E+06        -0.28971E+08         0.00000E+00
    0.00000E+00         0.00000E+00        -0.51493E+07
 
   -0.22771E+08        -0.32488E+06         0.00000E+00
   -0.32488E+06        -0.28883E+08         0.00000E+00
    0.00000E+00         0.00000E+00        -0.40789E+07
 
   -0.21898E+08        -0.38112E+06         0.00000E+00
   -0.38112E+06        -0.28771E+08         0.00000E+00
    0.00000E+00         0.00000E+00        -0.32198E+07
 
   -0.21074E+08        -0.42302E+06         0.00000E+00
   -0.42302E+06        -0.28640E+08         0.00000E+00
    0.00000E+00         0.00000E+00        -0.25068E+07
 
   -0.20305E+08        -0.45359E+06         0.00000E+00
   -0.45359E+06        -0.28494E+08         0.00000E+00
    0.00000E+00         0.00000E+00        -0.19001E+07
 
   -0.19584E+08        -0.48022E+06         0.00000E+00
   -0.48022E+06        -0.28323E+08         0.00000E+00
    0.00000E+00         0.00000E+00        -0.14434E+07
 
   -0.18900E+08        -0.49551E+06         0.00000E+00
   -0.49551E+06        -0.28135E+08         0.00000E+00
    0.00000E+00         0.00000E+00        -0.12606E+07
 
   -0.18268E+08        -0.49975E+06         0.00000E+00
   -0.49975E+06        -0.27947E+08         0.00000E+00
    0.00000E+00         0.00000E+00        -0.11389E+07
 
   -0.17685E+08        -0.49669E+06         0.00000E+00
   -0.49669E+06        -0.27760E+08         0.00000E+00
    0.00000E+00         0.00000E+00        -0.10259E+07
 
   -0.17129E+08        -0.48623E+06         0.00000E+00
   -0.48623E+06        -0.27581E+08         0.00000E+00
    0.00000E+00         0.00000E+00        -0.92381E+06
 
   -0.16599E+08        -0.46768E+06         0.00000E+00
   -0.46768E+06        -0.27405E+08         0.00000E+00
    0.00000E+00         0.00000E+00        -0.82917E+06
 
   -0.16101E+08        -0.44534E+06         0.00000E+00
   -0.44534E+06        -0.27234E+08         0.00000E+00
    0.00000E+00         0.00000E+00        -0.74227E+06
 
   -0.15638E+08        -0.42202E+06         0.00000E+00
   -0.42202E+06        -0.27070E+08         0.00000E+00
    0.00000E+00         0.00000E+00        -0.66317E+06
 
   -0.15203E+08        -0.39841E+06         0.00000E+00
   -0.39841E+06        -0.26914E+08         0.00000E+00
    0.00000E+00         0.00000E+00        -0.59167E+06
 
   -0.14791E+08        -0.37465E+06         0.00000E+00
   -0.37465E+06        -0.26766E+08         0.00000E+00
    0.00000E+00         0.00000E+00        -0.52797E+06
 
   -0.14399E+08        -0.35061E+06         0.00000E+00
   -0.35061E+06        -0.26626E+08         0.00000E+00
    0.00000E+00         0.00000E+00        -0.47185E+06
 
   -0.14024E+08        -0.32639E+06         0.00000E+00
   -0.32639E+06        -0.26495E+08         0.00000E+00
    0.00000E+00         0.00000E+00        -0.42339E+06
 
   -0.13665E+08        -0.30216E+06         0.00000E+00
   -0.30216E+06        -0.26373E+08         0.00000E+00
    0.00000E+00         0.00000E+00        -0.38267E+06
 
   -0.13320E+08        -0.27801E+06         0.00000E+00
   -0.27801E+06        -0.26260E+08         0.00000E+00
    0.00000E+00         0.00000E+00        -0.34985E+06
 
   -0.12987E+08        -0.25397E+06         0.00000E+00
   -0.25397E+06        -0.26156E+08         0.00000E+00
    0.00000E+00         0.00000E+00        -0.32506E+06
 
   -0.12666E+08        -0.23018E+06         0.00000E+00
   -0.23018E+06        -0.26061E+08         0.00000E+00
    0.00000E+00         0.00000E+00        -0.30835E+06
 
   -0.12355E+08        -0.20685E+06         0.00000E+00
   -0.20685E+06        -0.25975E+08         0.00000E+00
    0.00000E+00         0.00000E+00        -0.29976E+06
 
   -0.12054E+08        -0.18413E+06         0.00000E+00
   -0.18413E+06        -0.25899E+08         0.00000E+00
    0.00000E+00         0.00000E+00        -0.29923E+06
 
   -0.11763E+08        -0.16209E+06         0.00000E+00
   -0.16209E+06        -0.25831E+08         0.00000E+00
    0.00000E+00         0.00000E+00        -0.30662E+06
 
   -0.11482E+08        -0.14087E+06         0.00000E+00
   -0.14087E+06        -0.25772E+08         0.00000E+00
    0.00000E+00         0.00000E+00        -0.32189E+06
 
   -0.11210E+08        -0.12045E+06         0.00000E+00
   -0.12045E+06        -0.25721E+08         0.00000E+00
    0.00000E+00         0.00000E+00        -0.34466E+06
 
   -0.10947E+08        -0.10078E+06         0.00000E+00
   -0.10078E+06        -0.25677E+08         0.00000E+00
    0.00000E+00         0.00000E+00        -0.37457E+06
 
   -0.10692E+08        -0.81460E+05         0.00000E+00
   -0.81460E+05        -0.25642E+08         0.00000E+00
    0.00000E+00         0.00000E+00        -0.41161E+06
 
   -0.10445E+08        -0.62216E+05         0.00000E+00
   -0.62216E+05        -0.25613E+08         0.00000E+00
    0.00000E+00         0.00000E+00        -0.45594E+06
 
   -0.10206E+08        -0.42941E+05         0.00000E+00
   -0.42941E+05        -0.25593E+08         0.00000E+00
    0.00000E+00         0.00000E+00        -0.50779E+06
 
   -0.99730E+07        -0.23533E+05         0.00000E+00
   -0.23533E+05        -0.25580E+08         0.00000E+00
    0.00000E+00         0.00000E+00        -0.56755E+06
 
   -0.97462E+07        -0.40548E+04         0.00000E+00
   -0.40548E+04        -0.25575E+08         0.00000E+00
    0.00000E+00         0.00000E+00        -0.63538E+06
 
   -0.95245E+07         0.15606E+05         0.00000E+00
    0.15606E+05        -0.25578E+08         0.00000E+00
    0.00000E+00         0.00000E+00        -0.71159E+06
 
   -0.93073E+07         0.35634E+05         0.00000E+00
    0.35634E+05        -0.25589E+08         0.00000E+00
    0.00000E+00         0.00000E+00        -0.79673E+06
 
   -0.90937E+07         0.56390E+05         0.00000E+00
    0.56390E+05        -0.25608E+08         0.00000E+00
    0.00000E+00         0.00000E+00        -0.89156E+06
 
   -0.88827E+07         0.78117E+05         0.00000E+00
    0.78117E+05        -0.25635E+08         0.00000E+00
    0.00000E+00         0.00000E+00        -0.99709E+06
 
   -0.86725E+07         0.10091E+06         0.00000E+00
    0.10091E+06        -0.25671E+08         0.00000E+00
    0.00000E+00         0.00000E+00        -0.11147E+07
 
   -0.84622E+07         0.12494E+06         0.00000E+00
    0.12494E+06        -0.25716E+08         0.00000E+00
    0.00000E+00         0.00000E+00        -0.12459E+07
 
   -0.82506E+07         0.15075E+06         0.00000E+00
    0.15075E+06        -0.25772E+08         0.00000E+00
    0.00000E+00         0.00000E+00        -0.13924E+07
 
   -0.80370E+07         0.17887E+06         0.00000E+00
    0.17887E+06        -0.25839E+08         0.00000E+00
    0.00000E+00         0.00000E+00        -0.15561E+07
 
   -0.78204E+07         0.20989E+06         0.00000E+00
    0.20989E+06        -0.25917E+08         0.00000E+00
    0.00000E+00         0.00000E+00        -0.17394E+07
 
   -0.75996E+07         0.24460E+06         0.00000E+00
    0.24460E+06        -0.26008E+08         0.00000E+00
    0.00000E+00         0.00000E+00        -0.19456E+07
 
   -0.73733E+07         0.28370E+06         0.00000E+00
    0.28370E+06        -0.26114E+08         0.00000E+00
    0.00000E+00         0.00000E+00        -0.21788E+07
 
   -0.71407E+07         0.32900E+06         0.00000E+00
    0.32900E+06        -0.26237E+08         0.00000E+00
    0.00000E+00         0.00000E+00        -0.24434E+07
 
   -0.69015E+07         0.38303E+06         0.00000E+00
    0.38303E+06        -0.26379E+08         0.00000E+00
    0.00000E+00         0.00000E+00        -0.27454E+07
 
   -0.66510E+07         0.44886E+06         0.00000E+00
    0.44886E+06        -0.26543E+08         0.00000E+00
    0.00000E+00         0.00000E+00        -0.30956E+07
 
   -0.63724E+07         0.52955E+06         0.00000E+00
    0.52955E+06        -0.26733E+08         0.00000E+00
    0.00000E+00         0.00000E+00        -0.35156E+07
 
   -0.60934E+07         0.63178E+06         0.00000E+00
    0.63178E+06        -0.26952E+08         0.00000E+00
    0.00000E+00         0.00000E+00        -0.39993E+07
 
   -0.58227E+07         0.76764E+06         0.00000E+00
    0.76764E+06        -0.27204E+08         0.00000E+00
    0.00000E+00         0.00000E+00        -0.45535E+07
 
   -0.55701E+07         0.93374E+06         0.00000E+00
    0.93374E+06        -0.27486E+08         0.00000E+00
    0.00000E+00         0.00000E+00        -0.51765E+07
 
TENSORS stresstot double 
   -0.54149E+08        -0.96851E+05         0.00000E+00
   -0.96851E+05        -0.49864E+08         0.00000E+00
    0.00000E+00         0.00000E+00        -0.58640E+08
 
   -0.54277E+08        -0.97341E+05         0.00000E+00
   -0.97341E+05        -0.49889E+08         0.00000E+00
    0.00000E+00         0.00000E+00        -0.59836E+08
 
   -0.54591E+08        -0.14662E+06         0.00000E+00
   -0.14662E+06        -0.49931E+08         0.00000E+00
    0.00000E+00         0.00000E+00        -0.60869E+08
 
   -0.55016E+08        -0.21908E+06         0.00000E+00
   -0.21908E+06        -0.50015E+08         0.00000E+00
    0.00000E+00         0.00000E+00        -0.61697E+08
 
   -0.55498E+08        -0.31068E+06         0.00000E+00
   -0.31068E+06        -0.50141E+08         0.00000E+00
    0.00000E+00         0.00000E+00        -0.62332E+08
 
   -0.56025E+08        -0.37273E+06         0.00000E+00
   -0.37273E+06        -0.50277E+08         0.00000E+00
    0.00000E+00         0.00000E+00        -0.62701E+08
 
   -0.56510E+08        -0.40905E+06         0.00000E+00
   -0.40905E+06        -0.50428E+08         0.00000E+00
    0.00000E+00         0.00000E+00        -0.63034E+08
 
   -0.56964E+08        -0.42748E+06         0.00000E+00
   -0.42748E+06        -0.50588E+08         0.00000E+00
    0.00000E+00         0.00000E+00        -0.63356E+08
 
   -0.57376E+08        -0.43413E+06         0.00000E+00
   -0.43413E+06        -0.50752E+08         0.00000E+00
    0.00000E+00         0.00000E+00        -0.63673E+08
 
   -0.57751E+08        -0.43384E+06         0.00000E+00
   -0.43384E+06        -0.50919E+08         0.00000E+00
    0.00000E+00         0.00000E+00        -0.63983E+08
 
   -0.58094E+08        -0.42840E+06         0.00000E+00
   -0.42840E+06        -0.51085E+08         0.00000E+00
    0.00000E+00         0.00000E+00        -0.64287E+08
 
   -0.58412E+08        -0.41841E+06         0.00000E+00
   -0.41841E+06        -0.51248E+08         0.00000E+00
    0.00000E+00         0.00000E+00        -0.64581E+08
 
   -0.58708E+08        -0.40536E+06         0.00000E+00
   -0.40536E+06        -0.51408E+08         0.00000E+00
    0.00000E+00         0.00000E+00        -0.64867E+08
 
   -0.58989E+08        -0.39297E+06         0.00000E+00
   -0.39297E+06        -0.51564E+08         0.00000E+00
    0.00000E+00         0.00000E+00        -0.65142E+08
 
   -0.59248E+08        -0.37799E+06         0.00000E+00
   -0.37799E+06        -0.51714E+08         0.00000E+00
    0.00000E+00         0.00000E+00        -0.65407E+08
 
   -0.59494E+08        -0.36177E+06         0.00000E+00
   -0.36177E+06        -0.51859E+08         0.00000E+00
    0.00000E+00         0.00000E+00        -0.65661E+08
 
   -0.59729E+08        -0.34436E+06         0.00000E+00
   -0.34436E+06        -0.51997E+08         0.00000E+00
    0.00000E+00         0.00000E+00        -0.65903E+08
 
   -0.59953E+08        -0.32575E+06         0.00000E+00
   -0.32575E+06        -0.52129E+08         0.00000E+00
    0.00000E+00         0.00000E+00        -0.66134E+08
 
   -0.60169E+08        -0.30639E+06         0.00000E+00
   -0.30639E+06        -0.52253E+08         0.00000E+00
    0.00000E+00         0.00000E+00        -0.66351E+08
 
   -0.60377E+08        -0.28612E+06         0.00000E+00
   -0.28612E+06        -0.52369E+08         0.00000E+00
    0.00000E+00         0.00000E+00        -0.66557E+08
 
   -0.60575E+08        -0.26659E+06         0.00000E+00
   -0.26659E+06        -0.52478E+08         0.00000E+00
    0.00000E+00         0.00000E+00        -0.66748E+08
 
   -0.60778E+08        -0.24698E+06         0.00000E+00
   -0.24698E+06        -0.52579E+08         0.00000E+00
    0.00000E+00         0.00000E+00        -0.66927E+08
 
   -0.60982E+08        -0.22647E+06         0.00000E+00
   -0.22647E+06        -0.52671E+08         0.00000E+00
    0.00000E+00         0.00000E+00        -0.67093E+08
 
   -0.61180E+08        -0.20538E+06         0.00000E+00
   -0.20538E+06        -0.52756E+08         0.00000E+00
    0.00000E+00         0.00000E+00        -0.67245E+08
 
   -0.61375E+08        -0.18405E+06         0.00000E+00
   -0.18405E+06        -0.52832E+08         0.00000E+00
    0.00000E+00         0.00000E+00        -0.67382E+08
 
   -0.61569E+08        -0.16245E+06         0.00000E+00
   -0.16245E+06        -0.52899E+08         0.00000E+00
    0.00000E+00         0.00000E+00        -0.67505E+08
 
   -0.61769E+08        -0.14075E+06         0.00000E+00
   -0.14075E+06        -0.52958E+08         0.00000E+00
    0.00000E+00         0.00000E+00        -0.67612E+08
 
   -0.61965E+08        -0.11922E+06         0.00000E+00
   -0.11922E+06        -0.53008E+08         0.00000E+00
    0.00000E+00         0.00000E+00        -0.67705E+08
 
   -0.62157E+08        -0.98235E+05         0.00000E+00
   -0.98235E+05        -0.53051E+08         0.00000E+00
    0.00000E+00         0.00000E+00        -0.67781E+08
 
   -0.62344E+08        -0.77991E+05         0.00000E+00
   -0.77991E+05        -0.53085E+08         0.00000E+00
    0.00000E+00         0.00000E+00        -0.67842E+08
 
   -0.62527E+08        -0.58713E+05         0.00000E+00
   -0.58713E+05        -0.53111E+08         0.00000E+00
    0.00000E+00         0.00000E+00        -0.67887E+08
 
   -0.62705E+08        -0.40588E+05         0.00000E+00
   -0.40588E+05        -0.53130E+08         0.00000E+00
    0.00000E+00         0.00000E+00        -0.67917E+08
 
   -0.62878E+08        -0.23605E+05         0.00000E+00
   -0.23605E+05        -0.53141E+08         0.00000E+00
    0.00000E+00         0.00000E+00        -0.67931E+08
 
   -0.63044E+08        -0.76972E+04         0.00000E+00
   -0.76972E+04        -0.53146E+08         0.00000E+00
    0.00000E+00         0.00000E+00        -0.67931E+08
 
   -0.63204E+08         0.73324E+04         0.00000E+00
    0.73324E+04        -0.53145E+08         0.00000E+00
    0.00000E+00         0.00000E+00        -0.67916E+08
 
   -0.63358E+08         0.21721E+05         0.00000E+00
    0.21721E+05        -0.53137E+08         0.00000E+00
    0.00000E+00         0.00000E+00        -0.67887E+08
 
   -0.63506E+08         0.35846E+05         0.00000E+00
    0.35846E+05        -0.53124E+08         0.00000E+00
    0.00000E+00         0.00000E+00        -0.67844E+08
 
   -0.63649E+08         0.50263E+05         0.00000E+00
    0.50263E+05        -0.53105E+08         0.00000E+00
    0.00000E+00         0.00000E+00        -0.67787E+08
 
   -0.63787E+08         0.65177E+05         0.00000E+00
    0.65177E+05        -0.53080E+08         0.00000E+00
    0.00000E+00         0.00000E+00        -0.67715E+08
 
   -0.63920E+08         0.80788E+05         0.00000E+00
    0.80788E+05        -0.53049E+08         0.00000E+00
    0.00000E+00         0.00000E+00        -0.67626E+08
 
   -0.64050E+08         0.97565E+05         0.00000E+00
    0.97565E+05        -0.53012E+08         0.00000E+00
    0.00000E+00         0.00000E+00        -0.67519E+08
 
   -0.64175E+08         0.11573E+06         0.00000E+00
    0.11573E+06        -0.52968E+08         0.00000E+00
    0.00000E+00         0.00000E+00        -0.67392E+08
 
   -0.64295E+08         0.13572E+06         0.00000E+00
    0.13572E+06        -0.52916E+08         0.00000E+00
    0.00000E+00         0.00000E+00        -0.67241E+08
 
   -0.64410E+08         0.15803E+06         0.00000E+00
    0.15803E+06        -0.52855E+08         0.00000E+00
    0.00000E+00         0.00000E+00        -0.67064E+08
 
   -0.64519E+08         0.18353E+06         0.00000E+00
    0.18353E+06        -0.52786E+08         0.00000E+00
    0.00000E+00         0.00000E+00        -0.66857E+08
 
   -0.64620E+08         0.21461E+06         0.00000E+00
    0.21461E+06        -0.52705E+08         0.00000E+00
    0.00000E+00         0.00000E+00        -0.66612E+08
 
   -0.64737E+08         0.25381E+06         0.00000E+00
    0.25381E+06        -0.52612E+08         0.00000E+00
    0.00000E+00         0.00000E+00        -0.66308E+08
 
   -0.64831E+08         0.30302E+06         0.00000E+00
    0.30302E+06        -0.52504E+08         0.00000E+00
    0.00000E+00         0.00000E+00        -0.65949E+08
 
   -0.64890E+08         0.36523E+06         0.00000E+00
    0.36523E+06        -0.52379E+08         0.00000E+00
    0.00000E+00         0.00000E+00        -0.65535E+08
 
   -0.64899E+08         0.44908E+06         0.00000E+00
    0.44908E+06        -0.52243E+08         0.00000E+00
    0.00000E+00         0.00000E+00        -0.65084E+08
 
   -0.54598E+08         0.68340E+05         0.00000E+00
    0.68340E+05        -0.50109E+08         0.00000E+00
    0.00000E+00         0.00000E+00        -0.62889E+08
 
   -0.54891E+08        -0.20972E+06         0.00000E+00
   -0.20972E+06        -0.50133E+08         0.00000E+00
    0.00000E+00         0.00000E+00        -0.63030E+08
 
   -0.55233E+08        -0.44802E+06         0.00000E+00
   -0.44802E+06        -0.50195E+08         0.00000E+00
    0.00000E+00         0.00000E+00        -0.63205E+08
 
   -0.55609E+08        -0.64555E+06         0.00000E+00
   -0.64555E+06        -0.50254E+08         0.00000E+00
    0.00000E+00         0.00000E+00        -0.63370E+08
 
   -0.56001E+08        -0.79064E+06         0.00000E+00
   -0.79064E+06        -0.50300E+08         0.00000E+00
    0.00000E+00         0.00000E+00        -0.63515E+08
 
   -0.56376E+08        -0.89648E+06         0.00000E+00
   -0.89648E+06        -0.50364E+08         0.00000E+00
    0.00000E+00         0.00000E+00        -0.63677E+08
 
   -0.56746E+08        -0.97209E+06         0.00000E+00
   -0.97209E+06        -0.50432E+08         0.00000E+00
    0.00000E+00         0.00000E+00        -0.63840E+08
 
   -0.57100E+08        -0.10210E+07         0.00000E+00
   -0.10210E+07        -0.50505E+08         0.00000E+00
    0.00000E+00         0.00000E+00        -0.64008E+08
 
   -0.57437E+08        -0.10480E+07         0.00000E+00
   -0.10480E+07        -0.50581E+08         0.00000E+00
    0.00000E+00         0.00000E+00        -0.64179E+08
 
   -0.57760E+08        -0.10577E+07         0.00000E+00
   -0.10577E+07        -0.50660E+08         0.00000E+00
    0.00000E+00         0.00000E+00        -0.64351E+08
 
   -0.58061E+08        -0.10537E+07         0.00000E+00
   -0.10537E+07        -0.50740E+08         0.00000E+00
    0.00000E+00         0.00000E+00        -0.64524E+08
 
   -0.58346E+08        -0.10398E+07         0.00000E+00
   -0.10398E+07        -0.50822E+08         0.00000E+00
    0.00000E+00         0.00000E+00        -0.64695E+08
 
   -0.58619E+08        -0.10172E+07         0.00000E+00
   -0.10172E+07        -0.50903E+08         0.00000E+00
    0.00000E+00         0.00000E+00        -0.64865E+08
 
   -0.58879E+08        -0.98702E+06         0.00000E+00
   -0.98702E+06        -0.50984E+08         0.00000E+00
    0.00000E+00         0.00000E+00        -0.65033E+08
 
   -0.59122E+08        -0.95258E+06         0.00000E+00
   -0.95258E+06        -0.51063E+08         0.00000E+00
    0.00000E+00         0.00000E+00        -0.65194E+08
 
   -0.59355E+08        -0.91417E+06         0.00000E+00
   -0.91417E+06        -0.51140E+08         0.00000E+00
    0.00000E+00         0.00000E+00        -0.65349E+08
 
   -0.59581E+08        -0.87266E+06         0.00000E+00
   -0.87266E+06        -0.51214E+08         0.00000E+00
    0.00000E+00         0.00000E+00        -0.65500E+08
 
   -0.59797E+08        -0.82909E+06         0.00000E+00
   -0.82909E+06        -0.51286E+08         0.00000E+00
    0.00000E+00         0.00000E+00        -0.65643E+08
 
   -0.60007E+08        -0.78325E+06         0.00000E+00
   -0.78325E+06        -0.51355E+08         0.00000E+00
    0.00000E+00         0.00000E+00        -0.65780E+08
 
   -0.60212E+08        -0.73604E+06         0.00000E+00
   -0.73604E+06        -0.51420E+08         0.00000E+00
    0.00000E+00         0.00000E+00        -0.65910E+08
 
   -0.60413E+08        -0.68766E+06         0.00000E+00
   -0.68766E+06        -0.51483E+08         0.00000E+00
    0.00000E+00         0.00000E+00        -0.66032E+08
 
   -0.60611E+08        -0.63863E+06         0.00000E+00
   -0.63863E+06        -0.51543E+08         0.00000E+00
    0.00000E+00         0.00000E+00        -0.66149E+08
 
   -0.60809E+08        -0.58828E+06         0.00000E+00
   -0.58828E+06        -0.51600E+08         0.00000E+00
    0.00000E+00         0.00000E+00        -0.66258E+08
 
   -0.61005E+08        -0.53706E+06         0.00000E+00
   -0.53706E+06        -0.51654E+08         0.00000E+00
    0.00000E+00         0.00000E+00        -0.66358E+08
 
   -0.61200E+08        -0.48533E+06         0.00000E+00
   -0.48533E+06        -0.51704E+08         0.00000E+00
    0.00000E+00         0.00000E+00        -0.66451E+08
 
   -0.61394E+08        -0.43329E+06         0.00000E+00
   -0.43329E+06        -0.51750E+08         0.00000E+00
    0.00000E+00         0.00000E+00        -0.66535E+08
 
   -0.61589E+08        -0.38056E+06         0.00000E+00
   -0.38056E+06        -0.51794E+08         0.00000E+00
    0.00000E+00         0.00000E+00        -0.66610E+08
 
   -0.61783E+08        -0.32677E+06         0.00000E+00
   -0.32677E+06        -0.51832E+08         0.00000E+00
    0.00000E+00         0.00000E+00        -0.66674E+08
 
   -0.61975E+08        -0.27254E+06         0.00000E+00
   -0.27254E+06        -0.51866E+08         0.00000E+00
    0.00000E+00         0.00000E+00        -0.66726E+08
 
   -0.62166E+08        -0.21859E+06         0.00000E+00
   -0.21859E+06        -0.51894E+08         0.00000E+00
    0.00000E+00         0.00000E+00        -0.66765E+08
 
   -0.62355E+08        -0.16551E+06         0.00000E+00
   -0.16551E+06        -0.51917E+08         0.00000E+00
    0.00000E+00         0.00000E+00        -0.66790E+08
 
   -0.62540E+08        -0.11398E+06         0.00000E+00
   -0.11398E+06        -0.51934E+08         0.00000E+00
    0.00000E+00         0.00000E+00        -0.66800E+08
 
   -0.62721E+08        -0.64675E+05         0.00000E+00
   -0.64675E+05        -0.51945E+08         0.00000E+00
    0.00000E+00         0.00000E+00        -0.66795E+08
 
   -0.62895E+08        -0.18007E+05         0.00000E+00
   -0.18007E+05        -0.51950E+08         0.00000E+00
    0.00000E+00         0.00000E+00        -0.66774E+08
 
   -0.63062E+08         0.25968E+05         0.00000E+00
    0.25968E+05        -0.51949E+08         0.00000E+00
    0.00000E+00         0.00000E+00        -0.66738E+08
 
   -0.63221E+08         0.67817E+05         0.00000E+00
    0.67817E+05        -0.51943E+08         0.00000E+00
    0.00000E+00         0.00000E+00        -0.66688E+08
 
   -0.63370E+08         0.10832E+06         0.00000E+00
    0.10832E+06        -0.51932E+08         0.00000E+00
    0.00000E+00         0.00000E+00        -0.66625E+08
 
   -0.63511E+08         0.14825E+06         0.00000E+00
    0.14825E+06        -0.51916E+08         0.00000E+00
    0.00000E+00         0.00000E+00        -0.66549E+08
 
   -0.63643E+08         0.18911E+06         0.00000E+00
    0.18911E+06        -0.51896E+08         0.00000E+00
    0.00000E+00         0.00000E+00        -0.66459E+08
 
   -0.63768E+08         0.23238E+06         0.00000E+00
    0.23238E+06        -0.51870E+08         0.00000E+00
    0.00000E+00         0.00000E+00        -0.66356E+08
 
   -0.63884E+08         0.27892E+06         0.00000E+00
    0.27892E+06        -0.51841E+08         0.00000E+00
    0.00000E+00         0.00000E+00        -0.66237E+08
 
   -0.63991E+08         0.33012E+06         0.00000E+00
    0.33012E+06        -0.51806E+08         0.00000E+00
    0.00000E+00         0.00000E+00        -0.66102E+08
 
   -0.64089E+08         0.38691E+06         0.00000E+00
    0.38691E+06        -0.51765E+08         0.00000E+00
    0.00000E+00         0.00000E+00        -0.65946E+08
 
   -0.64175E+08         0.45067E+06         0.00000E+00
    0.45067E+06        -0.51717E+08         0.00000E+00
    0.00000E+00         0.00000E+00        -0.65769E+08
 
   -0.64244E+08         0.52311E+06         0.00000E+00
    0.52311E+06        -0.51661E+08         0.00000E+00
    0.00000E+00         0.00000E+00        -0.65566E+08
 
   -0.64291E+08         0.60572E+06         0.00000E+00
    0.60572E+06        -0.51597E+08         0.00000E+00
    0.00000E+00         0.00000E+00        -0.65336E+08
 
   -0.64322E+08         0.70477E+06         0.00000E+00
    0.70477E+06        -0.51525E+08         0.00000E+00
    0.00000E+00         0.00000E+00        -0.65073E+08
 
   -0.64314E+08         0.82629E+06         0.00000E+00
    0.82629E+06        -0.51443E+08         0.00000E+00
    0.00000E+00         0.00000E+00        -0.64785E+08
 
   -0.64248E+08         0.97286E+06         0.00000E+00
    0.97286E+06        -0.51350E+08         0.00000E+00
    0.00000E+00         0.00000E+00        -0.64474E+08
 
   -0.64081E+08         0.11437E+07         0.00000E+00
    0.11437E+07        -0.51232E+08         0.00000E+00
    0.00000E+00         0.00000E+00        -0.64141E+08
 
   -0.55777E+08        -0.28942E+06         0.00000E+00
   -0.28942E+06        -0.50128E+08         0.00000E+00
    0.00000E+00         0.00000E+00        -0.64125E+08
 
   -0.55995E+08        -0.51525E+06         0.00000E+00
   -0.51525E+06        -0.50163E+08         0.00000E+00
    0.00000E+00         0.00000E+00        -0.64217E+08
 
   -0.56196E+08        -0.70838E+06         0.00000E+00
   -0.70838E+06        -0.50185E+08         0.00000E+00
    0.00000E+00         0.00000E+00        -0.64271E+08
 
   -0.56402E+08        -0.86699E+06         0.00000E+00
   -0.86699E+06        -0.50199E+08         0.00000E+00
    0.00000E+00         0.00000E+00        -0.64311E+08
 
   -0.56616E+08        -0.99767E+06         0.00000E+00
   -0.99767E+06        -0.50213E+08         0.00000E+00
    0.00000E+00         0.00000E+00        -0.64350E+08
 
   -0.56845E+08        -0.11015E+07         0.00000E+00
   -0.11015E+07        -0.50222E+08         0.00000E+00
    0.00000E+00         0.00000E+00        -0.64386E+08
 
   -0.57080E+08        -0.11798E+07         0.00000E+00
   -0.11798E+07        -0.50231E+08         0.00000E+00
    0.00000E+00         0.00000E+00        -0.64425E+08
 
   -0.57319E+08        -0.12360E+07         0.00000E+00
   -0.12360E+07        -0.50241E+08         0.00000E+00
    0.00000E+00         0.00000E+00        -0.64469E+08
 
   -0.57561E+08        -0.12725E+07         0.00000E+00
   -0.12725E+07        -0.50252E+08         0.00000E+00
    0.00000E+00         0.00000E+00        -0.64518E+08
 
   -0.57802E+08        -0.12917E+07         0.00000E+00
   -0.12917E+07        -0.50266E+08         0.00000E+00
    0.00000E+00         0.00000E+00        -0.64573E+08
 
   -0.58039E+08        -0.12967E+07         0.00000E+00
   -0.12967E+07        -0.50283E+08         0.00000E+00
    0.00000E+00         0.00000E+00        -0.64633E+08
 
   -0.58272E+08        -0.12894E+07         0.00000E+00
   -0.12894E+07        -0.50302E+08         0.00000E+00
    0.00000E+00         0.00000E+00        -0.64698E+08
 
   -0.58500E+08        -0.12726E+07         0.00000E+00
   -0.12726E+07        -0.50325E+08         0.00000E+00
    0.00000E+00         0.00000E+00        -0.64767E+08
 
   -0.58724E+08        -0.12471E+07         0.00000E+00
   -0.12471E+07        -0.50350E+08         0.00000E+00
    0.00000E+00         0.00000E+00        -0.64839E+08
 
   -0.58942E+08        -0.12144E+07         0.00000E+00
   -0.12144E+07        -0.50377E+08         0.00000E+00
    0.00000E+00         0.00000E+00        -0.64914E+08
 
   -0.59155E+08        -0.11757E+07         0.00000E+00
   -0.11757E+07        -0.50407E+08         0.00000E+00
    0.00000E+00         0.00000E+00        -0.64991E+08
 
   -0.59362E+08        -0.11321E+07         0.00000E+00
   -0.11321E+07        -0.50438E+08         0.00000E+00
    0.00000E+00         0.00000E+00        -0.65069E+08
 
   -0.59565E+08        -0.10844E+07         0.00000E+00
   -0.10844E+07        -0.50470E+08         0.00000E+00
    0.00000E+00         0.00000E+00        -0.65146E+08
 
   -0.59763E+08        -0.10341E+07         0.00000E+00
   -0.10341E+07        -0.50503E+08         0.00000E+00
    0.00000E+00         0.00000E+00        -0.65224E+08
 
   -0.59959E+08        -0.98133E+06         0.00000E+00
   -0.98133E+06        -0.50537E+08         0.00000E+00
    0.00000E+00         0.00000E+00        -0.65300E+08
 
   -0.60152E+08        -0.92644E+06         0.00000E+00
   -0.92644E+06        -0.50571E+08         0.00000E+00
    0.00000E+00         0.00000E+00        -0.65373E+08
 
   -0.60343E+08        -0.86940E+06         0.00000E+00
   -0.86940E+06        -0.50605E+08         0.00000E+00
    0.00000E+00         0.00000E+00        -0.65444E+08
 
   -0.60533E+08        -0.81006E+06         0.00000E+00
   -0.81006E+06        -0.50639E+08         0.00000E+00
    0.00000E+00         0.00000E+00        -0.65511E+08
 
   -0.60722E+08        -0.74847E+06         0.00000E+00
   -0.74847E+06        -0.50671E+08         0.00000E+00
    0.00000E+00         0.00000E+00        -0.65573E+08
 
   -0.60910E+08        -0.68477E+06         0.00000E+00
   -0.68477E+06        -0.50703E+08         0.00000E+00
    0.00000E+00         0.00000E+00        -0.65631E+08
 
   -0.61097E+08        -0.61885E+06         0.00000E+00
   -0.61885E+06        -0.50733E+08         0.00000E+00
    0.00000E+00         0.00000E+00        -0.65683E+08
 
   -0.61284E+08        -0.55062E+06         0.00000E+00
   -0.55062E+06        -0.50761E+08         0.00000E+00
    0.00000E+00         0.00000E+00        -0.65728E+08
 
   -0.61472E+08        -0.48013E+06         0.00000E+00
   -0.48013E+06        -0.50787E+08         0.00000E+00
    0.00000E+00         0.00000E+00        -0.65766E+08
 
   -0.61660E+08        -0.40747E+06         0.00000E+00
   -0.40747E+06        -0.50812E+08         0.00000E+00
    0.00000E+00         0.00000E+00        -0.65795E+08
 
   -0.61849E+08        -0.33286E+06         0.00000E+00
   -0.33286E+06        -0.50834E+08         0.00000E+00
    0.00000E+00         0.00000E+00        -0.65814E+08
 
   -0.62039E+08        -0.25684E+06         0.00000E+00
   -0.25684E+06        -0.50853E+08         0.00000E+00
    0.00000E+00         0.00000E+00        -0.65822E+08
 
   -0.62229E+08        -0.18001E+06         0.00000E+00
   -0.18001E+06        -0.50868E+08         0.00000E+00
    0.00000E+00         0.00000E+00        -0.65817E+08
 
   -0.62418E+08        -0.10330E+06         0.00000E+00
   -0.10330E+06        -0.50880E+08         0.00000E+00
    0.00000E+00         0.00000E+00        -0.65797E+08
 
   -0.62603E+08        -0.27996E+05         0.00000E+00
   -0.27996E+05        -0.50886E+08         0.00000E+00
    0.00000E+00         0.00000E+00        -0.65760E+08
 
   -0.62783E+08         0.44645E+05         0.00000E+00
    0.44645E+05        -0.50887E+08         0.00000E+00
    0.00000E+00         0.00000E+00        -0.65705E+08
 
   -0.62952E+08         0.11336E+06         0.00000E+00
    0.11336E+06        -0.50881E+08         0.00000E+00
    0.00000E+00         0.00000E+00        -0.65631E+08
 
   -0.63108E+08         0.17845E+06         0.00000E+00
    0.17845E+06        -0.50870E+08         0.00000E+00
    0.00000E+00         0.00000E+00        -0.65541E+08
 
   -0.63248E+08         0.24216E+06         0.00000E+00
    0.24216E+06        -0.50853E+08         0.00000E+00
    0.00000E+00         0.00000E+00        -0.65438E+08
 
   -0.63372E+08         0.30561E+06         0.00000E+00
    0.30561E+06        -0.50831E+08         0.00000E+00
    0.00000E+00         0.00000E+00        -0.65320E+08
 
   -0.63480E+08         0.37056E+06         0.00000E+00
    0.37056E+06        -0.50804E+08         0.00000E+00
    0.00000E+00         0.00000E+00        -0.65192E+08
 
   -0.63571E+08         0.44050E+06         0.00000E+00
    0.44050E+06        -0.50774E+08         0.00000E+00
    0.00000E+00         0.00000E+00        -0.65053E+08
 
   -0.63645E+08         0.51738E+06         0.00000E+00
    0.51738E+06        -0.50739E+08         0.00000E+00
    0.00000E+00         0.00000E+00        -0.64902E+08
 
   -0.63700E+08         0.60406E+06         0.00000E+00
    0.60406E+06        -0.50699E+08         0.00000E+00
    0.00000E+00         0.00000E+00        -0.64739E+08
 
   -0.63735E+08         0.70204E+06         0.00000E+00
    0.70204E+06        -0.50655E+08         0.00000E+00
    0.00000E+00         0.00000E+00        -0.64561E+08
 
   -0.63746E+08         0.81208E+06         0.00000E+00
    0.81208E+06        -0.50605E+08         0.00000E+00
    0.00000E+00         0.00000E+00        -0.64368E+08
 
   -0.63728E+08         0.93543E+06         0.00000E+00
    0.93543E+06        -0.50550E+08         0.00000E+00
    0.00000E+00         0.00000E+00        -0.64161E+08
 
   -0.63671E+08         0.10708E+07         0.00000E+00
    0.10708E+07        -0.50487E+08         0.00000E+00
    0.00000E+00         0.00000E+00        -0.63939E+08
 
   -0.63569E+08         0.12196E+07         0.00000E+00
    0.12196E+07        -0.50417E+08         0.00000E+00
    0.00000E+00         0.00000E+00        -0.63712E+08
 
   -0.63425E+08         0.13808E+07         0.00000E+00
    0.13808E+07        -0.50345E+08         0.00000E+00
    0.00000E+00         0.00000E+00        -0.63488E+08
 
   -0.63263E+08         0.15449E+07         0.00000E+00
    0.15449E+07        -0.50280E+08         0.00000E+00
    0.00000E+00         0.00000E+00        -0.63280E+08
 
   -0.57353E+08        -0.24344E+06         0.00000E+00
   -0.24344E+06        -0.49849E+08         0.00000E+00
    0.00000E+00         0.00000E+00        -0.64816E+08
 
   -0.57190E+08        -0.49360E+06         0.00000E+00
   -0.49360E+06        -0.49804E+08         0.00000E+00
    0.00000E+00         0.00000E+00        -0.64788E+08
 
   -0.57137E+08        -0.68811E+06         0.00000E+00
   -0.68811E+06        -0.49769E+08         0.00000E+00
    0.00000E+00         0.00000E+00        -0.64753E+08
 
   -0.57159E+08        -0.84464E+06         0.00000E+00
   -0.84464E+06        -0.49750E+08         0.00000E+00
    0.00000E+00         0.00000E+00        -0.64693E+08
 
   -0.57225E+08        -0.97254E+06         0.00000E+00
   -0.97254E+06        -0.49730E+08         0.00000E+00
    0.00000E+00         0.00000E+00        -0.64641E+08
 
   -0.57323E+08        -0.10765E+07         0.00000E+00
   -0.10765E+07        -0.49713E+08         0.00000E+00
    0.00000E+00         0.00000E+00        -0.64601E+08
 
   -0.57445E+08        -0.11598E+07         0.00000E+00
   -0.11598E+07        -0.49697E+08         0.00000E+00
    0.00000E+00         0.00000E+00        -0.64569E+08
 
   -0.57585E+08        -0.12245E+07         0.00000E+00
   -0.12245E+07        -0.49683E+08         0.00000E+00
    0.00000E+00         0.00000E+00        -0.64546E+08
 
   -0.57739E+08        -0.12724E+07         0.00000E+00
   -0.12724E+07        -0.49671E+08         0.00000E+00
    0.00000E+00         0.00000E+00        -0.64531E+08
 
   -0.57902E+08        -0.13051E+07         0.00000E+00
   -0.13051E+07        -0.49662E+08         0.00000E+00
    0.00000E+00         0.00000E+00        -0.64524E+08
 
   -0.58073E+08        -0.13240E+07         0.00000E+00
   -0.13240E+07        -0.49655E+08         0.00000E+00
    0.00000E+00         0.00000E+00        -0.64524E+08
 
   -0.58249E+08        -0.13308E+07         0.00000E+00
   -0.13308E+07        -0.49650E+08         0.00000E+00
    0.00000E+00         0.00000E+00        -0.64530E+08
 
   -0.58428E+08        -0.13264E+07         0.00000E+00
   -0.13264E+07        -0.49648E+08         0.00000E+00
    0.00000E+00         0.00000E+00        -0.64543E+08
 
   -0.58610E+08        -0.13120E+07         0.00000E+00
   -0.13120E+07        -0.49649E+08         0.00000E+00
    0.00000E+00         0.00000E+00        -0.64560E+08
 
   -0.58794E+08        -0.12894E+07         0.00000E+00
   -0.12894E+07        -0.49649E+08         0.00000E+00
    0.00000E+00         0.00000E+00        -0.64578E+08
 
   -0.58978E+08        -0.12607E+07         0.00000E+00
   -0.12607E+07        -0.49651E+08         0.00000E+00
    0.00000E+00         0.00000E+00        -0.64597E+08
 
   -0.59161E+08        -0.12267E+07         0.00000E+00
   -0.12267E+07        -0.49655E+08         0.00000E+00
    0.00000E+00         0.00000E+00        -0.64619E+08
 
   -0.59342E+08        -0.11876E+07         0.00000E+00
   -0.11876E+07        -0.49663E+08         0.00000E+00
    0.00000E+00         0.00000E+00        -0.64645E+08
 
   -0.59522E+08        -0.11439E+07         0.00000E+00
   -0.11439E+07        -0.49672E+08         0.00000E+00
    0.00000E+00         0.00000E+00        -0.64673E+08
 
   -0.59701E+08        -0.10958E+07         0.00000E+00
   -0.10958E+07        -0.49683E+08         0.00000E+00
    0.00000E+00         0.00000E+00        -0.64701E+08
 
   -0.59879E+08        -0.10437E+07         0.00000E+00
   -0.10437E+07        -0.49696E+08         0.00000E+00
    0.00000E+00         0.00000E+00        -0.64730E+08
 
   -0.60055E+08        -0.98796E+06         0.00000E+00
   -0.98796E+06        -0.49709E+08         0.00000E+00
    0.00000E+00         0.00000E+00        -0.64759E+08
 
   -0.60231E+08        -0.92882E+06         0.00000E+00
   -0.92882E+06        -0.49724E+08         0.00000E+00
    0.00000E+00         0.00000E+00        -0.64786E+08
 
   -0.60406E+08        -0.86638E+06         0.00000E+00
   -0.86638E+06        -0.49738E+08         0.00000E+00
    0.00000E+00         0.00000E+00        -0.64812E+08
 
   -0.60580E+08        -0.80064E+06         0.00000E+00
   -0.80064E+06        -0.49754E+08         0.00000E+00
    0.00000E+00         0.00000E+00        -0.64835E+08
 
   -0.60754E+08        -0.73173E+06         0.00000E+00
   -0.73173E+06        -0.49770E+08         0.00000E+00
    0.00000E+00         0.00000E+00        -0.64856E+08
 
   -0.60928E+08        -0.65970E+06         0.00000E+00
   -0.65970E+06        -0.49786E+08         0.00000E+00
    0.00000E+00         0.00000E+00        -0.64873E+08
 
   -0.61102E+08        -0.58452E+06         0.00000E+00
   -0.58452E+06        -0.49802E+08         0.00000E+00
    0.00000E+00         0.00000E+00        -0.64886E+08
 
   -0.61277E+08        -0.50606E+06         0.00000E+00
   -0.50606E+06        -0.49818E+08         0.00000E+00
    0.00000E+00         0.00000E+00        -0.64895E+08
 
   -0.61453E+08        -0.42418E+06         0.00000E+00
   -0.42418E+06        -0.49834E+08         0.00000E+00
    0.00000E+00         0.00000E+00        -0.64898E+08
 
   -0.61631E+08        -0.33859E+06         0.00000E+00
   -0.33859E+06        -0.49850E+08         0.00000E+00
    0.00000E+00         0.00000E+00        -0.64894E+08
 
   -0.61811E+08        -0.24905E+06         0.00000E+00
   -0.24905E+06        -0.49865E+08         0.00000E+00
    0.00000E+00         0.00000E+00        -0.64882E+08
 
   -0.61993E+08        -0.15543E+06         0.00000E+00
   -0.15543E+06        -0.49879E+08         0.00000E+00
    0.00000E+00         0.00000E+00        -0.64859E+08
 
   -0.62178E+08        -0.57798E+05         0.00000E+00
   -0.57798E+05        -0.49891E+08         0.00000E+00
    0.00000E+00         0.00000E+00        -0.64823E+08
 
   -0.62363E+08         0.42990E+05         0.00000E+00
    0.42990E+05        -0.49900E+08         0.00000E+00
    0.00000E+00         0.00000E+00        -0.64771E+08
 
   -0.62543E+08         0.14520E+06         0.00000E+00
    0.14520E+06        -0.49905E+08         0.00000E+00
    0.00000E+00         0.00000E+00        -0.64697E+08
 
   -0.62709E+08         0.24633E+06         0.00000E+00
    0.24633E+06        -0.49900E+08         0.00000E+00
    0.00000E+00         0.00000E+00        -0.64596E+08
 
   -0.62856E+08         0.34223E+06         0.00000E+00
    0.34223E+06        -0.49886E+08         0.00000E+00
    0.00000E+00         0.00000E+00        -0.64470E+08
 
   -0.62980E+08         0.43430E+06         0.00000E+00
    0.43430E+06        -0.49865E+08         0.00000E+00
    0.00000E+00         0.00000E+00        -0.64331E+08
 
   -0.63072E+08         0.52639E+06         0.00000E+00
    0.52639E+06        -0.49835E+08         0.00000E+00
    0.00000E+00         0.00000E+00        -0.64173E+08
 
   -0.63135E+08         0.61964E+06         0.00000E+00
    0.61964E+06        -0.49798E+08         0.00000E+00
    0.00000E+00         0.00000E+00        -0.64006E+08
 
   -0.63170E+08         0.71820E+06         0.00000E+00
    0.71820E+06        -0.49757E+08         0.00000E+00
    0.00000E+00         0.00000E+00        -0.63833E+08
 
   -0.63176E+08         0.82343E+06         0.00000E+00
    0.82343E+06        -0.49711E+08         0.00000E+00
    0.00000E+00         0.00000E+00        -0.63656E+08
 
   -0.63156E+08         0.93840E+06         0.00000E+00
    0.93840E+06        -0.49664E+08         0.00000E+00
    0.00000E+00         0.00000E+00        -0.63482E+08
 
   -0.63108E+08         0.10668E+07         0.00000E+00
    0.10668E+07        -0.49616E+08         0.00000E+00
    0.00000E+00         0.00000E+00        -0.63307E+08
 
   -0.63034E+08         0.12073E+07         0.00000E+00
    0.12073E+07        -0.49566E+08         0.00000E+00
    0.00000E+00         0.00000E+00        -0.63130E+08
 
   -0.62935E+08         0.13595E+07         0.00000E+00
    0.13595E+07        -0.49517E+08         0.00000E+00
    0.00000E+00         0.00000E+00        -0.62953E+08
 
   -0.62806E+08         0.15140E+07         0.00000E+00
    0.15140E+07        -0.49467E+08         0.00000E+00
    0.00000E+00         0.00000E+00        -0.62781E+08
 
   -0.62648E+08         0.16635E+07         0.00000E+00
    0.16635E+07        -0.49415E+08         0.00000E+00
    0.00000E+00         0.00000E+00        -0.62617E+08
 
   -0.62469E+08         0.18136E+07         0.00000E+00
    0.18136E+07        -0.49364E+08         0.00000E+00
    0.00000E+00         0.00000E+00        -0.62457E+08
 
   -0.58410E+08         0.18082E+05         0.00000E+00
    0.18082E+05        -0.50065E+08         0.00000E+00
    0.00000E+00         0.00000E+00        -0.63919E+08
 
   -0.58178E+08        -0.15587E+06         0.00000E+00
   -0.15587E+06        -0.50034E+08         0.00000E+00
    0.00000E+00         0.00000E+00        -0.63919E+08
 
   -0.58019E+08        -0.33409E+06         0.00000E+00
   -0.33409E+06        -0.49976E+08         0.00000E+00
    0.00000E+00         0.00000E+00        -0.63919E+08
 
   -0.57922E+08        -0.50151E+06         0.00000E+00
   -0.50151E+06        -0.49892E+08         0.00000E+00
    0.00000E+00         0.00000E+00        -0.63920E+08
 
   -0.57875E+08        -0.65034E+06         0.00000E+00
   -0.65034E+06        -0.49806E+08         0.00000E+00
    0.00000E+00         0.00000E+00        -0.63920E+08
 
   -0.57868E+08        -0.77970E+06         0.00000E+00
   -0.77970E+06        -0.49722E+08         0.00000E+00
    0.00000E+00         0.00000E+00        -0.63921E+08
 
   -0.57893E+08        -0.89004E+06         0.00000E+00
   -0.89004E+06        -0.49642E+08         0.00000E+00
    0.00000E+00         0.00000E+00        -0.63922E+08
 
   -0.57944E+08        -0.98244E+06         0.00000E+00
   -0.98244E+06        -0.49566E+08         0.00000E+00
    0.00000E+00         0.00000E+00        -0.63924E+08
 
   -0.58016E+08        -0.10582E+07         0.00000E+00
   -0.10582E+07        -0.49496E+08         0.00000E+00
    0.00000E+00         0.00000E+00        -0.63925E+08
 
   -0.58105E+08        -0.11185E+07         0.00000E+00
   -0.11185E+07        -0.49432E+08         0.00000E+00
    0.00000E+00         0.00000E+00        -0.63927E+08
 
   -0.58209E+08        -0.11647E+07         0.00000E+00
   -0.11647E+07        -0.49374E+08         0.00000E+00
    0.00000E+00         0.00000E+00        -0.63928E+08
 
   -0.58324E+08        -0.11981E+07         0.00000E+00
   -0.11981E+07        -0.49322E+08         0.00000E+00
    0.00000E+00         0.00000E+00        -0.63930E+08
 
   -0.58448E+08        -0.12198E+07         0.00000E+00
   -0.12198E+07        -0.49276E+08         0.00000E+00
    0.00000E+00         0.00000E+00        -0.63932E+08
 
   -0.58580E+08        -0.12310E+07         0.00000E+00
   -0.12310E+07        -0.49237E+08         0.00000E+00
    0.00000E+00         0.00000E+00        -0.63934E+08
 
   -0.58718E+08        -0.12320E+07         0.00000E+00
   -0.12320E+07        -0.49204E+08         0.00000E+00
    0.00000E+00         0.00000E+00        -0.63931E+08
 
   -0.58862E+08        -0.12227E+07         0.00000E+00
   -0.12227E+07        -0.49177E+08         0.00000E+00
    0.00000E+00         0.00000E+00        -0.63924E+08
 
   -0.59010E+08        -0.12042E+07         0.00000E+00
   -0.12042E+07        -0.49154E+08         0.00000E+00
    0.00000E+00         0.00000E+00        -0.63920E+08
 
   -0.59161E+08        -0.11778E+07         0.00000E+00
   -0.11778E+07        -0.49134E+08         0.00000E+00
    0.00000E+00         0.00000E+00        -0.63919E+08
 
   -0.59314E+08        -0.11446E+07         0.00000E+00
   -0.11446E+07        -0.49117E+08         0.00000E+00
    0.00000E+00         0.00000E+00        -0.63919E+08
 
   -0.59469E+08        -0.11054E+07         0.00000E+00
   -0.11054E+07        -0.49102E+08         0.00000E+00
    0.00000E+00         0.00000E+00        -0.63919E+08
 
   -0.59624E+08        -0.10608E+07         0.00000E+00
   -0.10608E+07        -0.49090E+08         0.00000E+00
    0.00000E+00         0.00000E+00        -0.63921E+08
 
   -0.59780E+08        -0.10114E+07         0.00000E+00
   -0.10114E+07        -0.49079E+08         0.00000E+00
    0.00000E+00         0.00000E+00        -0.63922E+08
 
   -0.59936E+08        -0.95746E+06         0.00000E+00
   -0.95746E+06        -0.49070E+08         0.00000E+00
    0.00000E+00         0.00000E+00        -0.63924E+08
 
   -0.60093E+08        -0.89940E+06         0.00000E+00
   -0.89940E+06        -0.49062E+08         0.00000E+00
    0.00000E+00         0.00000E+00        -0.63925E+08
 
   -0.60249E+08        -0.83744E+06         0.00000E+00
   -0.83744E+06        -0.49055E+08         0.00000E+00
    0.00000E+00         0.00000E+00        -0.63926E+08
 
   -0.60405E+08        -0.77173E+06         0.00000E+00
   -0.77173E+06        -0.49048E+08         0.00000E+00
    0.00000E+00         0.00000E+00        -0.63926E+08
 
   -0.60562E+08        -0.70232E+06         0.00000E+00
   -0.70232E+06        -0.49041E+08         0.00000E+00
    0.00000E+00         0.00000E+00        -0.63926E+08
 
   -0.60718E+08        -0.62921E+06         0.00000E+00
   -0.62921E+06        -0.49035E+08         0.00000E+00
    0.00000E+00         0.00000E+00        -0.63924E+08
 
   -0.60874E+08        -0.55229E+06         0.00000E+00
   -0.55229E+06        -0.49028E+08         0.00000E+00
    0.00000E+00         0.00000E+00        -0.63920E+08
 
   -0.61030E+08        -0.47134E+06         0.00000E+00
   -0.47134E+06        -0.49021E+08         0.00000E+00
    0.00000E+00         0.00000E+00        -0.63915E+08
 
   -0.61186E+08        -0.38598E+06         0.00000E+00
   -0.38598E+06        -0.49013E+08         0.00000E+00
    0.00000E+00         0.00000E+00        -0.63909E+08
 
   -0.61343E+08        -0.29567E+06         0.00000E+00
   -0.29567E+06        -0.49005E+08         0.00000E+00
    0.00000E+00         0.00000E+00        -0.63900E+08
 
   -0.61500E+08        -0.19968E+06         0.00000E+00
   -0.19968E+06        -0.48995E+08         0.00000E+00
    0.00000E+00         0.00000E+00        -0.63888E+08
 
   -0.61659E+08        -0.97015E+05         0.00000E+00
   -0.97015E+05        -0.48984E+08         0.00000E+00
    0.00000E+00         0.00000E+00        -0.63872E+08
 
   -0.61821E+08         0.13632E+05         0.00000E+00
    0.13632E+05        -0.48972E+08         0.00000E+00
    0.00000E+00         0.00000E+00        -0.63852E+08
 
   -0.61985E+08         0.13380E+06         0.00000E+00
    0.13380E+06        -0.48961E+08         0.00000E+00
    0.00000E+00         0.00000E+00        -0.63819E+08
 
   -0.62138E+08         0.26369E+06         0.00000E+00
    0.26369E+06        -0.48970E+08         0.00000E+00
    0.00000E+00         0.00000E+00        -0.63747E+08
 
   -0.62290E+08         0.40423E+06         0.00000E+00
    0.40423E+06        -0.48979E+08         0.00000E+00
    0.00000E+00         0.00000E+00        -0.63658E+08
 
   -0.62412E+08         0.54897E+06         0.00000E+00
    0.54897E+06        -0.48968E+08         0.00000E+00
    0.00000E+00         0.00000E+00        -0.63517E+08
 
   -0.62515E+08         0.68854E+06         0.00000E+00
    0.68854E+06        -0.48952E+08         0.00000E+00
    0.00000E+00         0.00000E+00        -0.63358E+08
 
   -0.62579E+08         0.82120E+06         0.00000E+00
    0.82120E+06        -0.48921E+08         0.00000E+00
    0.00000E+00         0.00000E+00        -0.63174E+08
 
   -0.62600E+08         0.94476E+06         0.00000E+00
    0.94476E+06        -0.48879E+08         0.00000E+00
    0.00000E+00         0.00000E+00        -0.62977E+08
 
   -0.62583E+08         0.10643E+07         0.00000E+00
    0.10643E+07        -0.48831E+08         0.00000E+00
    0.00000E+00         0.00000E+00        -0.62787E+08
 
   -0.62522E+08         0.11867E+07         0.00000E+00
    0.11867E+07        -0.48776E+08         0.00000E+00
    0.00000E+00         0.00000E+00        -0.62598E+08
 
   -0.62432E+08         0.13124E+07         0.00000E+00
    0.13124E+07        -0.48720E+08         0.00000E+00
    0.00000E+00         0.00000E+00        -0.62421E+08
 
   -0.62320E+08         0.14437E+07         0.00000E+00
    0.14437E+07        -0.48667E+08         0.00000E+00
    0.00000E+00         0.00000E+00        -0.62256E+08
 
   -0.62193E+08         0.15804E+07         0.00000E+00
    0.15804E+07        -0.48619E+08         0.00000E+00
    0.00000E+00         0.00000E+00        -0.62102E+08
 
   -0.62057E+08         0.17241E+07         0.00000E+00
    0.17241E+07        -0.48578E+08         0.00000E+00
    0.00000E+00         0.00000E+00        -0.61960E+08
 
   -0.61903E+08         0.18779E+07         0.00000E+00
    0.18779E+07        -0.48543E+08         0.00000E+00
    0.00000E+00         0.00000E+00        -0.61825E+08
 
   -0.61726E+08         0.20274E+07         0.00000E+00
    0.20274E+07        -0.48507E+08         0.00000E+00
    0.00000E+00         0.00000E+00        -0.61695E+08
 
   -0.58878E+08        -0.44096E+05         0.00000E+00
   -0.44096E+05        -0.49987E+08         0.00000E+00
    0.00000E+00         0.00000E+00        -0.62785E+08
 
   -0.58756E+08        -0.11611E+06         0.00000E+00
   -0.11611E+06        -0.49996E+08         0.00000E+00
    0.00000E+00         0.00000E+00        -0.62785E+08
 
   -0.58638E+08        -0.20249E+06         0.00000E+00
   -0.20249E+06        -0.49996E+08         0.00000E+00
    0.00000E+00         0.00000E+00        -0.62786E+08
 
   -0.58535E+08        -0.29788E+06         0.00000E+00
   -0.29788E+06        -0.49986E+08         0.00000E+00
    0.00000E+00         0.00000E+00        -0.62786E+08
 
   -0.58455E+08        -0.39702E+06         0.00000E+00
   -0.39702E+06        -0.49964E+08         0.00000E+00
    0.00000E+00         0.00000E+00        -0.62787E+08
 
   -0.58398E+08        -0.49460E+06         0.00000E+00
   -0.49460E+06        -0.49931E+08         0.00000E+00
    0.00000E+00         0.00000E+00        -0.62788E+08
 
   -0.58365E+08        -0.58697E+06         0.00000E+00
   -0.58697E+06        -0.49890E+08         0.00000E+00
    0.00000E+00         0.00000E+00        -0.62788E+08
 
   -0.58354E+08        -0.67172E+06         0.00000E+00
   -0.67172E+06        -0.49842E+08         0.00000E+00
    0.00000E+00         0.00000E+00        -0.62790E+08
 
   -0.58364E+08        -0.74735E+06         0.00000E+00
   -0.74735E+06        -0.49789E+08         0.00000E+00
    0.00000E+00         0.00000E+00        -0.62791E+08
 
   -0.58392E+08        -0.81301E+06         0.00000E+00
   -0.81301E+06        -0.49734E+08         0.00000E+00
    0.00000E+00         0.00000E+00        -0.62792E+08
 
   -0.58436E+08        -0.86828E+06         0.00000E+00
   -0.86828E+06        -0.49676E+08         0.00000E+00
    0.00000E+00         0.00000E+00        -0.62793E+08
 
   -0.58494E+08        -0.91307E+06         0.00000E+00
   -0.91307E+06        -0.49617E+08         0.00000E+00
    0.00000E+00         0.00000E+00        -0.62795E+08
 
   -0.58565E+08        -0.94739E+06         0.00000E+00
   -0.94739E+06        -0.49557E+08         0.00000E+00
    0.00000E+00         0.00000E+00        -0.62796E+08
 
   -0.58646E+08        -0.97142E+06         0.00000E+00
   -0.97142E+06        -0.49497E+08         0.00000E+00
    0.00000E+00         0.00000E+00        -0.62798E+08
 
   -0.58736E+08        -0.98561E+06         0.00000E+00
   -0.98561E+06        -0.49438E+08         0.00000E+00
    0.00000E+00         0.00000E+00        -0.62799E+08
 
   -0.58835E+08        -0.99078E+06         0.00000E+00
   -0.99078E+06        -0.49381E+08         0.00000E+00
    0.00000E+00         0.00000E+00        -0.62801E+08
 
   -0.58940E+08        -0.98742E+06         0.00000E+00
   -0.98742E+06        -0.49324E+08         0.00000E+00
    0.00000E+00         0.00000E+00        -0.62802E+08
 
   -0.59051E+08        -0.97570E+06         0.00000E+00
   -0.97570E+06        -0.49269E+08         0.00000E+00
    0.00000E+00         0.00000E+00        -0.62803E+08
 
   -0.59168E+08        -0.95594E+06         0.00000E+00
   -0.95594E+06        -0.49215E+08         0.00000E+00
    0.00000E+00         0.00000E+00        -0.62805E+08
 
   -0.59289E+08        -0.92860E+06         0.00000E+00
   -0.92860E+06        -0.49163E+08         0.00000E+00
    0.00000E+00         0.00000E+00        -0.62806E+08
 
   -0.59413E+08        -0.89408E+06         0.00000E+00
   -0.89408E+06        -0.49112E+08         0.00000E+00
    0.00000E+00         0.00000E+00        -0.62807E+08
 
   -0.59541E+08        -0.85282E+06         0.00000E+00
   -0.85282E+06        -0.49062E+08         0.00000E+00
    0.00000E+00         0.00000E+00        -0.62808E+08
 
   -0.59670E+08        -0.80520E+06         0.00000E+00
   -0.80520E+06        -0.49013E+08         0.00000E+00
    0.00000E+00         0.00000E+00        -0.62808E+08
 
   -0.59802E+08        -0.75157E+06         0.00000E+00
   -0.75157E+06        -0.48965E+08         0.00000E+00
    0.00000E+00         0.00000E+00        -0.62808E+08
 
   -0.59934E+08        -0.69221E+06         0.00000E+00
   -0.69221E+06        -0.48917E+08         0.00000E+00
    0.00000E+00         0.00000E+00        -0.62808E+08
 
   -0.60068E+08        -0.62739E+06         0.00000E+00
   -0.62739E+06        -0.48870E+08         0.00000E+00
    0.00000E+00         0.00000E+00        -0.62808E+08
 
   -0.60202E+08        -0.55731E+06         0.00000E+00
   -0.55731E+06        -0.48822E+08         0.00000E+00
    0.00000E+00         0.00000E+00        -0.62808E+08
 
   -0.60335E+08        -0.48213E+06         0.00000E+00
   -0.48213E+06        -0.48775E+08         0.00000E+00
    0.00000E+00         0.00000E+00        -0.62807E+08
 
   -0.60469E+08        -0.40197E+06         0.00000E+00
   -0.40197E+06        -0.48727E+08         0.00000E+00
    0.00000E+00         0.00000E+00        -0.62805E+08
 
   -0.60602E+08        -0.31697E+06         0.00000E+00
   -0.31697E+06        -0.48679E+08         0.00000E+00
    0.00000E+00         0.00000E+00        -0.62804E+08
 
   -0.60734E+08        -0.22721E+06         0.00000E+00
   -0.22721E+06        -0.48630E+08         0.00000E+00
    0.00000E+00         0.00000E+00        -0.62801E+08
 
   -0.60864E+08        -0.13280E+06         0.00000E+00
   -0.13280E+06        -0.48581E+08         0.00000E+00
    0.00000E+00         0.00000E+00        -0.62799E+08
 
   -0.60993E+08        -0.33903E+05         0.00000E+00
   -0.33903E+05        -0.48531E+08         0.00000E+00
    0.00000E+00         0.00000E+00        -0.62796E+08
 
   -0.61120E+08         0.69285E+05         0.00000E+00
    0.69285E+05        -0.48482E+08         0.00000E+00
    0.00000E+00         0.00000E+00        -0.62792E+08
 
   -0.61245E+08         0.17647E+06         0.00000E+00
    0.17647E+06        -0.48434E+08         0.00000E+00
    0.00000E+00         0.00000E+00        -0.62788E+08
 
   -0.61368E+08         0.28752E+06         0.00000E+00
    0.28752E+06        -0.48384E+08         0.00000E+00
    0.00000E+00         0.00000E+00        -0.62783E+08
 
   -0.61490E+08         0.40339E+06         0.00000E+00
    0.40339E+06        -0.48312E+08         0.00000E+00
    0.00000E+00         0.00000E+00        -0.62778E+08
 
   -0.61617E+08         0.52350E+06         0.00000E+00
    0.52350E+06        -0.48241E+08         0.00000E+00
    0.00000E+00         0.00000E+00        -0.62770E+08
 
   -0.61717E+08         0.65520E+06         0.00000E+00
    0.65520E+06        -0.48177E+08         0.00000E+00
    0.00000E+00         0.00000E+00        -0.62715E+08
 
   -0.61821E+08         0.80550E+06         0.00000E+00
    0.80550E+06        -0.48115E+08         0.00000E+00
    0.00000E+00         0.00000E+00        -0.62655E+08
 
   -0.61883E+08         0.96664E+06         0.00000E+00
    0.96664E+06        -0.48099E+08         0.00000E+00
    0.00000E+00         0.00000E+00        -0.62532E+08
 
   -0.61925E+08         0.11365E+07         0.00000E+00
    0.11365E+07        -0.48094E+08         0.00000E+00
    0.00000E+00         0.00000E+00        -0.62390E+08
 
   -0.61910E+08         0.13055E+07         0.00000E+00
    0.13055E+07        -0.48061E+08         0.00000E+00
    0.00000E+00         0.00000E+00        -0.62190E+08
 
   -0.61873E+08         0.14555E+07         0.00000E+00
    0.14555E+07        -0.48022E+08         0.00000E+00
    0.00000E+00         0.00000E+00        -0.61990E+08
 
   -0.61791E+08         0.15887E+07         0.00000E+00
    0.15887E+07        -0.47968E+08         0.00000E+00
    0.00000E+00         0.00000E+00        -0.61782E+08
 
   -0.61675E+08         0.17061E+07         0.00000E+00
    0.17061E+07        -0.47907E+08         0.00000E+00
    0.00000E+00         0.00000E+00        -0.61588E+08
 
   -0.61534E+08         0.18164E+07         0.00000E+00
    0.18164E+07        -0.47847E+08         0.00000E+00
    0.00000E+00         0.00000E+00        -0.61420E+08
 
   -0.61365E+08         0.19325E+07         0.00000E+00
    0.19325E+07        -0.47788E+08         0.00000E+00
    0.00000E+00         0.00000E+00        -0.61265E+08
 
   -0.61195E+08         0.20500E+07         0.00000E+00
    0.20500E+07        -0.47740E+08         0.00000E+00
    0.00000E+00         0.00000E+00        -0.61130E+08
 
   -0.61031E+08         0.21792E+07         0.00000E+00
    0.21792E+07        -0.47706E+08         0.00000E+00
    0.00000E+00         0.00000E+00        -0.61008E+08
 
   -0.59248E+08        -0.32948E+05         0.00000E+00
   -0.32948E+05        -0.50002E+08         0.00000E+00
    0.00000E+00         0.00000E+00        -0.61733E+08
 
   -0.59128E+08        -0.10164E+06         0.00000E+00
   -0.10164E+06        -0.49996E+08         0.00000E+00
    0.00000E+00         0.00000E+00        -0.61733E+08
 
   -0.59021E+08        -0.16640E+06         0.00000E+00
   -0.16640E+06        -0.49989E+08         0.00000E+00
    0.00000E+00         0.00000E+00        -0.61733E+08
 
   -0.58926E+08        -0.22933E+06         0.00000E+00
   -0.22933E+06        -0.49977E+08         0.00000E+00
    0.00000E+00         0.00000E+00        -0.61734E+08
 
   -0.58844E+08        -0.29096E+06         0.00000E+00
   -0.29096E+06        -0.49961E+08         0.00000E+00
    0.00000E+00         0.00000E+00        -0.61734E+08
 
   -0.58775E+08        -0.35118E+06         0.00000E+00
   -0.35118E+06        -0.49940E+08         0.00000E+00
    0.00000E+00         0.00000E+00        -0.61735E+08
 
   -0.58721E+08        -0.40916E+06         0.00000E+00
   -0.40916E+06        -0.49913E+08         0.00000E+00
    0.00000E+00         0.00000E+00        -0.61736E+08
 
   -0.58681E+08        -0.46385E+06         0.00000E+00
   -0.46385E+06        -0.49880E+08         0.00000E+00
    0.00000E+00         0.00000E+00        -0.61737E+08
 
   -0.58656E+08        -0.51417E+06         0.00000E+00
   -0.51417E+06        -0.49841E+08         0.00000E+00
    0.00000E+00         0.00000E+00        -0.61738E+08
 
   -0.58646E+08        -0.55920E+06         0.00000E+00
   -0.55920E+06        -0.49798E+08         0.00000E+00
    0.00000E+00         0.00000E+00        -0.61739E+08
 
   -0.58649E+08        -0.59817E+06         0.00000E+00
   -0.59817E+06        -0.49750E+08         0.00000E+00
    0.00000E+00         0.00000E+00        -0.61740E+08
 
   -0.58664E+08        -0.63051E+06         0.00000E+00
   -0.63051E+06        -0.49698E+08         0.00000E+00
    0.00000E+00         0.00000E+00        -0.61741E+08
 
   -0.58692E+08        -0.65582E+06         0.00000E+00
   -0.65582E+06        -0.49643E+08         0.00000E+00
    0.00000E+00         0.00000E+00        -0.61743E+08
 
   -0.58731E+08        -0.67390E+06         0.00000E+00
   -0.67390E+06        -0.49586E+08         0.00000E+00
    0.00000E+00         0.00000E+00        -0.61744E+08
 
   -0.58779E+08        -0.68462E+06         0.00000E+00
   -0.68462E+06        -0.49526E+08         0.00000E+00
    0.00000E+00         0.00000E+00        -0.61745E+08
 
   -0.58836E+08        -0.68784E+06         0.00000E+00
   -0.68784E+06        -0.49464E+08         0.00000E+00
    0.00000E+00         0.00000E+00        -0.61746E+08
 
   -0.58902E+08        -0.68357E+06         0.00000E+00
   -0.68357E+06        -0.49401E+08         0.00000E+00
    0.00000E+00         0.00000E+00        -0.61747E+08
 
   -0.58975E+08        -0.67196E+06         0.00000E+00
   -0.67196E+06        -0.49337E+08         0.00000E+00
    0.00000E+00         0.00000E+00        -0.61748E+08
 
   -0.59054E+08        -0.65310E+06         0.00000E+00
   -0.65310E+06        -0.49272E+08         0.00000E+00
    0.00000E+00         0.00000E+00        -0.61749E+08
 
   -0.59139E+08        -0.62709E+06         0.00000E+00
   -0.62709E+06        -0.49206E+08         0.00000E+00
    0.00000E+00         0.00000E+00        -0.61750E+08
 
   -0.59229E+08        -0.59408E+06         0.00000E+00
   -0.59408E+06        -0.49140E+08         0.00000E+00
    0.00000E+00         0.00000E+00        -0.61750E+08
 
   -0.59323E+08        -0.55423E+06         0.00000E+00
   -0.55423E+06        -0.49073E+08         0.00000E+00
    0.00000E+00         0.00000E+00        -0.61751E+08
 
   -0.59421E+08        -0.50772E+06         0.00000E+00
   -0.50772E+06        -0.49006E+08         0.00000E+00
    0.00000E+00         0.00000E+00        -0.61751E+08
 
   -0.59521E+08        -0.45474E+06         0.00000E+00
   -0.45474E+06        -0.48938E+08         0.00000E+00
    0.00000E+00         0.00000E+00        -0.61751E+08
 
   -0.59624E+08        -0.39547E+06         0.00000E+00
   -0.39547E+06        -0.48870E+08         0.00000E+00
    0.00000E+00         0.00000E+00        -0.61751E+08
 
   -0.59729E+08        -0.33010E+06         0.00000E+00
   -0.33010E+06        -0.48801E+08         0.00000E+00
    0.00000E+00         0.00000E+00        -0.61751E+08
 
   -0.59835E+08        -0.25880E+06         0.00000E+00
   -0.25880E+06        -0.48733E+08         0.00000E+00
    0.00000E+00         0.00000E+00        -0.61750E+08
 
   -0.59942E+08        -0.18173E+06         0.00000E+00
   -0.18173E+06        -0.48663E+08         0.00000E+00
    0.00000E+00         0.00000E+00        -0.61749E+08
 
   -0.60049E+08        -0.99047E+05         0.00000E+00
   -0.99047E+05        -0.48593E+08         0.00000E+00
    0.00000E+00         0.00000E+00        -0.61748E+08
 
   -0.60156E+08        -0.10879E+05         0.00000E+00
   -0.10879E+05        -0.48522E+08         0.00000E+00
    0.00000E+00         0.00000E+00        -0.61747E+08
 
   -0.60263E+08         0.82674E+05         0.00000E+00
    0.82674E+05        -0.48450E+08         0.00000E+00
    0.00000E+00         0.00000E+00        -0.61745E+08
 
   -0.60369E+08         0.18156E+06         0.00000E+00
    0.18156E+06        -0.48378E+08         0.00000E+00
    0.00000E+00         0.00000E+00        -0.61743E+08
 
   -0.60473E+08         0.28579E+06         0.00000E+00
    0.28579E+06        -0.48304E+08         0.00000E+00
    0.00000E+00         0.00000E+00        -0.61740E+08
 
   -0.60575E+08         0.39551E+06         0.00000E+00
    0.39551E+06        -0.48228E+08         0.00000E+00
    0.00000E+00         0.00000E+00        -0.61737E+08
 
   -0.60673E+08         0.51104E+06         0.00000E+00
    0.51104E+06        -0.48150E+08         0.00000E+00
    0.00000E+00         0.00000E+00        -0.61734E+08
 
   -0.60768E+08         0.63275E+06         0.00000E+00
    0.63275E+06        -0.48071E+08         0.00000E+00
    0.00000E+00         0.00000E+00        -0.61730E+08
 
   -0.60856E+08         0.76013E+06         0.00000E+00
    0.76013E+06        -0.47996E+08         0.00000E+00
    0.00000E+00         0.00000E+00        -0.61726E+08
 
   -0.60936E+08         0.89385E+06         0.00000E+00
    0.89385E+06        -0.47919E+08         0.00000E+00
    0.00000E+00         0.00000E+00        -0.61721E+08
 
   -0.61005E+08         0.10280E+07         0.00000E+00
    0.10280E+07        -0.47851E+08         0.00000E+00
    0.00000E+00         0.00000E+00        -0.61716E+08
 
   -0.61067E+08         0.11568E+07         0.00000E+00
    0.11568E+07        -0.47785E+08         0.00000E+00
    0.00000E+00         0.00000E+00        -0.61711E+08
 
   -0.61127E+08         0.12863E+07         0.00000E+00
    0.12863E+07        -0.47672E+08         0.00000E+00
    0.00000E+00         0.00000E+00        -0.61705E+08
 
   -0.61196E+08         0.14135E+07         0.00000E+00
    0.14135E+07        -0.47552E+08         0.00000E+00
    0.00000E+00         0.00000E+00        -0.61699E+08
 
   -0.61212E+08         0.15471E+07         0.00000E+00
    0.15471E+07        -0.47447E+08         0.00000E+00
    0.00000E+00         0.00000E+00        -0.61619E+08
 
   -0.61229E+08         0.16983E+07         0.00000E+00
    0.16983E+07        -0.47355E+08         0.00000E+00
    0.00000E+00         0.00000E+00        -0.61536E+08
 
   -0.61175E+08         0.18461E+07         0.00000E+00
    0.18461E+07        -0.47335E+08         0.00000E+00
    0.00000E+00         0.00000E+00        -0.61377E+08
 
   -0.61102E+08         0.19933E+07         0.00000E+00
    0.19933E+07        -0.47313E+08         0.00000E+00
    0.00000E+00         0.00000E+00        -0.61210E+08
 
   -0.60971E+08         0.21286E+07         0.00000E+00
    0.21286E+07        -0.47259E+08         0.00000E+00
    0.00000E+00         0.00000E+00        -0.60996E+08
 
   -0.60829E+08         0.22318E+07         0.00000E+00
    0.22318E+07        -0.47197E+08         0.00000E+00
    0.00000E+00         0.00000E+00        -0.60798E+08
 
   -0.60650E+08         0.23139E+07         0.00000E+00
    0.23139E+07        -0.47118E+08         0.00000E+00
    0.00000E+00         0.00000E+00        -0.60603E+08
 
   -0.60456E+08         0.23830E+07         0.00000E+00
    0.23830E+07        -0.47039E+08         0.00000E+00
    0.00000E+00         0.00000E+00        -0.60434E+08
 
   -0.59533E+08        -0.26970E+05         0.00000E+00
   -0.26970E+05        -0.49998E+08         0.00000E+00
    0.00000E+00         0.00000E+00        -0.60762E+08
 
   -0.59404E+08        -0.71894E+05         0.00000E+00
   -0.71894E+05        -0.49995E+08         0.00000E+00
    0.00000E+00         0.00000E+00        -0.60762E+08
 
   -0.59287E+08        -0.11534E+06         0.00000E+00
   -0.11534E+06        -0.49986E+08         0.00000E+00
    0.00000E+00         0.00000E+00        -0.60763E+08
 
   -0.59181E+08        -0.15653E+06         0.00000E+00
   -0.15653E+06        -0.49973E+08         0.00000E+00
    0.00000E+00         0.00000E+00        -0.60763E+08
 
   -0.59088E+08        -0.19521E+06         0.00000E+00
   -0.19521E+06        -0.49956E+08         0.00000E+00
    0.00000E+00         0.00000E+00        -0.60764E+08
 
   -0.59007E+08        -0.23119E+06         0.00000E+00
   -0.23119E+06        -0.49934E+08         0.00000E+00
    0.00000E+00         0.00000E+00        -0.60764E+08
 
   -0.58938E+08        -0.26430E+06         0.00000E+00
   -0.26430E+06        -0.49908E+08         0.00000E+00
    0.00000E+00         0.00000E+00        -0.60765E+08
 
   -0.58880E+08        -0.29428E+06         0.00000E+00
   -0.29428E+06        -0.49877E+08         0.00000E+00
    0.00000E+00         0.00000E+00        -0.60766E+08
 
   -0.58834E+08        -0.32080E+06         0.00000E+00
   -0.32080E+06        -0.49842E+08         0.00000E+00
    0.00000E+00         0.00000E+00        -0.60767E+08
 
   -0.58800E+08        -0.34349E+06         0.00000E+00
   -0.34349E+06        -0.49803E+08         0.00000E+00
    0.00000E+00         0.00000E+00        -0.60768E+08
 
   -0.58776E+08        -0.36195E+06         0.00000E+00
   -0.36195E+06        -0.49760E+08         0.00000E+00
    0.00000E+00         0.00000E+00        -0.60769E+08
 
   -0.58763E+08        -0.37579E+06         0.00000E+00
   -0.37579E+06        -0.49713E+08         0.00000E+00
    0.00000E+00         0.00000E+00        -0.60770E+08
 
   -0.58761E+08        -0.38465E+06         0.00000E+00
   -0.38465E+06        -0.49663E+08         0.00000E+00
    0.00000E+00         0.00000E+00        -0.60771E+08
 
   -0.58768E+08        -0.38823E+06         0.00000E+00
   -0.38823E+06        -0.49609E+08         0.00000E+00
    0.00000E+00         0.00000E+00        -0.60772E+08
 
   -0.58784E+08        -0.38623E+06         0.00000E+00
   -0.38623E+06        -0.49552E+08         0.00000E+00
    0.00000E+00         0.00000E+00        -0.60772E+08
 
   -0.58808E+08        -0.37848E+06         0.00000E+00
   -0.37848E+06        -0.49492E+08         0.00000E+00
    0.00000E+00         0.00000E+00        -0.60773E+08
 
   -0.58840E+08        -0.36480E+06         0.00000E+00
   -0.36480E+06        -0.49431E+08         0.00000E+00
    0.00000E+00         0.00000E+00        -0.60774E+08
 
   -0.58880E+08        -0.34506E+06         0.00000E+00
   -0.34506E+06        -0.49366E+08         0.00000E+00
    0.00000E+00         0.00000E+00        -0.60775E+08
 
   -0.58926E+08        -0.31918E+06         0.00000E+00
   -0.31918E+06        -0.49301E+08         0.00000E+00
    0.00000E+00         0.00000E+00        -0.60775E+08
 
   -0.58978E+08        -0.28712E+06         0.00000E+00
   -0.28712E+06        -0.49233E+08         0.00000E+00
    0.00000E+00         0.00000E+00        -0.60776E+08
 
   -0.59035E+08        -0.24886E+06         0.00000E+00
   -0.24886E+06        -0.49164E+08         0.00000E+00
    0.00000E+00         0.00000E+00        -0.60776E+08
 
   -0.59097E+08        -0.20440E+06         0.00000E+00
   -0.20440E+06        -0.49093E+08         0.00000E+00
    0.00000E+00         0.00000E+00        -0.60776E+08
 
   -0.59162E+08        -0.15376E+06         0.00000E+00
   -0.15376E+06        -0.49022E+08         0.00000E+00
    0.00000E+00         0.00000E+00        -0.60776E+08
 
   -0.59232E+08        -0.96977E+05         0.00000E+00
   -0.96977E+05        -0.48949E+08         0.00000E+00
    0.00000E+00         0.00000E+00        -0.60776E+08
 
   -0.59304E+08        -0.34102E+05         0.00000E+00
   -0.34102E+05        -0.48875E+08         0.00000E+00
    0.00000E+00         0.00000E+00        -0.60776E+08
 
   -0.59379E+08         0.34811E+05         0.00000E+00
    0.34811E+05        -0.48801E+08         0.00000E+00
    0.00000E+00         0.00000E+00        -0.60776E+08
 
   -0.59455E+08         0.10970E+06         0.00000E+00
    0.10970E+06        -0.48725E+08         0.00000E+00
    0.00000E+00         0.00000E+00        -0.60775E+08
 
   -0.59533E+08         0.19051E+06         0.00000E+00
    0.19051E+06        -0.48649E+08         0.00000E+00
    0.00000E+00         0.00000E+00        -0.60774E+08
 
   -0.59612E+08         0.27718E+06         0.00000E+00
    0.27718E+06        -0.48572E+08         0.00000E+00
    0.00000E+00         0.00000E+00        -0.60773E+08
 
   -0.59691E+08         0.36964E+06         0.00000E+00
    0.36964E+06        -0.48494E+08         0.00000E+00
    0.00000E+00         0.00000E+00        -0.60772E+08
 
   -0.59770E+08         0.46785E+06         0.00000E+00
    0.46785E+06        -0.48415E+08         0.00000E+00
    0.00000E+00         0.00000E+00        -0.60770E+08
 
   -0.59848E+08         0.57174E+06         0.00000E+00
    0.57174E+06        -0.48336E+08         0.00000E+00
    0.00000E+00         0.00000E+00        -0.60769E+08
 
   -0.59925E+08         0.68123E+06         0.00000E+00
    0.68123E+06        -0.48256E+08         0.00000E+00
    0.00000E+00         0.00000E+00        -0.60767E+08
 
   -0.59999E+08         0.79619E+06         0.00000E+00
    0.79619E+06        -0.48175E+08         0.00000E+00
    0.00000E+00         0.00000E+00        -0.60764E+08
 
   -0.60071E+08         0.91639E+06         0.00000E+00
    0.91639E+06        -0.48093E+08         0.00000E+00
    0.00000E+00         0.00000E+00        -0.60762E+08
 
   -0.60140E+08         0.10414E+07         0.00000E+00
    0.10414E+07        -0.48012E+08         0.00000E+00
    0.00000E+00         0.00000E+00        -0.60759E+08
 
   -0.60205E+08         0.11712E+07         0.00000E+00
    0.11712E+07        -0.47928E+08         0.00000E+00
    0.00000E+00         0.00000E+00        -0.60756E+08
 
   -0.60266E+08         0.13050E+07         0.00000E+00
    0.13050E+07        -0.47844E+08         0.00000E+00
    0.00000E+00         0.00000E+00        -0.60753E+08
 
   -0.60322E+08         0.14436E+07         0.00000E+00
    0.14436E+07        -0.47758E+08         0.00000E+00
    0.00000E+00         0.00000E+00        -0.60750E+08
 
   -0.60372E+08         0.15882E+07         0.00000E+00
    0.15882E+07        -0.47669E+08         0.00000E+00
    0.00000E+00         0.00000E+00        -0.60746E+08
 
   -0.60413E+08         0.17361E+07         0.00000E+00
    0.17361E+07        -0.47589E+08         0.00000E+00
    0.00000E+00         0.00000E+00        -0.60742E+08
 
   -0.60442E+08         0.18876E+07         0.00000E+00
    0.18876E+07        -0.47509E+08         0.00000E+00
    0.00000E+00         0.00000E+00        -0.60738E+08
 
   -0.60460E+08         0.20307E+07         0.00000E+00
    0.20307E+07        -0.47442E+08         0.00000E+00
    0.00000E+00         0.00000E+00        -0.60734E+08
 
   -0.60475E+08         0.21576E+07         0.00000E+00
    0.21576E+07        -0.47367E+08         0.00000E+00
    0.00000E+00         0.00000E+00        -0.60730E+08
 
   -0.60498E+08         0.22835E+07         0.00000E+00
    0.22835E+07        -0.47214E+08         0.00000E+00
    0.00000E+00         0.00000E+00        -0.60726E+08
 
   -0.60525E+08         0.23986E+07         0.00000E+00
    0.23986E+07        -0.47063E+08         0.00000E+00
    0.00000E+00         0.00000E+00        -0.60708E+08
 
   -0.60494E+08         0.25143E+07         0.00000E+00
    0.25143E+07        -0.46925E+08         0.00000E+00
    0.00000E+00         0.00000E+00        -0.60615E+08
 
   -0.60450E+08         0.26372E+07         0.00000E+00
    0.26372E+07        -0.46807E+08         0.00000E+00
    0.00000E+00         0.00000E+00        -0.60514E+08
 
   -0.60313E+08         0.27385E+07         0.00000E+00
    0.27385E+07        -0.46765E+08         0.00000E+00
    0.00000E+00         0.00000E+00        -0.60334E+08
 
   -0.60128E+08         0.28262E+07         0.00000E+00
    0.28262E+07        -0.46695E+08         0.00000E+00
    0.00000E+00         0.00000E+00        -0.60131E+08
 
   -0.59712E+08        -0.14499E+05         0.00000E+00
   -0.14499E+05        -0.49999E+08         0.00000E+00
    0.00000E+00         0.00000E+00        -0.59872E+08
 
   -0.59572E+08        -0.38303E+05         0.00000E+00
   -0.38303E+05        -0.49994E+08         0.00000E+00
    0.00000E+00         0.00000E+00        -0.59872E+08
 
   -0.59443E+08        -0.59829E+05         0.00000E+00
   -0.59829E+05        -0.49985E+08         0.00000E+00
    0.00000E+00         0.00000E+00        -0.59872E+08
 
   -0.59327E+08        -0.79271E+05         0.00000E+00
   -0.79271E+05        -0.49971E+08         0.00000E+00
    0.00000E+00         0.00000E+00        -0.59873E+08
 
   -0.59221E+08        -0.96542E+05         0.00000E+00
   -0.96542E+05        -0.49953E+08         0.00000E+00
    0.00000E+00         0.00000E+00        -0.59873E+08
 
   -0.59127E+08        -0.11149E+06         0.00000E+00
   -0.11149E+06        -0.49932E+08         0.00000E+00
    0.00000E+00         0.00000E+00        -0.59874E+08
 
   -0.59043E+08        -0.12391E+06         0.00000E+00
   -0.12391E+06        -0.49906E+08         0.00000E+00
    0.00000E+00         0.00000E+00        -0.59874E+08
 
   -0.58970E+08        -0.13361E+06         0.00000E+00
   -0.13361E+06        -0.49877E+08         0.00000E+00
    0.00000E+00         0.00000E+00        -0.59875E+08
 
   -0.58907E+08        -0.14035E+06         0.00000E+00
   -0.14035E+06        -0.49843E+08         0.00000E+00
    0.00000E+00         0.00000E+00        -0.59876E+08
 
   -0.58855E+08        -0.14390E+06         0.00000E+00
   -0.14390E+06        -0.49807E+08         0.00000E+00
    0.00000E+00         0.00000E+00        -0.59876E+08
 
   -0.58811E+08        -0.14403E+06         0.00000E+00
   -0.14403E+06        -0.49766E+08         0.00000E+00
    0.00000E+00         0.00000E+00        -0.59877E+08
 
   -0.58777E+08        -0.14048E+06         0.00000E+00
   -0.14048E+06        -0.49723E+08         0.00000E+00
    0.00000E+00         0.00000E+00        -0.59878E+08
 
   -0.58751E+08        -0.13301E+06         0.00000E+00
   -0.13301E+06        -0.49676E+08         0.00000E+00
    0.00000E+00         0.00000E+00        -0.59878E+08
 
   -0.58734E+08        -0.12140E+06         0.00000E+00
   -0.12140E+06        -0.49626E+08         0.00000E+00
    0.00000E+00         0.00000E+00        -0.59879E+08
 
   -0.58725E+08        -0.10541E+06         0.00000E+00
   -0.10541E+06        -0.49574E+08         0.00000E+00
    0.00000E+00         0.00000E+00        -0.59879E+08
 
   -0.58723E+08        -0.84834E+05         0.00000E+00
   -0.84834E+05        -0.49519E+08         0.00000E+00
    0.00000E+00         0.00000E+00        -0.59880E+08
 
   -0.58729E+08        -0.59493E+05         0.00000E+00
   -0.59493E+05        -0.49461E+08         0.00000E+00
    0.00000E+00         0.00000E+00        -0.59880E+08
 
   -0.58740E+08        -0.29223E+05         0.00000E+00
   -0.29223E+05        -0.49401E+08         0.00000E+00
    0.00000E+00         0.00000E+00        -0.59881E+08
 
   -0.58758E+08         0.61187E+04         0.00000E+00
    0.61187E+04        -0.49340E+08         0.00000E+00
    0.00000E+00         0.00000E+00        -0.59881E+08
 
   -0.58782E+08         0.46652E+05         0.00000E+00
    0.46652E+05        -0.49276E+08         0.00000E+00
    0.00000E+00         0.00000E+00        -0.59881E+08
 
   -0.58810E+08         0.92475E+05         0.00000E+00
    0.92475E+05        -0.49211E+08         0.00000E+00
    0.00000E+00         0.00000E+00        -0.59882E+08
 
   -0.58843E+08         0.14367E+06         0.00000E+00
    0.14367E+06        -0.49145E+08         0.00000E+00
    0.00000E+00         0.00000E+00        -0.59882E+08
 
   -0.58880E+08         0.20029E+06         0.00000E+00
    0.20029E+06        -0.49077E+08         0.00000E+00
    0.00000E+00         0.00000E+00        -0.59881E+08
 
   -0.58920E+08         0.26238E+06         0.00000E+00
    0.26238E+06        -0.49008E+08         0.00000E+00
    0.00000E+00         0.00000E+00        -0.59881E+08
 
   -0.58963E+08         0.32998E+06         0.00000E+00
    0.32998E+06        -0.48939E+08         0.00000E+00
    0.00000E+00         0.00000E+00        -0.59881E+08
 
   -0.59009E+08         0.40310E+06         0.00000E+00
    0.40310E+06        -0.48868E+08         0.00000E+00
    0.00000E+00         0.00000E+00        -0.59880E+08
 
   -0.59057E+08         0.48175E+06         0.00000E+00
    0.48175E+06        -0.48797E+08         0.00000E+00
    0.00000E+00         0.00000E+00        -0.59880E+08
 
   -0.59107E+08         0.56592E+06         0.00000E+00
    0.56592E+06        -0.48725E+08         0.00000E+00
    0.00000E+00         0.00000E+00        -0.59879E+08
 
   -0.59157E+08         0.65559E+06         0.00000E+00
    0.65559E+06        -0.48653E+08         0.00000E+00
    0.00000E+00         0.00000E+00        -0.59878E+08
 
   -0.59208E+08         0.75073E+06         0.00000E+00
    0.75073E+06        -0.48580E+08         0.00000E+00
    0.00000E+00         0.00000E+00        -0.59877E+08
 
   -0.59260E+08         0.85130E+06         0.00000E+00
    0.85130E+06        -0.48508E+08         0.00000E+00
    0.00000E+00         0.00000E+00        -0.59876E+08
 
   -0.59310E+08         0.95722E+06         0.00000E+00
    0.95722E+06        -0.48435E+08         0.00000E+00
    0.00000E+00         0.00000E+00        -0.59875E+08
 
   -0.59360E+08         0.10684E+07         0.00000E+00
    0.10684E+07        -0.48363E+08         0.00000E+00
    0.00000E+00         0.00000E+00        -0.59873E+08
 
   -0.59409E+08         0.11848E+07         0.00000E+00
    0.11848E+07        -0.48290E+08         0.00000E+00
    0.00000E+00         0.00000E+00        -0.59872E+08
 
   -0.59456E+08         0.13062E+07         0.00000E+00
    0.13062E+07        -0.48218E+08         0.00000E+00
    0.00000E+00         0.00000E+00        -0.59870E+08
 
   -0.59500E+08         0.14325E+07         0.00000E+00
    0.14325E+07        -0.48146E+08         0.00000E+00
    0.00000E+00         0.00000E+00        -0.59868E+08
 
   -0.59542E+08         0.15636E+07         0.00000E+00
    0.15636E+07        -0.48075E+08         0.00000E+00
    0.00000E+00         0.00000E+00        -0.59866E+08
 
   -0.59581E+08         0.16995E+07         0.00000E+00
    0.16995E+07        -0.48004E+08         0.00000E+00
    0.00000E+00         0.00000E+00        -0.59864E+08
 
   -0.59616E+08         0.18395E+07         0.00000E+00
    0.18395E+07        -0.47934E+08         0.00000E+00
    0.00000E+00         0.00000E+00        -0.59862E+08
 
   -0.59648E+08         0.19829E+07         0.00000E+00
    0.19829E+07        -0.47865E+08         0.00000E+00
    0.00000E+00         0.00000E+00        -0.59859E+08
 
   -0.59676E+08         0.21299E+07         0.00000E+00
    0.21299E+07        -0.47794E+08         0.00000E+00
    0.00000E+00         0.00000E+00        -0.59857E+08
 
   -0.59701E+08         0.22797E+07         0.00000E+00
    0.22797E+07        -0.47725E+08         0.00000E+00
    0.00000E+00         0.00000E+00        -0.59855E+08
 
   -0.59723E+08         0.24345E+07         0.00000E+00
    0.24345E+07        -0.47652E+08         0.00000E+00
    0.00000E+00         0.00000E+00        -0.59852E+08
 
   -0.59739E+08         0.25966E+07         0.00000E+00
    0.25966E+07        -0.47578E+08         0.00000E+00
    0.00000E+00         0.00000E+00        -0.59850E+08
 
   -0.59747E+08         0.27606E+07         0.00000E+00
    0.27606E+07        -0.47521E+08         0.00000E+00
    0.00000E+00         0.00000E+00        -0.59848E+08
 
   -0.59746E+08         0.29269E+07         0.00000E+00
    0.29269E+07        -0.47463E+08         0.00000E+00
    0.00000E+00         0.00000E+00        -0.59846E+08
 
   -0.59740E+08         0.30795E+07         0.00000E+00
    0.30795E+07        -0.47419E+08         0.00000E+00
    0.00000E+00         0.00000E+00        -0.59844E+08
 
   -0.59743E+08         0.32170E+07         0.00000E+00
    0.32170E+07        -0.47349E+08         0.00000E+00
    0.00000E+00         0.00000E+00        -0.59843E+08
 
   -0.59768E+08         0.33614E+07         0.00000E+00
    0.33614E+07        -0.47188E+08         0.00000E+00
    0.00000E+00         0.00000E+00        -0.59842E+08
 
   -0.59769E+08         0.34951E+07         0.00000E+00
    0.34951E+07        -0.47031E+08         0.00000E+00
    0.00000E+00         0.00000E+00        -0.59796E+08
 
   -0.59778E+08        -0.18566E+04         0.00000E+00
   -0.18566E+04        -0.49999E+08         0.00000E+00
    0.00000E+00         0.00000E+00        -0.59058E+08
 
   -0.59630E+08        -0.32498E+04         0.00000E+00
   -0.32498E+04        -0.49994E+08         0.00000E+00
    0.00000E+00         0.00000E+00        -0.59059E+08
 
   -0.59493E+08        -0.36160E+04         0.00000E+00
   -0.36160E+04        -0.49985E+08         0.00000E+00
    0.00000E+00         0.00000E+00        -0.59059E+08
 
   -0.59368E+08        -0.26807E+04         0.00000E+00
   -0.26807E+04        -0.49972E+08         0.00000E+00
    0.00000E+00         0.00000E+00        -0.59059E+08
 
   -0.59252E+08        -0.25318E+03         0.00000E+00
   -0.25318E+03        -0.49955E+08         0.00000E+00
    0.00000E+00         0.00000E+00        -0.59059E+08
 
   -0.59148E+08         0.38567E+04         0.00000E+00
    0.38567E+04        -0.49935E+08         0.00000E+00
    0.00000E+00         0.00000E+00        -0.59060E+08
 
   -0.59053E+08         0.98426E+04         0.00000E+00
    0.98426E+04        -0.49911E+08         0.00000E+00
    0.00000E+00         0.00000E+00        -0.59060E+08
 
   -0.58967E+08         0.17907E+05         0.00000E+00
    0.17907E+05        -0.49884E+08         0.00000E+00
    0.00000E+00         0.00000E+00        -0.59060E+08
 
   -0.58890E+08         0.28258E+05         0.00000E+00
    0.28258E+05        -0.49853E+08         0.00000E+00
    0.00000E+00         0.00000E+00        -0.59061E+08
 
   -0.58823E+08         0.41105E+05         0.00000E+00
    0.41105E+05        -0.49820E+08         0.00000E+00
    0.00000E+00         0.00000E+00        -0.59061E+08
 
   -0.58763E+08         0.56656E+05         0.00000E+00
    0.56656E+05        -0.49783E+08         0.00000E+00
    0.00000E+00         0.00000E+00        -0.59062E+08
 
   -0.58712E+08         0.75118E+05         0.00000E+00
    0.75118E+05        -0.49743E+08         0.00000E+00
    0.00000E+00         0.00000E+00        -0.59062E+08
 
   -0.58668E+08         0.96691E+05         0.00000E+00
    0.96691E+05        -0.49701E+08         0.00000E+00
    0.00000E+00         0.00000E+00        -0.59062E+08
 
   -0.58632E+08         0.12157E+06         0.00000E+00
    0.12157E+06        -0.49657E+08         0.00000E+00
    0.00000E+00         0.00000E+00        -0.59063E+08
 
   -0.58603E+08         0.14995E+06         0.00000E+00
    0.14995E+06        -0.49610E+08         0.00000E+00
    0.00000E+00         0.00000E+00        -0.59063E+08
 
   -0.58580E+08         0.18200E+06         0.00000E+00
    0.18200E+06        -0.49561E+08         0.00000E+00
    0.00000E+00         0.00000E+00        -0.59063E+08
 
   -0.58564E+08         0.21790E+06         0.00000E+00
    0.21790E+06        -0.49510E+08         0.00000E+00
    0.00000E+00         0.00000E+00        -0.59063E+08
 
   -0.58553E+08         0.25779E+06         0.00000E+00
    0.25779E+06        -0.49457E+08         0.00000E+00
    0.00000E+00         0.00000E+00        -0.59063E+08
 
   -0.58547E+08         0.30182E+06         0.00000E+00
    0.30182E+06        -0.49402E+08         0.00000E+00
    0.00000E+00         0.00000E+00        -0.59063E+08
 
   -0.58547E+08         0.35011E+06         0.00000E+00
    0.35011E+06        -0.49346E+08         0.00000E+00
    0.00000E+00         0.00000E+00        -0.59063E+08
 
   -0.58551E+08         0.40278E+06         0.00000E+00
    0.40278E+06        -0.49289E+08         0.00000E+00
    0.00000E+00         0.00000E+00        -0.59063E+08
 
   -0.58559E+08         0.45992E+06         0.00000E+00
    0.45992E+06        -0.49231E+08         0.00000E+00
    0.00000E+00         0.00000E+00        -0.59063E+08
 
   -0.58571E+08         0.52162E+06         0.00000E+00
    0.52162E+06        -0.49171E+08         0.00000E+00
    0.00000E+00         0.00000E+00        -0.59063E+08
 
   -0.58586E+08         0.58794E+06         0.00000E+00
    0.58794E+06        -0.49111E+08         0.00000E+00
    0.00000E+00         0.00000E+00        -0.59063E+08
 
   -0.58604E+08         0.65894E+06         0.00000E+00
    0.65894E+06        -0.49051E+08         0.00000E+00
    0.00000E+00         0.00000E+00        -0.59062E+08
 
   -0.58624E+08         0.73464E+06         0.00000E+00
    0.73464E+06        -0.48990E+08         0.00000E+00
    0.00000E+00         0.00000E+00        -0.59062E+08
 
   -0.58647E+08         0.81507E+06         0.00000E+00
    0.81507E+06        -0.48928E+08         0.00000E+00
    0.00000E+00         0.00000E+00        -0.59061E+08
 
   -0.58671E+08         0.90023E+06         0.00000E+00
    0.90023E+06        -0.48867E+08         0.00000E+00
    0.00000E+00         0.00000E+00        -0.59060E+08
 
   -0.58696E+08         0.99011E+06         0.00000E+00
    0.99011E+06        -0.48806E+08         0.00000E+00
    0.00000E+00         0.00000E+00        -0.59060E+08
 
   -0.58722E+08         0.10847E+07         0.00000E+00
    0.10847E+07        -0.48745E+08         0.00000E+00
    0.00000E+00         0.00000E+00        -0.59059E+08
 
   -0.58748E+08         0.11839E+07         0.00000E+00
    0.11839E+07        -0.48685E+08         0.00000E+00
    0.00000E+00         0.00000E+00        -0.59058E+08
 
   -0.58774E+08         0.12877E+07         0.00000E+00
    0.12877E+07        -0.48626E+08         0.00000E+00
    0.00000E+00         0.00000E+00        -0.59057E+08
 
   -0.58800E+08         0.13960E+07         0.00000E+00
    0.13960E+07        -0.48567E+08         0.00000E+00
    0.00000E+00         0.00000E+00        -0.59056E+08
 
   -0.58825E+08         0.15087E+07         0.00000E+00
    0.15087E+07        -0.48510E+08         0.00000E+00
    0.00000E+00         0.00000E+00        -0.59055E+08
 
   -0.58849E+08         0.16257E+07         0.00000E+00
    0.16257E+07        -0.48453E+08         0.00000E+00
    0.00000E+00         0.00000E+00        -0.59053E+08
 
   -0.58871E+08         0.17469E+07         0.00000E+00
    0.17469E+07        -0.48399E+08         0.00000E+00
    0.00000E+00         0.00000E+00        -0.59052E+08
 
   -0.58892E+08         0.18719E+07         0.00000E+00
    0.18719E+07        -0.48346E+08         0.00000E+00
    0.00000E+00         0.00000E+00        -0.59051E+08
 
   -0.58911E+08         0.20007E+07         0.00000E+00
    0.20007E+07        -0.48295E+08         0.00000E+00
    0.00000E+00         0.00000E+00        -0.59049E+08
 
   -0.58928E+08         0.21331E+07         0.00000E+00
    0.21331E+07        -0.48245E+08         0.00000E+00
    0.00000E+00         0.00000E+00        -0.59048E+08
 
   -0.58942E+08         0.22688E+07         0.00000E+00
    0.22688E+07        -0.48199E+08         0.00000E+00
    0.00000E+00         0.00000E+00        -0.59047E+08
 
   -0.58954E+08         0.24076E+07         0.00000E+00
    0.24076E+07        -0.48155E+08         0.00000E+00
    0.00000E+00         0.00000E+00        -0.59045E+08
 
   -0.58963E+08         0.25493E+07         0.00000E+00
    0.25493E+07        -0.48113E+08         0.00000E+00
    0.00000E+00         0.00000E+00        -0.59044E+08
 
   -0.58970E+08         0.26930E+07         0.00000E+00
    0.26930E+07        -0.48076E+08         0.00000E+00
    0.00000E+00         0.00000E+00        -0.59043E+08
 
   -0.58975E+08         0.28373E+07         0.00000E+00
    0.28373E+07        -0.48043E+08         0.00000E+00
    0.00000E+00         0.00000E+00        -0.59042E+08
 
   -0.58979E+08         0.29829E+07         0.00000E+00
    0.29829E+07        -0.48009E+08         0.00000E+00
    0.00000E+00         0.00000E+00        -0.59041E+08
 
   -0.58985E+08         0.31287E+07         0.00000E+00
    0.31287E+07        -0.47981E+08         0.00000E+00
    0.00000E+00         0.00000E+00        -0.59040E+08
 
   -0.58991E+08         0.32778E+07         0.00000E+00
    0.32778E+07        -0.47953E+08         0.00000E+00
    0.00000E+00         0.00000E+00        -0.59039E+08
 
   -0.58998E+08         0.34305E+07         0.00000E+00
    0.34305E+07        -0.47932E+08         0.00000E+00
    0.00000E+00         0.00000E+00        -0.59039E+08
 
   -0.59006E+08         0.35790E+07         0.00000E+00
    0.35790E+07        -0.47935E+08         0.00000E+00
    0.00000E+00         0.00000E+00        -0.59038E+08
 
   -0.59025E+08         0.37164E+07         0.00000E+00
    0.37164E+07        -0.47952E+08         0.00000E+00
    0.00000E+00         0.00000E+00        -0.59038E+08
 
   -0.59734E+08         0.99644E+04         0.00000E+00
    0.99644E+04        -0.49999E+08         0.00000E+00
    0.00000E+00         0.00000E+00        -0.58317E+08
 
   -0.59583E+08         0.29014E+05         0.00000E+00
    0.29014E+05        -0.49995E+08         0.00000E+00
    0.00000E+00         0.00000E+00        -0.58317E+08
 
   -0.59443E+08         0.48170E+05         0.00000E+00
    0.48170E+05        -0.49987E+08         0.00000E+00
    0.00000E+00         0.00000E+00        -0.58317E+08
 
   -0.59313E+08         0.67685E+05         0.00000E+00
    0.67685E+05        -0.49975E+08         0.00000E+00
    0.00000E+00         0.00000E+00        -0.58317E+08
 
   -0.59192E+08         0.87822E+05         0.00000E+00
    0.87822E+05        -0.49961E+08         0.00000E+00
    0.00000E+00         0.00000E+00        -0.58317E+08
 
   -0.59080E+08         0.10883E+06         0.00000E+00
    0.10883E+06        -0.49943E+08         0.00000E+00
    0.00000E+00         0.00000E+00        -0.58318E+08
 
   -0.58977E+08         0.13095E+06         0.00000E+00
    0.13095E+06        -0.49921E+08         0.00000E+00
    0.00000E+00         0.00000E+00        -0.58318E+08
 
   -0.58882E+08         0.15440E+06         0.00000E+00
    0.15440E+06        -0.49897E+08         0.00000E+00
    0.00000E+00         0.00000E+00        -0.58318E+08
 
   -0.58796E+08         0.17940E+06         0.00000E+00
    0.17940E+06        -0.49871E+08         0.00000E+00
    0.00000E+00         0.00000E+00        -0.58318E+08
 
   -0.58717E+08         0.20617E+06         0.00000E+00
    0.20617E+06        -0.49841E+08         0.00000E+00
    0.00000E+00         0.00000E+00        -0.58318E+08
 
   -0.58645E+08         0.23490E+06         0.00000E+00
    0.23490E+06        -0.49809E+08         0.00000E+00
    0.00000E+00         0.00000E+00        -0.58318E+08
 
   -0.58581E+08         0.26579E+06         0.00000E+00
    0.26579E+06        -0.49775E+08         0.00000E+00
    0.00000E+00         0.00000E+00        -0.58318E+08
 
   -0.58523E+08         0.29903E+06         0.00000E+00
    0.29903E+06        -0.49739E+08         0.00000E+00
    0.00000E+00         0.00000E+00        -0.58318E+08
 
   -0.58472E+08         0.33480E+06         0.00000E+00
    0.33480E+06        -0.49700E+08         0.00000E+00
    0.00000E+00         0.00000E+00        -0.58318E+08
 
   -0.58427E+08         0.37326E+06         0.00000E+00
    0.37326E+06        -0.49660E+08         0.00000E+00
    0.00000E+00         0.00000E+00        -0.58318E+08
 
   -0.58388E+08         0.41458E+06         0.00000E+00
    0.41458E+06        -0.49618E+08         0.00000E+00
    0.00000E+00         0.00000E+00        -0.58318E+08
 
   -0.58354E+08         0.45891E+06         0.00000E+00
    0.45891E+06        -0.49575E+08         0.00000E+00
    0.00000E+00         0.00000E+00        -0.58318E+08
 
   -0.58325E+08         0.50638E+06         0.00000E+00
    0.50638E+06        -0.49530E+08         0.00000E+00
    0.00000E+00         0.00000E+00        -0.58318E+08
 
   -0.58300E+08         0.55712E+06         0.00000E+00
    0.55712E+06        -0.49484E+08         0.00000E+00
    0.00000E+00         0.00000E+00        -0.58317E+08
 
   -0.58281E+08         0.61125E+06         0.00000E+00
    0.61125E+06        -0.49436E+08         0.00000E+00
    0.00000E+00         0.00000E+00        -0.58317E+08
 
   -0.58265E+08         0.66887E+06         0.00000E+00
    0.66887E+06        -0.49388E+08         0.00000E+00
    0.00000E+00         0.00000E+00        -0.58317E+08
 
   -0.58253E+08         0.73006E+06         0.00000E+00
    0.73006E+06        -0.49340E+08         0.00000E+00
    0.00000E+00         0.00000E+00        -0.58316E+08
 
   -0.58244E+08         0.79490E+06         0.00000E+00
    0.79490E+06        -0.49290E+08         0.00000E+00
    0.00000E+00         0.00000E+00        -0.58316E+08
 
   -0.58238E+08         0.86344E+06         0.00000E+00
    0.86344E+06        -0.49241E+08         0.00000E+00
    0.00000E+00         0.00000E+00        -0.58316E+08
 
   -0.58235E+08         0.93574E+06         0.00000E+00
    0.93574E+06        -0.49191E+08         0.00000E+00
    0.00000E+00         0.00000E+00        -0.58315E+08
 
   -0.58234E+08         0.10118E+07         0.00000E+00
    0.10118E+07        -0.49141E+08         0.00000E+00
    0.00000E+00         0.00000E+00        -0.58315E+08
 
   -0.58235E+08         0.10917E+07         0.00000E+00
    0.10917E+07        -0.49092E+08         0.00000E+00
    0.00000E+00         0.00000E+00        -0.58314E+08
 
   -0.58238E+08         0.11754E+07         0.00000E+00
    0.11754E+07        -0.49043E+08         0.00000E+00
    0.00000E+00         0.00000E+00        -0.58313E+08
 
   -0.58242E+08         0.12628E+07         0.00000E+00
    0.12628E+07        -0.48994E+08         0.00000E+00
    0.00000E+00         0.00000E+00        -0.58313E+08
 
   -0.58247E+08         0.13540E+07         0.00000E+00
    0.13540E+07        -0.48946E+08         0.00000E+00
    0.00000E+00         0.00000E+00        -0.58312E+08
 
   -0.58253E+08         0.14488E+07         0.00000E+00
    0.14488E+07        -0.48899E+08         0.00000E+00
    0.00000E+00         0.00000E+00        -0.58311E+08
 
   -0.58259E+08         0.15473E+07         0.00000E+00
    0.15473E+07        -0.48854E+08         0.00000E+00
    0.00000E+00         0.00000E+00        -0.58310E+08
 
   -0.58265E+08         0.16493E+07         0.00000E+00
    0.16493E+07        -0.48809E+08         0.00000E+00
    0.00000E+00         0.00000E+00        -0.58309E+08
 
   -0.58271E+08         0.17546E+07         0.00000E+00
    0.17546E+07        -0.48766E+08         0.00000E+00
    0.00000E+00         0.00000E+00        -0.58309E+08
 
   -0.58276E+08         0.18633E+07         0.00000E+00
    0.18633E+07        -0.48725E+08         0.00000E+00
    0.00000E+00         0.00000E+00        -0.58308E+08
 
   -0.58281E+08         0.19750E+07         0.00000E+00
    0.19750E+07        -0.48686E+08         0.00000E+00
    0.00000E+00         0.00000E+00        -0.58307E+08
 
   -0.58286E+08         0.20897E+07         0.00000E+00
    0.20897E+07        -0.48649E+08         0.00000E+00
    0.00000E+00         0.00000E+00        -0.58306E+08
 
   -0.58289E+08         0.22072E+07         0.00000E+00
    0.22072E+07        -0.48614E+08         0.00000E+00
    0.00000E+00         0.00000E+00        -0.58305E+08
 
   -0.58291E+08         0.23271E+07         0.00000E+00
    0.23271E+07        -0.48582E+08         0.00000E+00
    0.00000E+00         0.00000E+00        -0.58304E+08
 
   -0.58292E+08         0.24494E+07         0.00000E+00
    0.24494E+07        -0.48552E+08         0.00000E+00
    0.00000E+00         0.00000E+00        -0.58303E+08
 
   -0.58293E+08         0.25736E+07         0.00000E+00
    0.25736E+07        -0.48525E+08         0.00000E+00
    0.00000E+00         0.00000E+00        -0.58303E+08
 
   -0.58292E+08         0.26995E+07         0.00000E+00
    0.26995E+07        -0.48501E+08         0.00000E+00
    0.00000E+00         0.00000E+00        -0.58302E+08
 
   -0.58291E+08         0.28269E+07         0.00000E+00
    0.28269E+07        -0.48479E+08         0.00000E+00
    0.00000E+00         0.00000E+00        -0.58301E+08
 
   -0.58290E+08         0.29558E+07         0.00000E+00
    0.29558E+07        -0.48460E+08         0.00000E+00
    0.00000E+00         0.00000E+00        -0.58301E+08
 
   -0.58288E+08         0.30857E+07         0.00000E+00
    0.30857E+07        -0.48445E+08         0.00000E+00
    0.00000E+00         0.00000E+00        -0.58300E+08
 
   -0.58287E+08         0.32169E+07         0.00000E+00
    0.32169E+07        -0.48432E+08         0.00000E+00
    0.00000E+00         0.00000E+00        -0.58300E+08
 
   -0.58287E+08         0.33485E+07         0.00000E+00
    0.33485E+07        -0.48423E+08         0.00000E+00
    0.00000E+00         0.00000E+00        -0.58300E+08
 
   -0.58289E+08         0.34803E+07         0.00000E+00
    0.34803E+07        -0.48415E+08         0.00000E+00
    0.00000E+00         0.00000E+00        -0.58299E+08
 
   -0.58293E+08         0.36151E+07         0.00000E+00
    0.36151E+07        -0.48405E+08         0.00000E+00
    0.00000E+00         0.00000E+00        -0.58299E+08
 
   -0.58298E+08         0.37571E+07         0.00000E+00
    0.37571E+07        -0.48392E+08         0.00000E+00
    0.00000E+00         0.00000E+00        -0.58299E+08
 
   -0.59591E+08         0.20001E+05         0.00000E+00
    0.20001E+05        -0.49999E+08         0.00000E+00
    0.00000E+00         0.00000E+00        -0.57642E+08
 
   -0.59444E+08         0.56699E+05         0.00000E+00
    0.56699E+05        -0.49996E+08         0.00000E+00
    0.00000E+00         0.00000E+00        -0.57642E+08
 
   -0.59304E+08         0.92644E+05         0.00000E+00
    0.92644E+05        -0.49989E+08         0.00000E+00
    0.00000E+00         0.00000E+00        -0.57642E+08
 
   -0.59174E+08         0.12815E+06         0.00000E+00
    0.12815E+06        -0.49980E+08         0.00000E+00
    0.00000E+00         0.00000E+00        -0.57642E+08
 
   -0.59051E+08         0.16349E+06         0.00000E+00
    0.16349E+06        -0.49967E+08         0.00000E+00
    0.00000E+00         0.00000E+00        -0.57642E+08
 
   -0.58936E+08         0.19895E+06         0.00000E+00
    0.19895E+06        -0.49952E+08         0.00000E+00
    0.00000E+00         0.00000E+00        -0.57642E+08
 
   -0.58829E+08         0.23478E+06         0.00000E+00
    0.23478E+06        -0.49935E+08         0.00000E+00
    0.00000E+00         0.00000E+00        -0.57642E+08
 
   -0.58729E+08         0.27121E+06         0.00000E+00
    0.27121E+06        -0.49914E+08         0.00000E+00
    0.00000E+00         0.00000E+00        -0.57642E+08
 
   -0.58636E+08         0.30848E+06         0.00000E+00
    0.30848E+06        -0.49892E+08         0.00000E+00
    0.00000E+00         0.00000E+00        -0.57642E+08
 
   -0.58549E+08         0.34679E+06         0.00000E+00
    0.34679E+06        -0.49868E+08         0.00000E+00
    0.00000E+00         0.00000E+00        -0.57642E+08
 
   -0.58469E+08         0.38635E+06         0.00000E+00
    0.38635E+06        -0.49841E+08         0.00000E+00
    0.00000E+00         0.00000E+00        -0.57641E+08
 
   -0.58396E+08         0.42735E+06         0.00000E+00
    0.42735E+06        -0.49813E+08         0.00000E+00
    0.00000E+00         0.00000E+00        -0.57641E+08
 
   -0.58328E+08         0.46996E+06         0.00000E+00
    0.46996E+06        -0.49783E+08         0.00000E+00
    0.00000E+00         0.00000E+00        -0.57641E+08
 
   -0.58265E+08         0.51437E+06         0.00000E+00
    0.51437E+06        -0.49751E+08         0.00000E+00
    0.00000E+00         0.00000E+00        -0.57641E+08
 
   -0.58208E+08         0.56072E+06         0.00000E+00
    0.56072E+06        -0.49718E+08         0.00000E+00
    0.00000E+00         0.00000E+00        -0.57640E+08
 
   -0.58156E+08         0.60916E+06         0.00000E+00
    0.60916E+06        -0.49683E+08         0.00000E+00
    0.00000E+00         0.00000E+00        -0.57640E+08
 
   -0.58109E+08         0.65983E+06         0.00000E+00
    0.65983E+06        -0.49648E+08         0.00000E+00
    0.00000E+00         0.00000E+00        -0.57639E+08
 
   -0.58066E+08         0.71285E+06         0.00000E+00
    0.71285E+06        -0.49611E+08         0.00000E+00
    0.00000E+00         0.00000E+00        -0.57639E+08
 
   -0.58027E+08         0.76834E+06         0.00000E+00
    0.76834E+06        -0.49574E+08         0.00000E+00
    0.00000E+00         0.00000E+00        -0.57638E+08
 
   -0.57992E+08         0.82639E+06         0.00000E+00
    0.82639E+06        -0.49536E+08         0.00000E+00
    0.00000E+00         0.00000E+00        -0.57638E+08
 
   -0.57961E+08         0.88710E+06         0.00000E+00
    0.88710E+06        -0.49497E+08         0.00000E+00
    0.00000E+00         0.00000E+00        -0.57637E+08
 
   -0.57933E+08         0.95054E+06         0.00000E+00
    0.95054E+06        -0.49458E+08         0.00000E+00
    0.00000E+00         0.00000E+00        -0.57637E+08
 
   -0.57908E+08         0.10168E+07         0.00000E+00
    0.10168E+07        -0.49418E+08         0.00000E+00
    0.00000E+00         0.00000E+00        -0.57636E+08
 
   -0.57886E+08         0.10859E+07         0.00000E+00
    0.10859E+07        -0.49379E+08         0.00000E+00
    0.00000E+00         0.00000E+00        -0.57635E+08
 
   -0.57866E+08         0.11578E+07         0.00000E+00
    0.11578E+07        -0.49340E+08         0.00000E+00
    0.00000E+00         0.00000E+00        -0.57635E+08
 
   -0.57848E+08         0.12327E+07         0.00000E+00
    0.12327E+07        -0.49301E+08         0.00000E+00
    0.00000E+00         0.00000E+00        -0.57634E+08
 
   -0.57833E+08         0.13105E+07         0.00000E+00
    0.13105E+07        -0.49262E+08         0.00000E+00
    0.00000E+00         0.00000E+00        -0.57633E+08
 
   -0.57819E+08         0.13912E+07         0.00000E+00
    0.13912E+07        -0.49224E+08         0.00000E+00
    0.00000E+00         0.00000E+00        -0.57633E+08
 
   -0.57807E+08         0.14748E+07         0.00000E+00
    0.14748E+07        -0.49187E+08         0.00000E+00
    0.00000E+00         0.00000E+00        -0.57632E+08
 
   -0.57795E+08         0.15612E+07         0.00000E+00
    0.15612E+07        -0.49150E+08         0.00000E+00
    0.00000E+00         0.00000E+00        -0.57631E+08
 
   -0.57785E+08         0.16504E+07         0.00000E+00
    0.16504E+07        -0.49115E+08         0.00000E+00
    0.00000E+00         0.00000E+00        -0.57630E+08
 
   -0.57775E+08         0.17424E+07         0.00000E+00
    0.17424E+07        -0.49081E+08         0.00000E+00
    0.00000E+00         0.00000E+00        -0.57630E+08
 
   -0.57766E+08         0.18371E+07         0.00000E+00
    0.18371E+07        -0.49048E+08         0.00000E+00
    0.00000E+00         0.00000E+00        -0.57629E+08
 
   -0.57758E+08         0.19343E+07         0.00000E+00
    0.19343E+07        -0.49017E+08         0.00000E+00
    0.00000E+00         0.00000E+00        -0.57628E+08
 
   -0.57749E+08         0.20340E+07         0.00000E+00
    0.20340E+07        -0.48988E+08         0.00000E+00
    0.00000E+00         0.00000E+00        -0.57627E+08
 
   -0.57741E+08         0.21361E+07         0.00000E+00
    0.21361E+07        -0.48960E+08         0.00000E+00
    0.00000E+00         0.00000E+00        -0.57627E+08
 
   -0.57733E+08         0.22404E+07         0.00000E+00
    0.22404E+07        -0.48934E+08         0.00000E+00
    0.00000E+00         0.00000E+00        -0.57626E+08
 
   -0.57724E+08         0.23468E+07         0.00000E+00
    0.23468E+07        -0.48910E+08         0.00000E+00
    0.00000E+00         0.00000E+00        -0.57625E+08
 
   -0.57716E+08         0.24552E+07         0.00000E+00
    0.24552E+07        -0.48888E+08         0.00000E+00
    0.00000E+00         0.00000E+00        -0.57625E+08
 
   -0.57707E+08         0.25655E+07         0.00000E+00
    0.25655E+07        -0.48868E+08         0.00000E+00
    0.00000E+00         0.00000E+00        -0.57624E+08
 
   -0.57698E+08         0.26775E+07         0.00000E+00
    0.26775E+07        -0.48850E+08         0.00000E+00
    0.00000E+00         0.00000E+00        -0.57624E+08
 
   -0.57690E+08         0.27912E+07         0.00000E+00
    0.27912E+07        -0.48835E+08         0.00000E+00
    0.00000E+00         0.00000E+00        -0.57623E+08
 
   -0.57681E+08         0.29064E+07         0.00000E+00
    0.29064E+07        -0.48822E+08         0.00000E+00
    0.00000E+00         0.00000E+00        -0.57623E+08
 
   -0.57672E+08         0.30232E+07         0.00000E+00
    0.30232E+07        -0.48810E+08         0.00000E+00
    0.00000E+00         0.00000E+00        -0.57623E+08
 
   -0.57664E+08         0.31415E+07         0.00000E+00
    0.31415E+07        -0.48801E+08         0.00000E+00
    0.00000E+00         0.00000E+00        -0.57622E+08
 
   -0.57656E+08         0.32615E+07         0.00000E+00
    0.32615E+07        -0.48794E+08         0.00000E+00
    0.00000E+00         0.00000E+00        -0.57622E+08
 
   -0.57648E+08         0.33833E+07         0.00000E+00
    0.33833E+07        -0.48788E+08         0.00000E+00
    0.00000E+00         0.00000E+00        -0.57622E+08
 
   -0.57641E+08         0.35073E+07         0.00000E+00
    0.35073E+07        -0.48785E+08         0.00000E+00
    0.00000E+00         0.00000E+00        -0.57622E+08
 
   -0.57633E+08         0.36332E+07         0.00000E+00
    0.36332E+07        -0.48784E+08         0.00000E+00
    0.00000E+00         0.00000E+00        -0.57622E+08
 
   -0.57625E+08         0.37596E+07         0.00000E+00
    0.37596E+07        -0.48787E+08         0.00000E+00
    0.00000E+00         0.00000E+00        -0.57622E+08
 
   -0.59367E+08         0.27984E+05         0.00000E+00
    0.27984E+05        -0.49999E+08         0.00000E+00
    0.00000E+00         0.00000E+00        -0.57029E+08
 
   -0.59226E+08         0.78987E+05         0.00000E+00
    0.78987E+05        -0.49997E+08         0.00000E+00
    0.00000E+00         0.00000E+00        -0.57029E+08
 
   -0.59091E+08         0.12863E+06         0.00000E+00
    0.12863E+06        -0.49991E+08         0.00000E+00
    0.00000E+00         0.00000E+00        -0.57029E+08
 
   -0.58963E+08         0.17721E+06         0.00000E+00
    0.17721E+06        -0.49984E+08         0.00000E+00
    0.00000E+00         0.00000E+00        -0.57029E+08
 
   -0.58842E+08         0.22501E+06         0.00000E+00
    0.22501E+06        -0.49974E+08         0.00000E+00
    0.00000E+00         0.00000E+00        -0.57029E+08
 
   -0.58728E+08         0.27231E+06         0.00000E+00
    0.27231E+06        -0.49962E+08         0.00000E+00
    0.00000E+00         0.00000E+00        -0.57028E+08
 
   -0.58620E+08         0.31934E+06         0.00000E+00
    0.31934E+06        -0.49948E+08         0.00000E+00
    0.00000E+00         0.00000E+00        -0.57028E+08
 
   -0.58518E+08         0.36636E+06         0.00000E+00
    0.36636E+06        -0.49932E+08         0.00000E+00
    0.00000E+00         0.00000E+00        -0.57028E+08
 
   -0.58422E+08         0.41357E+06         0.00000E+00
    0.41357E+06        -0.49915E+08         0.00000E+00
    0.00000E+00         0.00000E+00        -0.57027E+08
 
   -0.58331E+08         0.46120E+06         0.00000E+00
    0.46120E+06        -0.49895E+08         0.00000E+00
    0.00000E+00         0.00000E+00        -0.57027E+08
 
   -0.58246E+08         0.50943E+06         0.00000E+00
    0.50943E+06        -0.49874E+08         0.00000E+00
    0.00000E+00         0.00000E+00        -0.57026E+08
 
   -0.58167E+08         0.55844E+06         0.00000E+00
    0.55844E+06        -0.49852E+08         0.00000E+00
    0.00000E+00         0.00000E+00        -0.57026E+08
 
   -0.58092E+08         0.60842E+06         0.00000E+00
    0.60842E+06        -0.49828E+08         0.00000E+00
    0.00000E+00         0.00000E+00        -0.57025E+08
 
   -0.58022E+08         0.65951E+06         0.00000E+00
    0.65951E+06        -0.49803E+08         0.00000E+00
    0.00000E+00         0.00000E+00        -0.57024E+08
 
   -0.57956E+08         0.71188E+06         0.00000E+00
    0.71188E+06        -0.49776E+08         0.00000E+00
    0.00000E+00         0.00000E+00        -0.57024E+08
 
   -0.57895E+08         0.76564E+06         0.00000E+00
    0.76564E+06        -0.49749E+08         0.00000E+00
    0.00000E+00         0.00000E+00        -0.57023E+08
 
   -0.57838E+08         0.82094E+06         0.00000E+00
    0.82094E+06        -0.49721E+08         0.00000E+00
    0.00000E+00         0.00000E+00        -0.57022E+08
 
   -0.57785E+08         0.87789E+06         0.00000E+00
    0.87789E+06        -0.49693E+08         0.00000E+00
    0.00000E+00         0.00000E+00        -0.57022E+08
 
   -0.57736E+08         0.93658E+06         0.00000E+00
    0.93658E+06        -0.49663E+08         0.00000E+00
    0.00000E+00         0.00000E+00        -0.57021E+08
 
   -0.57690E+08         0.99712E+06         0.00000E+00
    0.99712E+06        -0.49633E+08         0.00000E+00
    0.00000E+00         0.00000E+00        -0.57020E+08
 
   -0.57647E+08         0.10596E+07         0.00000E+00
    0.10596E+07        -0.49603E+08         0.00000E+00
    0.00000E+00         0.00000E+00        -0.57019E+08
 
   -0.57607E+08         0.11240E+07         0.00000E+00
    0.11240E+07        -0.49573E+08         0.00000E+00
    0.00000E+00         0.00000E+00        -0.57018E+08
 
   -0.57570E+08         0.11906E+07         0.00000E+00
    0.11906E+07        -0.49543E+08         0.00000E+00
    0.00000E+00         0.00000E+00        -0.57017E+08
 
   -0.57535E+08         0.12592E+07         0.00000E+00
    0.12592E+07        -0.49512E+08         0.00000E+00
    0.00000E+00         0.00000E+00        -0.57017E+08
 
   -0.57503E+08         0.13299E+07         0.00000E+00
    0.13299E+07        -0.49482E+08         0.00000E+00
    0.00000E+00         0.00000E+00        -0.57016E+08
 
   -0.57473E+08         0.14028E+07         0.00000E+00
    0.14028E+07        -0.49453E+08         0.00000E+00
    0.00000E+00         0.00000E+00        -0.57015E+08
 
   -0.57444E+08         0.14779E+07         0.00000E+00
    0.14779E+07        -0.49424E+08         0.00000E+00
    0.00000E+00         0.00000E+00        -0.57014E+08
 
   -0.57418E+08         0.15552E+07         0.00000E+00
    0.15552E+07        -0.49395E+08         0.00000E+00
    0.00000E+00         0.00000E+00        -0.57013E+08
 
   -0.57393E+08         0.16346E+07         0.00000E+00
    0.16346E+07        -0.49367E+08         0.00000E+00
    0.00000E+00         0.00000E+00        -0.57012E+08
 
   -0.57369E+08         0.17162E+07         0.00000E+00
    0.17162E+07        -0.49340E+08         0.00000E+00
    0.00000E+00         0.00000E+00        -0.57011E+08
 
   -0.57347E+08         0.18000E+07         0.00000E+00
    0.18000E+07        -0.49314E+08         0.00000E+00
    0.00000E+00         0.00000E+00        -0.57011E+08
 
   -0.57325E+08         0.18858E+07         0.00000E+00
    0.18858E+07        -0.49290E+08         0.00000E+00
    0.00000E+00         0.00000E+00        -0.57010E+08
 
   -0.57305E+08         0.19737E+07         0.00000E+00
    0.19737E+07        -0.49266E+08         0.00000E+00
    0.00000E+00         0.00000E+00        -0.57009E+08
 
   -0.57285E+08         0.20635E+07         0.00000E+00
    0.20635E+07        -0.49244E+08         0.00000E+00
    0.00000E+00         0.00000E+00        -0.57008E+08
 
   -0.57266E+08         0.21553E+07         0.00000E+00
    0.21553E+07        -0.49223E+08         0.00000E+00
    0.00000E+00         0.00000E+00        -0.57008E+08
 
   -0.57247E+08         0.22490E+07         0.00000E+00
    0.22490E+07        -0.49203E+08         0.00000E+00
    0.00000E+00         0.00000E+00        -0.57007E+08
 
   -0.57229E+08         0.23446E+07         0.00000E+00
    0.23446E+07        -0.49185E+08         0.00000E+00
    0.00000E+00         0.00000E+00        -0.57006E+08
 
   -0.57211E+08         0.24419E+07         0.00000E+00
    0.24419E+07        -0.49169E+08         0.00000E+00
    0.00000E+00         0.00000E+00        -0.57006E+08
 
   -0.57193E+08         0.25409E+07         0.00000E+00
    0.25409E+07        -0.49155E+08         0.00000E+00
    0.00000E+00         0.00000E+00        -0.57005E+08
 
   -0.57176E+08         0.26415E+07         0.00000E+00
    0.26415E+07        -0.49142E+08         0.00000E+00
    0.00000E+00         0.00000E+00        -0.57005E+08
 
   -0.57159E+08         0.27438E+07         0.00000E+00
    0.27438E+07        -0.49131E+08         0.00000E+00
    0.00000E+00         0.00000E+00        -0.57004E+08
 
   -0.57142E+08         0.28477E+07         0.00000E+00
    0.28477E+07        -0.49122E+08         0.00000E+00
    0.00000E+00         0.00000E+00        -0.57004E+08
 
   -0.57125E+08         0.29531E+07         0.00000E+00
    0.29531E+07        -0.49114E+08         0.00000E+00
    0.00000E+00         0.00000E+00        -0.57004E+08
 
   -0.57109E+08         0.30602E+07         0.00000E+00
    0.30602E+07        -0.49109E+08         0.00000E+00
    0.00000E+00         0.00000E+00        -0.57003E+08
 
   -0.57093E+08         0.31687E+07         0.00000E+00
    0.31687E+07        -0.49105E+08         0.00000E+00
    0.00000E+00         0.00000E+00        -0.57003E+08
 
   -0.57076E+08         0.32789E+07         0.00000E+00
    0.32789E+07        -0.49103E+08         0.00000E+00
    0.00000E+00         0.00000E+00        -0.57003E+08
 
   -0.57060E+08         0.33906E+07         0.00000E+00
    0.33906E+07        -0.49103E+08         0.00000E+00
    0.00000E+00         0.00000E+00        -0.57003E+08
 
   -0.57044E+08         0.35038E+07         0.00000E+00
    0.35038E+07        -0.49105E+08         0.00000E+00
    0.00000E+00         0.00000E+00        -0.57003E+08
 
   -0.57027E+08         0.36185E+07         0.00000E+00
    0.36185E+07        -0.49109E+08         0.00000E+00
    0.00000E+00         0.00000E+00        -0.57003E+08
 
   -0.57011E+08         0.37353E+07         0.00000E+00
    0.37353E+07        -0.49115E+08         0.00000E+00
    0.00000E+00         0.00000E+00        -0.57003E+08
 
   -0.59079E+08         0.33958E+05         0.00000E+00
    0.33958E+05        -0.49999E+08         0.00000E+00
    0.00000E+00         0.00000E+00        -0.56472E+08
 
   -0.58946E+08         0.95947E+05         0.00000E+00
    0.95947E+05        -0.49997E+08         0.00000E+00
    0.00000E+00         0.00000E+00        -0.56472E+08
 
   -0.58818E+08         0.15618E+06         0.00000E+00
    0.15618E+06        -0.49994E+08         0.00000E+00
    0.00000E+00         0.00000E+00        -0.56471E+08
 
   -0.58696E+08         0.21494E+06         0.00000E+00
    0.21494E+06        -0.49988E+08         0.00000E+00
    0.00000E+00         0.00000E+00        -0.56471E+08
 
   -0.58580E+08         0.27247E+06         0.00000E+00
    0.27247E+06        -0.49981E+08         0.00000E+00
    0.00000E+00         0.00000E+00        -0.56471E+08
 
   -0.58469E+08         0.32904E+06         0.00000E+00
    0.32904E+06        -0.49972E+08         0.00000E+00
    0.00000E+00         0.00000E+00        -0.56470E+08
 
   -0.58363E+08         0.38487E+06         0.00000E+00
    0.38487E+06        -0.49961E+08         0.00000E+00
    0.00000E+00         0.00000E+00        -0.56470E+08
 
   -0.58261E+08         0.44019E+06         0.00000E+00
    0.44019E+06        -0.49949E+08         0.00000E+00
    0.00000E+00         0.00000E+00        -0.56469E+08
 
   -0.58165E+08         0.49519E+06         0.00000E+00
    0.49519E+06        -0.49936E+08         0.00000E+00
    0.00000E+00         0.00000E+00        -0.56468E+08
 
   -0.58073E+08         0.55009E+06         0.00000E+00
    0.55009E+06        -0.49921E+08         0.00000E+00
    0.00000E+00         0.00000E+00        -0.56468E+08
 
   -0.57986E+08         0.60505E+06         0.00000E+00
    0.60505E+06        -0.49905E+08         0.00000E+00
    0.00000E+00         0.00000E+00        -0.56467E+08
 
   -0.57904E+08         0.66026E+06         0.00000E+00
    0.66026E+06        -0.49888E+08         0.00000E+00
    0.00000E+00         0.00000E+00        -0.56466E+08
 
   -0.57825E+08         0.71587E+06         0.00000E+00
    0.71587E+06        -0.49870E+08         0.00000E+00
    0.00000E+00         0.00000E+00        -0.56465E+08
 
   -0.57751E+08         0.77204E+06         0.00000E+00
    0.77204E+06        -0.49851E+08         0.00000E+00
    0.00000E+00         0.00000E+00        -0.56464E+08
 
   -0.57680E+08         0.82889E+06         0.00000E+00
    0.82889E+06        -0.49831E+08         0.00000E+00
    0.00000E+00         0.00000E+00        -0.56463E+08
 
   -0.57613E+08         0.88657E+06         0.00000E+00
    0.88657E+06        -0.49811E+08         0.00000E+00
    0.00000E+00         0.00000E+00        -0.56462E+08
 
   -0.57550E+08         0.94518E+06         0.00000E+00
    0.94518E+06        -0.49789E+08         0.00000E+00
    0.00000E+00         0.00000E+00        -0.56461E+08
 
   -0.57490E+08         0.10048E+07         0.00000E+00
    0.10048E+07        -0.49768E+08         0.00000E+00
    0.00000E+00         0.00000E+00        -0.56460E+08
 
   -0.57433E+08         0.10657E+07         0.00000E+00
    0.10657E+07        -0.49746E+08         0.00000E+00
    0.00000E+00         0.00000E+00        -0.56459E+08
 
   -0.57379E+08         0.11277E+07         0.00000E+00
    0.11277E+07        -0.49723E+08         0.00000E+00
    0.00000E+00         0.00000E+00        -0.56458E+08
 
   -0.57328E+08         0.11910E+07         0.00000E+00
    0.11910E+07        -0.49701E+08         0.00000E+00
    0.00000E+00         0.00000E+00        -0.56457E+08
 
   -0.57279E+08         0.12558E+07         0.00000E+00
    0.12558E+07        -0.49678E+08         0.00000E+00
    0.00000E+00         0.00000E+00        -0.56456E+08
 
   -0.57233E+08         0.13220E+07         0.00000E+00
    0.13220E+07        -0.49656E+08         0.00000E+00
    0.00000E+00         0.00000E+00        -0.56455E+08
 
   -0.57190E+08         0.13896E+07         0.00000E+00
    0.13896E+07        -0.49633E+08         0.00000E+00
    0.00000E+00         0.00000E+00        -0.56454E+08
 
   -0.57148E+08         0.14588E+07         0.00000E+00
    0.14588E+07        -0.49611E+08         0.00000E+00
    0.00000E+00         0.00000E+00        -0.56453E+08
 
   -0.57109E+08         0.15296E+07         0.00000E+00
    0.15296E+07        -0.49590E+08         0.00000E+00
    0.00000E+00         0.00000E+00        -0.56452E+08
 
   -0.57071E+08         0.16020E+07         0.00000E+00
    0.16020E+07        -0.49568E+08         0.00000E+00
    0.00000E+00         0.00000E+00        -0.56451E+08
 
   -0.57035E+08         0.16759E+07         0.00000E+00
    0.16759E+07        -0.49548E+08         0.00000E+00
    0.00000E+00         0.00000E+00        -0.56450E+08
 
   -0.57001E+08         0.17515E+07         0.00000E+00
    0.17515E+07        -0.49528E+08         0.00000E+00
    0.00000E+00         0.00000E+00        -0.56449E+08
 
   -0.56968E+08         0.18287E+07         0.00000E+00
    0.18287E+07        -0.49509E+08         0.00000E+00
    0.00000E+00         0.00000E+00        -0.56448E+08
 
   -0.56936E+08         0.19075E+07         0.00000E+00
    0.19075E+07        -0.49490E+08         0.00000E+00
    0.00000E+00         0.00000E+00        -0.56447E+08
 
   -0.56905E+08         0.19879E+07         0.00000E+00
    0.19879E+07        -0.49473E+08         0.00000E+00
    0.00000E+00         0.00000E+00        -0.56446E+08
 
   -0.56876E+08         0.20700E+07         0.00000E+00
    0.20700E+07        -0.49457E+08         0.00000E+00
    0.00000E+00         0.00000E+00        -0.56445E+08
 
   -0.56847E+08         0.21535E+07         0.00000E+00
    0.21535E+07        -0.49442E+08         0.00000E+00
    0.00000E+00         0.00000E+00        -0.56444E+08
 
   -0.56819E+08         0.22387E+07         0.00000E+00
    0.22387E+07        -0.49428E+08         0.00000E+00
    0.00000E+00         0.00000E+00        -0.56443E+08
 
   -0.56792E+08         0.23253E+07         0.00000E+00
    0.23253E+07        -0.49415E+08         0.00000E+00
    0.00000E+00         0.00000E+00        -0.56442E+08
 
   -0.56765E+08         0.24135E+07         0.00000E+00
    0.24135E+07        -0.49403E+08         0.00000E+00
    0.00000E+00         0.00000E+00        -0.56442E+08
 
   -0.56740E+08         0.25032E+07         0.00000E+00
    0.25032E+07        -0.49393E+08         0.00000E+00
    0.00000E+00         0.00000E+00        -0.56441E+08
 
   -0.56714E+08         0.25943E+07         0.00000E+00
    0.25943E+07        -0.49385E+08         0.00000E+00
    0.00000E+00         0.00000E+00        -0.56440E+08
 
   -0.56689E+08         0.26868E+07         0.00000E+00
    0.26868E+07        -0.49378E+08         0.00000E+00
    0.00000E+00         0.00000E+00        -0.56440E+08
 
   -0.56665E+08         0.27808E+07         0.00000E+00
    0.27808E+07        -0.49372E+08         0.00000E+00
    0.00000E+00         0.00000E+00        -0.56439E+08
 
   -0.56640E+08         0.28762E+07         0.00000E+00
    0.28762E+07        -0.49368E+08         0.00000E+00
    0.00000E+00         0.00000E+00        -0.56439E+08
 
   -0.56616E+08         0.29730E+07         0.00000E+00
    0.29730E+07        -0.49366E+08         0.00000E+00
    0.00000E+00         0.00000E+00        -0.56439E+08
 
   -0.56592E+08         0.30711E+07         0.00000E+00
    0.30711E+07        -0.49365E+08         0.00000E+00
    0.00000E+00         0.00000E+00        -0.56438E+08
 
   -0.56569E+08         0.31707E+07         0.00000E+00
    0.31707E+07        -0.49366E+08         0.00000E+00
    0.00000E+00         0.00000E+00        -0.56438E+08
 
   -0.56545E+08         0.32716E+07         0.00000E+00
    0.32716E+07        -0.49369E+08         0.00000E+00
    0.00000E+00         0.00000E+00        -0.56438E+08
 
   -0.56521E+08         0.33739E+07         0.00000E+00
    0.33739E+07        -0.49374E+08         0.00000E+00
    0.00000E+00         0.00000E+00        -0.56438E+08
 
   -0.56497E+08         0.34776E+07         0.00000E+00
    0.34776E+07        -0.49380E+08         0.00000E+00
    0.00000E+00         0.00000E+00        -0.56438E+08
 
   -0.56474E+08         0.35827E+07         0.00000E+00
    0.35827E+07        -0.49388E+08         0.00000E+00
    0.00000E+00         0.00000E+00        -0.56437E+08
 
   -0.56450E+08         0.36891E+07         0.00000E+00
    0.36891E+07        -0.49398E+08         0.00000E+00
    0.00000E+00         0.00000E+00        -0.56437E+08
 
   -0.58742E+08         0.38151E+05         0.00000E+00
    0.38151E+05        -0.50000E+08         0.00000E+00
    0.00000E+00         0.00000E+00        -0.55965E+08
 
   -0.58619E+08         0.10810E+06         0.00000E+00
    0.10810E+06        -0.49998E+08         0.00000E+00
    0.00000E+00         0.00000E+00        -0.55964E+08
 
   -0.58501E+08         0.17609E+06         0.00000E+00
    0.17609E+06        -0.49996E+08         0.00000E+00
    0.00000E+00         0.00000E+00        -0.55964E+08
 
   -0.58386E+08         0.24235E+06         0.00000E+00
    0.24235E+06        -0.49992E+08         0.00000E+00
    0.00000E+00         0.00000E+00        -0.55964E+08
 
   -0.58276E+08         0.30712E+06         0.00000E+00
    0.30712E+06        -0.49987E+08         0.00000E+00
    0.00000E+00         0.00000E+00        -0.55963E+08
 
   -0.58170E+08         0.37060E+06         0.00000E+00
    0.37060E+06        -0.49980E+08         0.00000E+00
    0.00000E+00         0.00000E+00        -0.55963E+08
 
   -0.58068E+08         0.43302E+06         0.00000E+00
    0.43302E+06        -0.49973E+08         0.00000E+00
    0.00000E+00         0.00000E+00        -0.55962E+08
 
   -0.57970E+08         0.49456E+06         0.00000E+00
    0.49456E+06        -0.49964E+08         0.00000E+00
    0.00000E+00         0.00000E+00        -0.55961E+08
 
   -0.57875E+08         0.55542E+06         0.00000E+00
    0.55542E+06        -0.49955E+08         0.00000E+00
    0.00000E+00         0.00000E+00        -0.55960E+08
 
   -0.57785E+08         0.61577E+06         0.00000E+00
    0.61577E+06        -0.49944E+08         0.00000E+00
    0.00000E+00         0.00000E+00        -0.55959E+08
 
   -0.57698E+08         0.67578E+06         0.00000E+00
    0.67578E+06        -0.49933E+08         0.00000E+00
    0.00000E+00         0.00000E+00        -0.55958E+08
 
   -0.57615E+08         0.73560E+06         0.00000E+00
    0.73560E+06        -0.49920E+08         0.00000E+00
    0.00000E+00         0.00000E+00        -0.55957E+08
 
   -0.57535E+08         0.79539E+06         0.00000E+00
    0.79539E+06        -0.49907E+08         0.00000E+00
    0.00000E+00         0.00000E+00        -0.55956E+08
 
   -0.57459E+08         0.85527E+06         0.00000E+00
    0.85527E+06        -0.49894E+08         0.00000E+00
    0.00000E+00         0.00000E+00        -0.55955E+08
 
   -0.57386E+08         0.91539E+06         0.00000E+00
    0.91539E+06        -0.49879E+08         0.00000E+00
    0.00000E+00         0.00000E+00        -0.55954E+08
 
   -0.57315E+08         0.97585E+06         0.00000E+00
    0.97585E+06        -0.49865E+08         0.00000E+00
    0.00000E+00         0.00000E+00        -0.55953E+08
 
   -0.57248E+08         0.10368E+07         0.00000E+00
    0.10368E+07        -0.49849E+08         0.00000E+00
    0.00000E+00         0.00000E+00        -0.55951E+08
 
   -0.57184E+08         0.10982E+07         0.00000E+00
    0.10982E+07        -0.49834E+08         0.00000E+00
    0.00000E+00         0.00000E+00        -0.55950E+08
 
   -0.57122E+08         0.11604E+07         0.00000E+00
    0.11604E+07        -0.49818E+08         0.00000E+00
    0.00000E+00         0.00000E+00        -0.55949E+08
 
   -0.57063E+08         0.12233E+07         0.00000E+00
    0.12233E+07        -0.49802E+08         0.00000E+00
    0.00000E+00         0.00000E+00        -0.55947E+08
 
   -0.57007E+08         0.12870E+07         0.00000E+00
    0.12870E+07        -0.49786E+08         0.00000E+00
    0.00000E+00         0.00000E+00        -0.55946E+08
 
   -0.56953E+08         0.13515E+07         0.00000E+00
    0.13515E+07        -0.49770E+08         0.00000E+00
    0.00000E+00         0.00000E+00        -0.55945E+08
 
   -0.56901E+08         0.14171E+07         0.00000E+00
    0.14171E+07        -0.49754E+08         0.00000E+00
    0.00000E+00         0.00000E+00        -0.55943E+08
 
   -0.56851E+08         0.14836E+07         0.00000E+00
    0.14836E+07        -0.49739E+08         0.00000E+00
    0.00000E+00         0.00000E+00        -0.55942E+08
 
   -0.56803E+08         0.15512E+07         0.00000E+00
    0.15512E+07        -0.49723E+08         0.00000E+00
    0.00000E+00         0.00000E+00        -0.55941E+08
 
   -0.56756E+08         0.16199E+07         0.00000E+00
    0.16199E+07        -0.49708E+08         0.00000E+00
    0.00000E+00         0.00000E+00        -0.55939E+08
 
   -0.56712E+08         0.16897E+07         0.00000E+00
    0.16897E+07        -0.49694E+08         0.00000E+00
    0.00000E+00         0.00000E+00        -0.55938E+08
 
   -0.56669E+08         0.17606E+07         0.00000E+00
    0.17606E+07        -0.49680E+08         0.00000E+00
    0.00000E+00         0.00000E+00        -0.55937E+08
 
   -0.56628E+08         0.18327E+07         0.00000E+00
    0.18327E+07        -0.49666E+08         0.00000E+00
    0.00000E+00         0.00000E+00        -0.55936E+08
 
   -0.56588E+08         0.19061E+07         0.00000E+00
    0.19061E+07        -0.49654E+08         0.00000E+00
    0.00000E+00         0.00000E+00        -0.55935E+08
 
   -0.56549E+08         0.19806E+07         0.00000E+00
    0.19806E+07        -0.49642E+08         0.00000E+00
    0.00000E+00         0.00000E+00        -0.55933E+08
 
   -0.56511E+08         0.20563E+07         0.00000E+00
    0.20563E+07        -0.49631E+08         0.00000E+00
    0.00000E+00         0.00000E+00        -0.55932E+08
 
   -0.56475E+08         0.21333E+07         0.00000E+00
    0.21333E+07        -0.49620E+08         0.00000E+00
    0.00000E+00         0.00000E+00        -0.55931E+08
 
   -0.56439E+08         0.22115E+07         0.00000E+00
    0.22115E+07        -0.49611E+08         0.00000E+00
    0.00000E+00         0.00000E+00        -0.55930E+08
 
   -0.56404E+08         0.22909E+07         0.00000E+00
    0.22909E+07        -0.49603E+08         0.00000E+00
    0.00000E+00         0.00000E+00        -0.55929E+08
 
   -0.56370E+08         0.23715E+07         0.00000E+00
    0.23715E+07        -0.49596E+08         0.00000E+00
    0.00000E+00         0.00000E+00        -0.55928E+08
 
   -0.56337E+08         0.24533E+07         0.00000E+00
    0.24533E+07        -0.49590E+08         0.00000E+00
    0.00000E+00         0.00000E+00        -0.55927E+08
 
   -0.56305E+08         0.25364E+07         0.00000E+00
    0.25364E+07        -0.49585E+08         0.00000E+00
    0.00000E+00         0.00000E+00        -0.55927E+08
 
   -0.56272E+08         0.26206E+07         0.00000E+00
    0.26206E+07        -0.49582E+08         0.00000E+00
    0.00000E+00         0.00000E+00        -0.55926E+08
 
   -0.56241E+08         0.27061E+07         0.00000E+00
    0.27061E+07        -0.49580E+08         0.00000E+00
    0.00000E+00         0.00000E+00        -0.55925E+08
 
   -0.56210E+08         0.27927E+07         0.00000E+00
    0.27927E+07        -0.49579E+08         0.00000E+00
    0.00000E+00         0.00000E+00        -0.55925E+08
 
   -0.56179E+08         0.28805E+07         0.00000E+00
    0.28805E+07        -0.49579E+08         0.00000E+00
    0.00000E+00         0.00000E+00        -0.55924E+08
 
   -0.56149E+08         0.29695E+07         0.00000E+00
    0.29695E+07        -0.49581E+08         0.00000E+00
    0.00000E+00         0.00000E+00        -0.55924E+08
 
   -0.56118E+08         0.30597E+07         0.00000E+00
    0.30597E+07        -0.49585E+08         0.00000E+00
    0.00000E+00         0.00000E+00        -0.55923E+08
 
   -0.56088E+08         0.31510E+07         0.00000E+00
    0.31510E+07        -0.49590E+08         0.00000E+00
    0.00000E+00         0.00000E+00        -0.55923E+08
 
   -0.56058E+08         0.32435E+07         0.00000E+00
    0.32435E+07        -0.49597E+08         0.00000E+00
    0.00000E+00         0.00000E+00        -0.55923E+08
 
   -0.56028E+08         0.33372E+07         0.00000E+00
    0.33372E+07        -0.49605E+08         0.00000E+00
    0.00000E+00         0.00000E+00        -0.55923E+08
 
   -0.55998E+08         0.34320E+07         0.00000E+00
    0.34320E+07        -0.49615E+08         0.00000E+00
    0.00000E+00         0.00000E+00        -0.55922E+08
 
   -0.55968E+08         0.35280E+07         0.00000E+00
    0.35280E+07        -0.49627E+08         0.00000E+00
    0.00000E+00         0.00000E+00        -0.55922E+08
 
   -0.55938E+08         0.36251E+07         0.00000E+00
    0.36251E+07        -0.49640E+08         0.00000E+00
    0.00000E+00         0.00000E+00        -0.55922E+08
 
   -0.58373E+08         0.40861E+05         0.00000E+00
    0.40861E+05        -0.50000E+08         0.00000E+00
    0.00000E+00         0.00000E+00        -0.55503E+08
 
   -0.58260E+08         0.11619E+06         0.00000E+00
    0.11619E+06        -0.49999E+08         0.00000E+00
    0.00000E+00         0.00000E+00        -0.55503E+08
 
   -0.58151E+08         0.18947E+06         0.00000E+00
    0.18947E+06        -0.49997E+08         0.00000E+00
    0.00000E+00         0.00000E+00        -0.55502E+08
 
   -0.58045E+08         0.26092E+06         0.00000E+00
    0.26092E+06        -0.49995E+08         0.00000E+00
    0.00000E+00         0.00000E+00        -0.55502E+08
 
   -0.57942E+08         0.33072E+06         0.00000E+00
    0.33072E+06        -0.49991E+08         0.00000E+00
    0.00000E+00         0.00000E+00        -0.55501E+08
 
   -0.57842E+08         0.39906E+06         0.00000E+00
    0.39906E+06        -0.49987E+08         0.00000E+00
    0.00000E+00         0.00000E+00        -0.55501E+08
 
   -0.57746E+08         0.46613E+06         0.00000E+00
    0.46613E+06        -0.49982E+08         0.00000E+00
    0.00000E+00         0.00000E+00        -0.55500E+08
 
   -0.57652E+08         0.53209E+06         0.00000E+00
    0.53209E+06        -0.49977E+08         0.00000E+00
    0.00000E+00         0.00000E+00        -0.55499E+08
 
   -0.57562E+08         0.59711E+06         0.00000E+00
    0.59711E+06        -0.49970E+08         0.00000E+00
    0.00000E+00         0.00000E+00        -0.55498E+08
 
   -0.57474E+08         0.66133E+06         0.00000E+00
    0.66133E+06        -0.49963E+08         0.00000E+00
    0.00000E+00         0.00000E+00        -0.55497E+08
 
   -0.57389E+08         0.72492E+06         0.00000E+00
    0.72492E+06        -0.49956E+08         0.00000E+00
    0.00000E+00         0.00000E+00        -0.55496E+08
 
   -0.57308E+08         0.78801E+06         0.00000E+00
    0.78801E+06        -0.49948E+08         0.00000E+00
    0.00000E+00         0.00000E+00        -0.55494E+08
 
   -0.57229E+08         0.85073E+06         0.00000E+00
    0.85073E+06        -0.49939E+08         0.00000E+00
    0.00000E+00         0.00000E+00        -0.55493E+08
 
   -0.57152E+08         0.91320E+06         0.00000E+00
    0.91320E+06        -0.49930E+08         0.00000E+00
    0.00000E+00         0.00000E+00        -0.55492E+08
 
   -0.57079E+08         0.97555E+06         0.00000E+00
    0.97555E+06        -0.49920E+08         0.00000E+00
    0.00000E+00         0.00000E+00        -0.55490E+08
 
   -0.57007E+08         0.10379E+07         0.00000E+00
    0.10379E+07        -0.49910E+08         0.00000E+00
    0.00000E+00         0.00000E+00        -0.55489E+08
 
   -0.56939E+08         0.11003E+07         0.00000E+00
    0.11003E+07        -0.49900E+08         0.00000E+00
    0.00000E+00         0.00000E+00        -0.55487E+08
 
   -0.56872E+08         0.11629E+07         0.00000E+00
    0.11629E+07        -0.49890E+08         0.00000E+00
    0.00000E+00         0.00000E+00        -0.55486E+08
 
   -0.56808E+08         0.12258E+07         0.00000E+00
    0.12258E+07        -0.49880E+08         0.00000E+00
    0.00000E+00         0.00000E+00        -0.55484E+08
 
   -0.56746E+08         0.12890E+07         0.00000E+00
    0.12890E+07        -0.49869E+08         0.00000E+00
    0.00000E+00         0.00000E+00        -0.55483E+08
 
   -0.56687E+08         0.13526E+07         0.00000E+00
    0.13526E+07        -0.49859E+08         0.00000E+00
    0.00000E+00         0.00000E+00        -0.55481E+08
 
   -0.56629E+08         0.14167E+07         0.00000E+00
    0.14167E+07        -0.49848E+08         0.00000E+00
    0.00000E+00         0.00000E+00        -0.55480E+08
 
   -0.56573E+08         0.14814E+07         0.00000E+00
    0.14814E+07        -0.49838E+08         0.00000E+00
    0.00000E+00         0.00000E+00        -0.55478E+08
 
   -0.56519E+08         0.15467E+07         0.00000E+00
    0.15467E+07        -0.49828E+08         0.00000E+00
    0.00000E+00         0.00000E+00        -0.55476E+08
 
   -0.56466E+08         0.16127E+07         0.00000E+00
    0.16127E+07        -0.49818E+08         0.00000E+00
    0.00000E+00         0.00000E+00        -0.55475E+08
 
   -0.56416E+08         0.16794E+07         0.00000E+00
    0.16794E+07        -0.49809E+08         0.00000E+00
    0.00000E+00         0.00000E+00        -0.55473E+08
 
   -0.56366E+08         0.17468E+07         0.00000E+00
    0.17468E+07        -0.49800E+08         0.00000E+00
    0.00000E+00         0.00000E+00        -0.55472E+08
 
   -0.56319E+08         0.18151E+07         0.00000E+00
    0.18151E+07        -0.49792E+08         0.00000E+00
    0.00000E+00         0.00000E+00        -0.55470E+08
 
   -0.56272E+08         0.18841E+07         0.00000E+00
    0.18841E+07        -0.49784E+08         0.00000E+00
    0.00000E+00         0.00000E+00        -0.55469E+08
 
   -0.56227E+08         0.19540E+07         0.00000E+00
    0.19540E+07        -0.49776E+08         0.00000E+00
    0.00000E+00         0.00000E+00        -0.55468E+08
 
   -0.56183E+08         0.20247E+07         0.00000E+00
    0.20247E+07        -0.49770E+08         0.00000E+00
    0.00000E+00         0.00000E+00        -0.55466E+08
 
   -0.56140E+08         0.20964E+07         0.00000E+00
    0.20964E+07        -0.49764E+08         0.00000E+00
    0.00000E+00         0.00000E+00        -0.55465E+08
 
   -0.56098E+08         0.21689E+07         0.00000E+00
    0.21689E+07        -0.49759E+08         0.00000E+00
    0.00000E+00         0.00000E+00        -0.55464E+08
 
   -0.56057E+08         0.22424E+07         0.00000E+00
    0.22424E+07        -0.49755E+08         0.00000E+00
    0.00000E+00         0.00000E+00        -0.55463E+08
 
   -0.56017E+08         0.23168E+07         0.00000E+00
    0.23168E+07        -0.49751E+08         0.00000E+00
    0.00000E+00         0.00000E+00        -0.55461E+08
 
   -0.55978E+08         0.23921E+07         0.00000E+00
    0.23921E+07        -0.49749E+08         0.00000E+00
    0.00000E+00         0.00000E+00        -0.55460E+08
 
   -0.55939E+08         0.24684E+07         0.00000E+00
    0.24684E+07        -0.49748E+08         0.00000E+00
    0.00000E+00         0.00000E+00        -0.55459E+08
 
   -0.55901E+08         0.25456E+07         0.00000E+00
    0.25456E+07        -0.49747E+08         0.00000E+00
    0.00000E+00         0.00000E+00        -0.55458E+08
 
   -0.55864E+08         0.26238E+07         0.00000E+00
    0.26238E+07        -0.49748E+08         0.00000E+00
    0.00000E+00         0.00000E+00        -0.55458E+08
 
   -0.55827E+08         0.27029E+07         0.00000E+00
    0.27029E+07        -0.49750E+08         0.00000E+00
    0.00000E+00         0.00000E+00        -0.55457E+08
 
   -0.55790E+08         0.27830E+07         0.00000E+00
    0.27830E+07        -0.49754E+08         0.00000E+00
    0.00000E+00         0.00000E+00        -0.55456E+08
 
   -0.55754E+08         0.28640E+07         0.00000E+00
    0.28640E+07        -0.49758E+08         0.00000E+00
    0.00000E+00         0.00000E+00        -0.55455E+08
 
   -0.55718E+08         0.29460E+07         0.00000E+00
    0.29460E+07        -0.49764E+08         0.00000E+00
    0.00000E+00         0.00000E+00        -0.55455E+08
 
   -0.55683E+08         0.30290E+07         0.00000E+00
    0.30290E+07        -0.49771E+08         0.00000E+00
    0.00000E+00         0.00000E+00        -0.55454E+08
 
   -0.55647E+08         0.31129E+07         0.00000E+00
    0.31129E+07        -0.49780E+08         0.00000E+00
    0.00000E+00         0.00000E+00        -0.55454E+08
 
   -0.55612E+08         0.31977E+07         0.00000E+00
    0.31977E+07        -0.49790E+08         0.00000E+00
    0.00000E+00         0.00000E+00        -0.55454E+08
 
   -0.55577E+08         0.32835E+07         0.00000E+00
    0.32835E+07        -0.49801E+08         0.00000E+00
    0.00000E+00         0.00000E+00        -0.55453E+08
 
   -0.55542E+08         0.33702E+07         0.00000E+00
    0.33702E+07        -0.49814E+08         0.00000E+00
    0.00000E+00         0.00000E+00        -0.55453E+08
 
   -0.55506E+08         0.34579E+07         0.00000E+00
    0.34579E+07        -0.49829E+08         0.00000E+00
    0.00000E+00         0.00000E+00        -0.55453E+08
 
   -0.55471E+08         0.35465E+07         0.00000E+00
    0.35465E+07        -0.49845E+08         0.00000E+00
    0.00000E+00         0.00000E+00        -0.55453E+08
 
   -0.57981E+08         0.42379E+05         0.00000E+00
    0.42379E+05        -0.50000E+08         0.00000E+00
    0.00000E+00         0.00000E+00        -0.55082E+08
 
   -0.57880E+08         0.12095E+06         0.00000E+00
    0.12095E+06        -0.49999E+08         0.00000E+00
    0.00000E+00         0.00000E+00        -0.55082E+08
 
   -0.57780E+08         0.19749E+06         0.00000E+00
    0.19749E+06        -0.49998E+08         0.00000E+00
    0.00000E+00         0.00000E+00        -0.55082E+08
 
   -0.57683E+08         0.27218E+06         0.00000E+00
    0.27218E+06        -0.49997E+08         0.00000E+00
    0.00000E+00         0.00000E+00        -0.55081E+08
 
   -0.57588E+08         0.34518E+06         0.00000E+00
    0.34518E+06        -0.49995E+08         0.00000E+00
    0.00000E+00         0.00000E+00        -0.55080E+08
 
   -0.57496E+08         0.41664E+06         0.00000E+00
    0.41664E+06        -0.49993E+08         0.00000E+00
    0.00000E+00         0.00000E+00        -0.55080E+08
 
   -0.57405E+08         0.48671E+06         0.00000E+00
    0.48671E+06        -0.49990E+08         0.00000E+00
    0.00000E+00         0.00000E+00        -0.55079E+08
 
   -0.57317E+08         0.55554E+06         0.00000E+00
    0.55554E+06        -0.49987E+08         0.00000E+00
    0.00000E+00         0.00000E+00        -0.55078E+08
 
   -0.57231E+08         0.62327E+06         0.00000E+00
    0.62327E+06        -0.49983E+08         0.00000E+00
    0.00000E+00         0.00000E+00        -0.55077E+08
 
   -0.57148E+08         0.69003E+06         0.00000E+00
    0.69003E+06        -0.49979E+08         0.00000E+00
    0.00000E+00         0.00000E+00        -0.55075E+08
 
   -0.57067E+08         0.75595E+06         0.00000E+00
    0.75595E+06        -0.49975E+08         0.00000E+00
    0.00000E+00         0.00000E+00        -0.55074E+08
 
   -0.56988E+08         0.82115E+06         0.00000E+00
    0.82115E+06        -0.49970E+08         0.00000E+00
    0.00000E+00         0.00000E+00        -0.55072E+08
 
   -0.56911E+08         0.88575E+06         0.00000E+00
    0.88575E+06        -0.49965E+08         0.00000E+00
    0.00000E+00         0.00000E+00        -0.55071E+08
 
   -0.56836E+08         0.94986E+06         0.00000E+00
    0.94986E+06        -0.49959E+08         0.00000E+00
    0.00000E+00         0.00000E+00        -0.55069E+08
 
   -0.56763E+08         0.10136E+07         0.00000E+00
    0.10136E+07        -0.49954E+08         0.00000E+00
    0.00000E+00         0.00000E+00        -0.55068E+08
 
   -0.56693E+08         0.10770E+07         0.00000E+00
    0.10770E+07        -0.49948E+08         0.00000E+00
    0.00000E+00         0.00000E+00        -0.55066E+08
 
   -0.56624E+08         0.11402E+07         0.00000E+00
    0.11402E+07        -0.49942E+08         0.00000E+00
    0.00000E+00         0.00000E+00        -0.55065E+08
 
   -0.56557E+08         0.12034E+07         0.00000E+00
    0.12034E+07        -0.49936E+08         0.00000E+00
    0.00000E+00         0.00000E+00        -0.55063E+08
 
   -0.56492E+08         0.12665E+07         0.00000E+00
    0.12665E+07        -0.49930E+08         0.00000E+00
    0.00000E+00         0.00000E+00        -0.55061E+08
 
   -0.56429E+08         0.13296E+07         0.00000E+00
    0.13296E+07        -0.49924E+08         0.00000E+00
    0.00000E+00         0.00000E+00        -0.55059E+08
 
   -0.56368E+08         0.13929E+07         0.00000E+00
    0.13929E+07        -0.49919E+08         0.00000E+00
    0.00000E+00         0.00000E+00        -0.55058E+08
 
   -0.56308E+08         0.14563E+07         0.00000E+00
    0.14563E+07        -0.49913E+08         0.00000E+00
    0.00000E+00         0.00000E+00        -0.55056E+08
 
   -0.56250E+08         0.15200E+07         0.00000E+00
    0.15200E+07        -0.49907E+08         0.00000E+00
    0.00000E+00         0.00000E+00        -0.55054E+08
 
   -0.56194E+08         0.15840E+07         0.00000E+00
    0.15840E+07        -0.49902E+08         0.00000E+00
    0.00000E+00         0.00000E+00        -0.55052E+08
 
   -0.56139E+08         0.16484E+07         0.00000E+00
    0.16484E+07        -0.49897E+08         0.00000E+00
    0.00000E+00         0.00000E+00        -0.55050E+08
 
   -0.56085E+08         0.17132E+07         0.00000E+00
    0.17132E+07        -0.49892E+08         0.00000E+00
    0.00000E+00         0.00000E+00        -0.55049E+08
 
   -0.56033E+08         0.17784E+07         0.00000E+00
    0.17784E+07        -0.49888E+08         0.00000E+00
    0.00000E+00         0.00000E+00        -0.55047E+08
 
   -0.55982E+08         0.18441E+07         0.00000E+00
    0.18441E+07        -0.49884E+08         0.00000E+00
    0.00000E+00         0.00000E+00        -0.55045E+08
 
   -0.55932E+08         0.19103E+07         0.00000E+00
    0.19103E+07        -0.49881E+08         0.00000E+00
    0.00000E+00         0.00000E+00        -0.55044E+08
 
   -0.55883E+08         0.19771E+07         0.00000E+00
    0.19771E+07        -0.49878E+08         0.00000E+00
    0.00000E+00         0.00000E+00        -0.55042E+08
 
   -0.55836E+08         0.20445E+07         0.00000E+00
    0.20445E+07        -0.49876E+08         0.00000E+00
    0.00000E+00         0.00000E+00        -0.55041E+08
 
   -0.55789E+08         0.21125E+07         0.00000E+00
    0.21125E+07        -0.49875E+08         0.00000E+00
    0.00000E+00         0.00000E+00        -0.55039E+08
 
   -0.55743E+08         0.21811E+07         0.00000E+00
    0.21811E+07        -0.49874E+08         0.00000E+00
    0.00000E+00         0.00000E+00        -0.55038E+08
 
   -0.55698E+08         0.22504E+07         0.00000E+00
    0.22504E+07        -0.49874E+08         0.00000E+00
    0.00000E+00         0.00000E+00        -0.55036E+08
 
   -0.55654E+08         0.23203E+07         0.00000E+00
    0.23203E+07        -0.49875E+08         0.00000E+00
    0.00000E+00         0.00000E+00        -0.55035E+08
 
   -0.55611E+08         0.23910E+07         0.00000E+00
    0.23910E+07        -0.49877E+08         0.00000E+00
    0.00000E+00         0.00000E+00        -0.55034E+08
 
   -0.55568E+08         0.24623E+07         0.00000E+00
    0.24623E+07        -0.49879E+08         0.00000E+00
    0.00000E+00         0.00000E+00        -0.55033E+08
 
   -0.55526E+08         0.25343E+07         0.00000E+00
    0.25343E+07        -0.49883E+08         0.00000E+00
    0.00000E+00         0.00000E+00        -0.55032E+08
 
   -0.55484E+08         0.26071E+07         0.00000E+00
    0.26071E+07        -0.49887E+08         0.00000E+00
    0.00000E+00         0.00000E+00        -0.55031E+08
 
   -0.55443E+08         0.26806E+07         0.00000E+00
    0.26806E+07        -0.49893E+08         0.00000E+00
    0.00000E+00         0.00000E+00        -0.55030E+08
 
   -0.55402E+08         0.27548E+07         0.00000E+00
    0.27548E+07        -0.49900E+08         0.00000E+00
    0.00000E+00         0.00000E+00        -0.55029E+08
 
   -0.55362E+08         0.28298E+07         0.00000E+00
    0.28298E+07        -0.49908E+08         0.00000E+00
    0.00000E+00         0.00000E+00        -0.55028E+08
 
   -0.55322E+08         0.29054E+07         0.00000E+00
    0.29054E+07        -0.49917E+08         0.00000E+00
    0.00000E+00         0.00000E+00        -0.55028E+08
 
   -0.55282E+08         0.29819E+07         0.00000E+00
    0.29819E+07        -0.49927E+08         0.00000E+00
    0.00000E+00         0.00000E+00        -0.55027E+08
 
   -0.55243E+08         0.30591E+07         0.00000E+00
    0.30591E+07        -0.49938E+08         0.00000E+00
    0.00000E+00         0.00000E+00        -0.55026E+08
 
   -0.55203E+08         0.31370E+07         0.00000E+00
    0.31370E+07        -0.49951E+08         0.00000E+00
    0.00000E+00         0.00000E+00        -0.55026E+08
 
   -0.55164E+08         0.32157E+07         0.00000E+00
    0.32157E+07        -0.49965E+08         0.00000E+00
    0.00000E+00         0.00000E+00        -0.55026E+08
 
   -0.55124E+08         0.32951E+07         0.00000E+00
    0.32951E+07        -0.49981E+08         0.00000E+00
    0.00000E+00         0.00000E+00        -0.55025E+08
 
   -0.55085E+08         0.33752E+07         0.00000E+00
    0.33752E+07        -0.49998E+08         0.00000E+00
    0.00000E+00         0.00000E+00        -0.55025E+08
 
   -0.55045E+08         0.34561E+07         0.00000E+00
    0.34561E+07        -0.50016E+08         0.00000E+00
    0.00000E+00         0.00000E+00        -0.55025E+08
 
   -0.57579E+08         0.42971E+05         0.00000E+00
    0.42971E+05        -0.50000E+08         0.00000E+00
    0.00000E+00         0.00000E+00        -0.54698E+08
 
   -0.57487E+08         0.12308E+06         0.00000E+00
    0.12308E+06        -0.50000E+08         0.00000E+00
    0.00000E+00         0.00000E+00        -0.54698E+08
 
   -0.57397E+08         0.20124E+06         0.00000E+00
    0.20124E+06        -0.50000E+08         0.00000E+00
    0.00000E+00         0.00000E+00        -0.54697E+08
 
   -0.57309E+08         0.27760E+06         0.00000E+00
    0.27760E+06        -0.49999E+08         0.00000E+00
    0.00000E+00         0.00000E+00        -0.54697E+08
 
   -0.57222E+08         0.35228E+06         0.00000E+00
    0.35228E+06        -0.49998E+08         0.00000E+00
    0.00000E+00         0.00000E+00        -0.54696E+08
 
   -0.57137E+08         0.42542E+06         0.00000E+00
    0.42542E+06        -0.49997E+08         0.00000E+00
    0.00000E+00         0.00000E+00        -0.54695E+08
 
   -0.57053E+08         0.49714E+06         0.00000E+00
    0.49714E+06        -0.49996E+08         0.00000E+00
    0.00000E+00         0.00000E+00        -0.54694E+08
 
   -0.56971E+08         0.56756E+06         0.00000E+00
    0.56756E+06        -0.49995E+08         0.00000E+00
    0.00000E+00         0.00000E+00        -0.54693E+08
 
   -0.56891E+08         0.63679E+06         0.00000E+00
    0.63679E+06        -0.49993E+08         0.00000E+00
    0.00000E+00         0.00000E+00        -0.54692E+08
 
   -0.56812E+08         0.70496E+06         0.00000E+00
    0.70496E+06        -0.49992E+08         0.00000E+00
    0.00000E+00         0.00000E+00        -0.54690E+08
 
   -0.56735E+08         0.77216E+06         0.00000E+00
    0.77216E+06        -0.49990E+08         0.00000E+00
    0.00000E+00         0.00000E+00        -0.54689E+08
 
   -0.56660E+08         0.83850E+06         0.00000E+00
    0.83850E+06        -0.49988E+08         0.00000E+00
    0.00000E+00         0.00000E+00        -0.54687E+08
 
   -0.56586E+08         0.90408E+06         0.00000E+00
    0.90408E+06        -0.49986E+08         0.00000E+00
    0.00000E+00         0.00000E+00        -0.54686E+08
 
   -0.56514E+08         0.96900E+06         0.00000E+00
    0.96900E+06        -0.49983E+08         0.00000E+00
    0.00000E+00         0.00000E+00        -0.54684E+08
 
   -0.56444E+08         0.10334E+07         0.00000E+00
    0.10334E+07        -0.49981E+08         0.00000E+00
    0.00000E+00         0.00000E+00        -0.54682E+08
 
   -0.56375E+08         0.10972E+07         0.00000E+00
    0.10972E+07        -0.49979E+08         0.00000E+00
    0.00000E+00         0.00000E+00        -0.54681E+08
 
   -0.56307E+08         0.11607E+07         0.00000E+00
    0.11607E+07        -0.49976E+08         0.00000E+00
    0.00000E+00         0.00000E+00        -0.54679E+08
 
   -0.56242E+08         0.12238E+07         0.00000E+00
    0.12238E+07        -0.49974E+08         0.00000E+00
    0.00000E+00         0.00000E+00        -0.54677E+08
 
   -0.56177E+08         0.12867E+07         0.00000E+00
    0.12867E+07        -0.49972E+08         0.00000E+00
    0.00000E+00         0.00000E+00        -0.54675E+08
 
   -0.56114E+08         0.13495E+07         0.00000E+00
    0.13495E+07        -0.49969E+08         0.00000E+00
    0.00000E+00         0.00000E+00        -0.54673E+08
 
   -0.56053E+08         0.14121E+07         0.00000E+00
    0.14121E+07        -0.49967E+08         0.00000E+00
    0.00000E+00         0.00000E+00        -0.54671E+08
 
   -0.55993E+08         0.14746E+07         0.00000E+00
    0.14746E+07        -0.49965E+08         0.00000E+00
    0.00000E+00         0.00000E+00        -0.54669E+08
 
   -0.55934E+08         0.15372E+07         0.00000E+00
    0.15372E+07        -0.49964E+08         0.00000E+00
    0.00000E+00         0.00000E+00        -0.54667E+08
 
   -0.55877E+08         0.15998E+07         0.00000E+00
    0.15998E+07        -0.49962E+08         0.00000E+00
    0.00000E+00         0.00000E+00        -0.54665E+08
 
   -0.55820E+08         0.16626E+07         0.00000E+00
    0.16626E+07        -0.49961E+08         0.00000E+00
    0.00000E+00         0.00000E+00        -0.54663E+08
 
   -0.55765E+08         0.17255E+07         0.00000E+00
    0.17255E+07        -0.49960E+08         0.00000E+00
    0.00000E+00         0.00000E+00        -0.54662E+08
 
   -0.55711E+08         0.17886E+07         0.00000E+00
    0.17886E+07        -0.49960E+08         0.00000E+00
    0.00000E+00         0.00000E+00        -0.54660E+08
 
   -0.55658E+08         0.18520E+07         0.00000E+00
    0.18520E+07        -0.49960E+08         0.00000E+00
    0.00000E+00         0.00000E+00        -0.54658E+08
 
   -0.55606E+08         0.19156E+07         0.00000E+00
    0.19156E+07        -0.49961E+08         0.00000E+00
    0.00000E+00         0.00000E+00        -0.54656E+08
 
   -0.55555E+08         0.19796E+07         0.00000E+00
    0.19796E+07        -0.49962E+08         0.00000E+00
    0.00000E+00         0.00000E+00        -0.54654E+08
 
   -0.55505E+08         0.20439E+07         0.00000E+00
    0.20439E+07        -0.49963E+08         0.00000E+00
    0.00000E+00         0.00000E+00        -0.54653E+08
 
   -0.55456E+08         0.21085E+07         0.00000E+00
    0.21085E+07        -0.49966E+08         0.00000E+00
    0.00000E+00         0.00000E+00        -0.54651E+08
 
   -0.55408E+08         0.21736E+07         0.00000E+00
    0.21736E+07        -0.49969E+08         0.00000E+00
    0.00000E+00         0.00000E+00        -0.54649E+08
 
   -0.55360E+08         0.22391E+07         0.00000E+00
    0.22391E+07        -0.49972E+08         0.00000E+00
    0.00000E+00         0.00000E+00        -0.54648E+08
 
   -0.55313E+08         0.23051E+07         0.00000E+00
    0.23051E+07        -0.49976E+08         0.00000E+00
    0.00000E+00         0.00000E+00        -0.54647E+08
 
   -0.55267E+08         0.23715E+07         0.00000E+00
    0.23715E+07        -0.49982E+08         0.00000E+00
    0.00000E+00         0.00000E+00        -0.54645E+08
 
   -0.55221E+08         0.24384E+07         0.00000E+00
    0.24384E+07        -0.49988E+08         0.00000E+00
    0.00000E+00         0.00000E+00        -0.54644E+08
 
   -0.55176E+08         0.25058E+07         0.00000E+00
    0.25058E+07        -0.49994E+08         0.00000E+00
    0.00000E+00         0.00000E+00        -0.54643E+08
 
   -0.55131E+08         0.25737E+07         0.00000E+00
    0.25737E+07        -0.50002E+08         0.00000E+00
    0.00000E+00         0.00000E+00        -0.54642E+08
 
   -0.55087E+08         0.26421E+07         0.00000E+00
    0.26421E+07        -0.50011E+08         0.00000E+00
    0.00000E+00         0.00000E+00        -0.54641E+08
 
   -0.55043E+08         0.27111E+07         0.00000E+00
    0.27111E+07        -0.50020E+08         0.00000E+00
    0.00000E+00         0.00000E+00        -0.54640E+08
 
   -0.54999E+08         0.27806E+07         0.00000E+00
    0.27806E+07        -0.50031E+08         0.00000E+00
    0.00000E+00         0.00000E+00        -0.54639E+08
 
   -0.54956E+08         0.28506E+07         0.00000E+00
    0.28506E+07        -0.50043E+08         0.00000E+00
    0.00000E+00         0.00000E+00        -0.54638E+08
 
   -0.54913E+08         0.29212E+07         0.00000E+00
    0.29212E+07        -0.50055E+08         0.00000E+00
    0.00000E+00         0.00000E+00        -0.54637E+08
 
   -0.54870E+08         0.29923E+07         0.00000E+00
    0.29923E+07        -0.50069E+08         0.00000E+00
    0.00000E+00         0.00000E+00        -0.54637E+08
 
   -0.54827E+08         0.30640E+07         0.00000E+00
    0.30640E+07        -0.50084E+08         0.00000E+00
    0.00000E+00         0.00000E+00        -0.54636E+08
 
   -0.54785E+08         0.31362E+07         0.00000E+00
    0.31362E+07        -0.50101E+08         0.00000E+00
    0.00000E+00         0.00000E+00        -0.54636E+08
 
   -0.54742E+08         0.32090E+07         0.00000E+00
    0.32090E+07        -0.50118E+08         0.00000E+00
    0.00000E+00         0.00000E+00        -0.54635E+08
 
   -0.54699E+08         0.32824E+07         0.00000E+00
    0.32824E+07        -0.50137E+08         0.00000E+00
    0.00000E+00         0.00000E+00        -0.54635E+08
 
   -0.54657E+08         0.33562E+07         0.00000E+00
    0.33562E+07        -0.50157E+08         0.00000E+00
    0.00000E+00         0.00000E+00        -0.54635E+08
 
   -0.57172E+08         0.42856E+05         0.00000E+00
    0.42856E+05        -0.50000E+08         0.00000E+00
    0.00000E+00         0.00000E+00        -0.54346E+08
 
   -0.57091E+08         0.12317E+06         0.00000E+00
    0.12317E+06        -0.50000E+08         0.00000E+00
    0.00000E+00         0.00000E+00        -0.54346E+08
 
   -0.57010E+08         0.20166E+06         0.00000E+00
    0.20166E+06        -0.50000E+08         0.00000E+00
    0.00000E+00         0.00000E+00        -0.54346E+08
 
   -0.56930E+08         0.27844E+06         0.00000E+00
    0.27844E+06        -0.50000E+08         0.00000E+00
    0.00000E+00         0.00000E+00        -0.54345E+08
 
   -0.56851E+08         0.35361E+06         0.00000E+00
    0.35361E+06        -0.50001E+08         0.00000E+00
    0.00000E+00         0.00000E+00        -0.54344E+08
 
   -0.56773E+08         0.42727E+06         0.00000E+00
    0.42727E+06        -0.50001E+08         0.00000E+00
    0.00000E+00         0.00000E+00        -0.54344E+08
 
   -0.56696E+08         0.49953E+06         0.00000E+00
    0.49953E+06        -0.50001E+08         0.00000E+00
    0.00000E+00         0.00000E+00        -0.54342E+08
 
   -0.56620E+08         0.57049E+06         0.00000E+00
    0.57049E+06        -0.50001E+08         0.00000E+00
    0.00000E+00         0.00000E+00        -0.54341E+08
 
   -0.56546E+08         0.64024E+06         0.00000E+00
    0.64024E+06        -0.50001E+08         0.00000E+00
    0.00000E+00         0.00000E+00        -0.54340E+08
 
   -0.56472E+08         0.70887E+06         0.00000E+00
    0.70887E+06        -0.50002E+08         0.00000E+00
    0.00000E+00         0.00000E+00        -0.54339E+08
 
   -0.56400E+08         0.77648E+06         0.00000E+00
    0.77648E+06        -0.50002E+08         0.00000E+00
    0.00000E+00         0.00000E+00        -0.54337E+08
 
   -0.56329E+08         0.84315E+06         0.00000E+00
    0.84315E+06        -0.50002E+08         0.00000E+00
    0.00000E+00         0.00000E+00        -0.54335E+08
 
   -0.56259E+08         0.90897E+06         0.00000E+00
    0.90897E+06        -0.50002E+08         0.00000E+00
    0.00000E+00         0.00000E+00        -0.54334E+08
 
   -0.56190E+08         0.97402E+06         0.00000E+00
    0.97402E+06        -0.50002E+08         0.00000E+00
    0.00000E+00         0.00000E+00        -0.54332E+08
 
   -0.56123E+08         0.10384E+07         0.00000E+00
    0.10384E+07        -0.50003E+08         0.00000E+00
    0.00000E+00         0.00000E+00        -0.54330E+08
 
   -0.56057E+08         0.11021E+07         0.00000E+00
    0.11021E+07        -0.50003E+08         0.00000E+00
    0.00000E+00         0.00000E+00        -0.54328E+08
 
   -0.55991E+08         0.11653E+07         0.00000E+00
    0.11653E+07        -0.50003E+08         0.00000E+00
    0.00000E+00         0.00000E+00        -0.54326E+08
 
   -0.55927E+08         0.12281E+07         0.00000E+00
    0.12281E+07        -0.50004E+08         0.00000E+00
    0.00000E+00         0.00000E+00        -0.54324E+08
 
   -0.55865E+08         0.12904E+07         0.00000E+00
    0.12904E+07        -0.50004E+08         0.00000E+00
    0.00000E+00         0.00000E+00        -0.54322E+08
 
   -0.55803E+08         0.13524E+07         0.00000E+00
    0.13524E+07        -0.50005E+08         0.00000E+00
    0.00000E+00         0.00000E+00        -0.54320E+08
 
   -0.55742E+08         0.14141E+07         0.00000E+00
    0.14141E+07        -0.50006E+08         0.00000E+00
    0.00000E+00         0.00000E+00        -0.54318E+08
 
   -0.55683E+08         0.14755E+07         0.00000E+00
    0.14755E+07        -0.50007E+08         0.00000E+00
    0.00000E+00         0.00000E+00        -0.54316E+08
 
   -0.55624E+08         0.15368E+07         0.00000E+00
    0.15368E+07        -0.50009E+08         0.00000E+00
    0.00000E+00         0.00000E+00        -0.54314E+08
 
   -0.55567E+08         0.15980E+07         0.00000E+00
    0.15980E+07        -0.50011E+08         0.00000E+00
    0.00000E+00         0.00000E+00        -0.54312E+08
 
   -0.55510E+08         0.16591E+07         0.00000E+00
    0.16591E+07        -0.50013E+08         0.00000E+00
    0.00000E+00         0.00000E+00        -0.54310E+08
 
   -0.55455E+08         0.17201E+07         0.00000E+00
    0.17201E+07        -0.50015E+08         0.00000E+00
    0.00000E+00         0.00000E+00        -0.54308E+08
 
   -0.55400E+08         0.17812E+07         0.00000E+00
    0.17812E+07        -0.50018E+08         0.00000E+00
    0.00000E+00         0.00000E+00        -0.54306E+08
 
   -0.55346E+08         0.18423E+07         0.00000E+00
    0.18423E+07        -0.50021E+08         0.00000E+00
    0.00000E+00         0.00000E+00        -0.54304E+08
 
   -0.55293E+08         0.19035E+07         0.00000E+00
    0.19035E+07        -0.50025E+08         0.00000E+00
    0.00000E+00         0.00000E+00        -0.54302E+08
 
   -0.55241E+08         0.19648E+07         0.00000E+00
    0.19648E+07        -0.50029E+08         0.00000E+00
    0.00000E+00         0.00000E+00        -0.54300E+08
 
   -0.55190E+08         0.20263E+07         0.00000E+00
    0.20263E+07        -0.50034E+08         0.00000E+00
    0.00000E+00         0.00000E+00        -0.54298E+08
 
   -0.55139E+08         0.20879E+07         0.00000E+00
    0.20879E+07        -0.50039E+08         0.00000E+00
    0.00000E+00         0.00000E+00        -0.54297E+08
 
   -0.55089E+08         0.21498E+07         0.00000E+00
    0.21498E+07        -0.50045E+08         0.00000E+00
    0.00000E+00         0.00000E+00        -0.54295E+08
 
   -0.55040E+08         0.22119E+07         0.00000E+00
    0.22119E+07        -0.50051E+08         0.00000E+00
    0.00000E+00         0.00000E+00        -0.54293E+08
 
   -0.54991E+08         0.22742E+07         0.00000E+00
    0.22742E+07        -0.50059E+08         0.00000E+00
    0.00000E+00         0.00000E+00        -0.54292E+08
 
   -0.54943E+08         0.23368E+07         0.00000E+00
    0.23368E+07        -0.50066E+08         0.00000E+00
    0.00000E+00         0.00000E+00        -0.54290E+08
 
   -0.54895E+08         0.23997E+07         0.00000E+00
    0.23997E+07        -0.50075E+08         0.00000E+00
    0.00000E+00         0.00000E+00        -0.54289E+08
 
   -0.54848E+08         0.24630E+07         0.00000E+00
    0.24630E+07        -0.50084E+08         0.00000E+00
    0.00000E+00         0.00000E+00        -0.54287E+08
 
   -0.54801E+08         0.25265E+07         0.00000E+00
    0.25265E+07        -0.50095E+08         0.00000E+00
    0.00000E+00         0.00000E+00        -0.54286E+08
 
   -0.54755E+08         0.25904E+07         0.00000E+00
    0.25904E+07        -0.50106E+08         0.00000E+00
    0.00000E+00         0.00000E+00        -0.54285E+08
 
   -0.54709E+08         0.26546E+07         0.00000E+00
    0.26546E+07        -0.50118E+08         0.00000E+00
    0.00000E+00         0.00000E+00        -0.54284E+08
 
   -0.54663E+08         0.27192E+07         0.00000E+00
    0.27192E+07        -0.50131E+08         0.00000E+00
    0.00000E+00         0.00000E+00        -0.54283E+08
 
   -0.54617E+08         0.27841E+07         0.00000E+00
    0.27841E+07        -0.50144E+08         0.00000E+00
    0.00000E+00         0.00000E+00        -0.54282E+08
 
   -0.54572E+08         0.28494E+07         0.00000E+00
    0.28494E+07        -0.50159E+08         0.00000E+00
    0.00000E+00         0.00000E+00        -0.54281E+08
 
   -0.54527E+08         0.29151E+07         0.00000E+00
    0.29151E+07        -0.50175E+08         0.00000E+00
    0.00000E+00         0.00000E+00        -0.54281E+08
 
   -0.54482E+08         0.29812E+07         0.00000E+00
    0.29812E+07        -0.50192E+08         0.00000E+00
    0.00000E+00         0.00000E+00        -0.54280E+08
 
   -0.54437E+08         0.30476E+07         0.00000E+00
    0.30476E+07        -0.50210E+08         0.00000E+00
    0.00000E+00         0.00000E+00        -0.54280E+08
 
   -0.54392E+08         0.31145E+07         0.00000E+00
    0.31145E+07        -0.50229E+08         0.00000E+00
    0.00000E+00         0.00000E+00        -0.54280E+08
 
   -0.54347E+08         0.31817E+07         0.00000E+00
    0.31817E+07        -0.50249E+08         0.00000E+00
    0.00000E+00         0.00000E+00        -0.54279E+08
 
   -0.54302E+08         0.32493E+07         0.00000E+00
    0.32493E+07        -0.50270E+08         0.00000E+00
    0.00000E+00         0.00000E+00        -0.54279E+08
 
   -0.56768E+08         0.42216E+05         0.00000E+00
    0.42216E+05        -0.50000E+08         0.00000E+00
    0.00000E+00         0.00000E+00        -0.54024E+08
 
   -0.56695E+08         0.12172E+06         0.00000E+00
    0.12172E+06        -0.50000E+08         0.00000E+00
    0.00000E+00         0.00000E+00        -0.54024E+08
 
   -0.56623E+08         0.19954E+06         0.00000E+00
    0.19954E+06        -0.50001E+08         0.00000E+00
    0.00000E+00         0.00000E+00        -0.54023E+08
 
   -0.56551E+08         0.27577E+06         0.00000E+00
    0.27577E+06        -0.50002E+08         0.00000E+00
    0.00000E+00         0.00000E+00        -0.54023E+08
 
   -0.56479E+08         0.35048E+06         0.00000E+00
    0.35048E+06        -0.50002E+08         0.00000E+00
    0.00000E+00         0.00000E+00        -0.54022E+08
 
   -0.56409E+08         0.42376E+06         0.00000E+00
    0.42376E+06        -0.50004E+08         0.00000E+00
    0.00000E+00         0.00000E+00        -0.54021E+08
 
   -0.56339E+08         0.49569E+06         0.00000E+00
    0.49569E+06        -0.50005E+08         0.00000E+00
    0.00000E+00         0.00000E+00        -0.54020E+08
 
   -0.56269E+08         0.56635E+06         0.00000E+00
    0.56635E+06        -0.50006E+08         0.00000E+00
    0.00000E+00         0.00000E+00        -0.54019E+08
 
   -0.56200E+08         0.63581E+06         0.00000E+00
    0.63581E+06        -0.50008E+08         0.00000E+00
    0.00000E+00         0.00000E+00        -0.54017E+08
 
   -0.56132E+08         0.70416E+06         0.00000E+00
    0.70416E+06        -0.50009E+08         0.00000E+00
    0.00000E+00         0.00000E+00        -0.54016E+08
 
   -0.56065E+08         0.77146E+06         0.00000E+00
    0.77146E+06        -0.50011E+08         0.00000E+00
    0.00000E+00         0.00000E+00        -0.54014E+08
 
   -0.55998E+08         0.83780E+06         0.00000E+00
    0.83780E+06        -0.50013E+08         0.00000E+00
    0.00000E+00         0.00000E+00        -0.54013E+08
 
   -0.55933E+08         0.90324E+06         0.00000E+00
    0.90324E+06        -0.50015E+08         0.00000E+00
    0.00000E+00         0.00000E+00        -0.54011E+08
 
   -0.55868E+08         0.96785E+06         0.00000E+00
    0.96785E+06        -0.50017E+08         0.00000E+00
    0.00000E+00         0.00000E+00        -0.54009E+08
 
   -0.55804E+08         0.10317E+07         0.00000E+00
    0.10317E+07        -0.50019E+08         0.00000E+00
    0.00000E+00         0.00000E+00        -0.54007E+08
 
   -0.55741E+08         0.10948E+07         0.00000E+00
    0.10948E+07        -0.50022E+08         0.00000E+00
    0.00000E+00         0.00000E+00        -0.54005E+08
 
   -0.55678E+08         0.11574E+07         0.00000E+00
    0.11574E+07        -0.50024E+08         0.00000E+00
    0.00000E+00         0.00000E+00        -0.54003E+08
 
   -0.55617E+08         0.12193E+07         0.00000E+00
    0.12193E+07        -0.50027E+08         0.00000E+00
    0.00000E+00         0.00000E+00        -0.54001E+08
 
   -0.55556E+08         0.12807E+07         0.00000E+00
    0.12807E+07        -0.50030E+08         0.00000E+00
    0.00000E+00         0.00000E+00        -0.53999E+08
 
   -0.55496E+08         0.13417E+07         0.00000E+00
    0.13417E+07        -0.50033E+08         0.00000E+00
    0.00000E+00         0.00000E+00        -0.53997E+08
 
   -0.55437E+08         0.14022E+07         0.00000E+00
    0.14022E+07        -0.50036E+08         0.00000E+00
    0.00000E+00         0.00000E+00        -0.53995E+08
 
   -0.55379E+08         0.14624E+07         0.00000E+00
    0.14624E+07        -0.50040E+08         0.00000E+00
    0.00000E+00         0.00000E+00        -0.53993E+08
 
   -0.55322E+08         0.15223E+07         0.00000E+00
    0.15223E+07        -0.50044E+08         0.00000E+00
    0.00000E+00         0.00000E+00        -0.53990E+08
 
   -0.55265E+08         0.15819E+07         0.00000E+00
    0.15819E+07        -0.50048E+08         0.00000E+00
    0.00000E+00         0.00000E+00        -0.53988E+08
 
   -0.55209E+08         0.16412E+07         0.00000E+00
    0.16412E+07        -0.50053E+08         0.00000E+00
    0.00000E+00         0.00000E+00        -0.53986E+08
 
   -0.55154E+08         0.17004E+07         0.00000E+00
    0.17004E+07        -0.50058E+08         0.00000E+00
    0.00000E+00         0.00000E+00        -0.53984E+08
 
   -0.55100E+08         0.17595E+07         0.00000E+00
    0.17595E+07        -0.50063E+08         0.00000E+00
    0.00000E+00         0.00000E+00        -0.53982E+08
 
   -0.55046E+08         0.18184E+07         0.00000E+00
    0.18184E+07        -0.50069E+08         0.00000E+00
    0.00000E+00         0.00000E+00        -0.53980E+08
 
   -0.54993E+08         0.18773E+07         0.00000E+00
    0.18773E+07        -0.50075E+08         0.00000E+00
    0.00000E+00         0.00000E+00        -0.53978E+08
 
   -0.54941E+08         0.19361E+07         0.00000E+00
    0.19361E+07        -0.50082E+08         0.00000E+00
    0.00000E+00         0.00000E+00        -0.53976E+08
 
   -0.54889E+08         0.19950E+07         0.00000E+00
    0.19950E+07        -0.50089E+08         0.00000E+00
    0.00000E+00         0.00000E+00        -0.53974E+08
 
   -0.54838E+08         0.20538E+07         0.00000E+00
    0.20538E+07        -0.50097E+08         0.00000E+00
    0.00000E+00         0.00000E+00        -0.53972E+08
 
   -0.54787E+08         0.21127E+07         0.00000E+00
    0.21127E+07        -0.50105E+08         0.00000E+00
    0.00000E+00         0.00000E+00        -0.53970E+08
 
   -0.54737E+08         0.21716E+07         0.00000E+00
    0.21716E+07        -0.50114E+08         0.00000E+00
    0.00000E+00         0.00000E+00        -0.53969E+08
 
   -0.54687E+08         0.22307E+07         0.00000E+00
    0.22307E+07        -0.50124E+08         0.00000E+00
    0.00000E+00         0.00000E+00        -0.53967E+08
 
   -0.54638E+08         0.22898E+07         0.00000E+00
    0.22898E+07        -0.50134E+08         0.00000E+00
    0.00000E+00         0.00000E+00        -0.53966E+08
 
   -0.54589E+08         0.23491E+07         0.00000E+00
    0.23491E+07        -0.50144E+08         0.00000E+00
    0.00000E+00         0.00000E+00        -0.53964E+08
 
   -0.54541E+08         0.24086E+07         0.00000E+00
    0.24086E+07        -0.50156E+08         0.00000E+00
    0.00000E+00         0.00000E+00        -0.53963E+08
 
   -0.54493E+08         0.24681E+07         0.00000E+00
    0.24681E+07        -0.50168E+08         0.00000E+00
    0.00000E+00         0.00000E+00        -0.53961E+08
 
   -0.54445E+08         0.25279E+07         0.00000E+00
    0.25279E+07        -0.50181E+08         0.00000E+00
    0.00000E+00         0.00000E+00        -0.53960E+08
 
   -0.54398E+08         0.25879E+07         0.00000E+00
    0.25879E+07        -0.50195E+08         0.00000E+00
    0.00000E+00         0.00000E+00        -0.53959E+08
 
   -0.54350E+08         0.26480E+07         0.00000E+00
    0.26480E+07        -0.50210E+08         0.00000E+00
    0.00000E+00         0.00000E+00        -0.53958E+08
 
   -0.54303E+08         0.27084E+07         0.00000E+00
    0.27084E+07        -0.50225E+08         0.00000E+00
    0.00000E+00         0.00000E+00        -0.53957E+08
 
   -0.54257E+08         0.27690E+07         0.00000E+00
    0.27690E+07        -0.50241E+08         0.00000E+00
    0.00000E+00         0.00000E+00        -0.53956E+08
 
   -0.54210E+08         0.28298E+07         0.00000E+00
    0.28298E+07        -0.50259E+08         0.00000E+00
    0.00000E+00         0.00000E+00        -0.53956E+08
 
   -0.54163E+08         0.28908E+07         0.00000E+00
    0.28908E+07        -0.50277E+08         0.00000E+00
    0.00000E+00         0.00000E+00        -0.53955E+08
 
   -0.54117E+08         0.29521E+07         0.00000E+00
    0.29521E+07        -0.50296E+08         0.00000E+00
    0.00000E+00         0.00000E+00        -0.53954E+08
 
   -0.54070E+08         0.30136E+07         0.00000E+00
    0.30136E+07        -0.50316E+08         0.00000E+00
    0.00000E+00         0.00000E+00        -0.53954E+08
 
   -0.54024E+08         0.30753E+07         0.00000E+00
    0.30753E+07        -0.50338E+08         0.00000E+00
    0.00000E+00         0.00000E+00        -0.53954E+08
 
   -0.53977E+08         0.31373E+07         0.00000E+00
    0.31373E+07        -0.50360E+08         0.00000E+00
    0.00000E+00         0.00000E+00        -0.53954E+08
 
   -0.56370E+08         0.41193E+05         0.00000E+00
    0.41193E+05        -0.50000E+08         0.00000E+00
    0.00000E+00         0.00000E+00        -0.53728E+08
 
   -0.56305E+08         0.11913E+06         0.00000E+00
    0.11913E+06        -0.50001E+08         0.00000E+00
    0.00000E+00         0.00000E+00        -0.53728E+08
 
   -0.56241E+08         0.19554E+06         0.00000E+00
    0.19554E+06        -0.50001E+08         0.00000E+00
    0.00000E+00         0.00000E+00        -0.53727E+08
 
   -0.56176E+08         0.27047E+06         0.00000E+00
    0.27047E+06        -0.50002E+08         0.00000E+00
    0.00000E+00         0.00000E+00        -0.53727E+08
 
   -0.56112E+08         0.34400E+06         0.00000E+00
    0.34400E+06        -0.50004E+08         0.00000E+00
    0.00000E+00         0.00000E+00        -0.53726E+08
 
   -0.56048E+08         0.41620E+06         0.00000E+00
    0.41620E+06        -0.50006E+08         0.00000E+00
    0.00000E+00         0.00000E+00        -0.53725E+08
 
   -0.55984E+08         0.48711E+06         0.00000E+00
    0.48711E+06        -0.50007E+08         0.00000E+00
    0.00000E+00         0.00000E+00        -0.53724E+08
 
   -0.55921E+08         0.55681E+06         0.00000E+00
    0.55681E+06        -0.50010E+08         0.00000E+00
    0.00000E+00         0.00000E+00        -0.53723E+08
 
   -0.55858E+08         0.62537E+06         0.00000E+00
    0.62537E+06        -0.50012E+08         0.00000E+00
    0.00000E+00         0.00000E+00        -0.53721E+08
 
   -0.55795E+08         0.69283E+06         0.00000E+00
    0.69283E+06        -0.50015E+08         0.00000E+00
    0.00000E+00         0.00000E+00        -0.53720E+08
 
   -0.55733E+08         0.75926E+06         0.00000E+00
    0.75926E+06        -0.50018E+08         0.00000E+00
    0.00000E+00         0.00000E+00        -0.53718E+08
 
   -0.55671E+08         0.82473E+06         0.00000E+00
    0.82473E+06        -0.50021E+08         0.00000E+00
    0.00000E+00         0.00000E+00        -0.53716E+08
 
   -0.55610E+08         0.88928E+06         0.00000E+00
    0.88928E+06        -0.50024E+08         0.00000E+00
    0.00000E+00         0.00000E+00        -0.53715E+08
 
   -0.55549E+08         0.95299E+06         0.00000E+00
    0.95299E+06        -0.50028E+08         0.00000E+00
    0.00000E+00         0.00000E+00        -0.53713E+08
 
   -0.55488E+08         0.10159E+07         0.00000E+00
    0.10159E+07        -0.50032E+08         0.00000E+00
    0.00000E+00         0.00000E+00        -0.53711E+08
 
   -0.55429E+08         0.10780E+07         0.00000E+00
    0.10780E+07        -0.50036E+08         0.00000E+00
    0.00000E+00         0.00000E+00        -0.53709E+08
 
   -0.55370E+08         0.11395E+07         0.00000E+00
    0.11395E+07        -0.50040E+08         0.00000E+00
    0.00000E+00         0.00000E+00        -0.53707E+08
 
   -0.55311E+08         0.12003E+07         0.00000E+00
    0.12003E+07        -0.50045E+08         0.00000E+00
    0.00000E+00         0.00000E+00        -0.53705E+08
 
   -0.55253E+08         0.12606E+07         0.00000E+00
    0.12606E+07        -0.50049E+08         0.00000E+00
    0.00000E+00         0.00000E+00        -0.53702E+08
 
   -0.55196E+08         0.13203E+07         0.00000E+00
    0.13203E+07        -0.50054E+08         0.00000E+00
    0.00000E+00         0.00000E+00        -0.53700E+08
 
   -0.55139E+08         0.13795E+07         0.00000E+00
    0.13795E+07        -0.50060E+08         0.00000E+00
    0.00000E+00         0.00000E+00        -0.53698E+08
 
   -0.55082E+08         0.14382E+07         0.00000E+00
    0.14382E+07        -0.50065E+08         0.00000E+00
    0.00000E+00         0.00000E+00        -0.53696E+08
 
   -0.55027E+08         0.14965E+07         0.00000E+00
    0.14965E+07        -0.50071E+08         0.00000E+00
    0.00000E+00         0.00000E+00        -0.53694E+08
 
   -0.54972E+08         0.15545E+07         0.00000E+00
    0.15545E+07        -0.50077E+08         0.00000E+00
    0.00000E+00         0.00000E+00        -0.53691E+08
 
   -0.54917E+08         0.16121E+07         0.00000E+00
    0.16121E+07        -0.50084E+08         0.00000E+00
    0.00000E+00         0.00000E+00        -0.53689E+08
 
   -0.54863E+08         0.16694E+07         0.00000E+00
    0.16694E+07        -0.50091E+08         0.00000E+00
    0.00000E+00         0.00000E+00        -0.53687E+08
 
   -0.54810E+08         0.17265E+07         0.00000E+00
    0.17265E+07        -0.50098E+08         0.00000E+00
    0.00000E+00         0.00000E+00        -0.53685E+08
 
   -0.54757E+08         0.17833E+07         0.00000E+00
    0.17833E+07        -0.50106E+08         0.00000E+00
    0.00000E+00         0.00000E+00        -0.53683E+08
 
   -0.54704E+08         0.18399E+07         0.00000E+00
    0.18399E+07        -0.50114E+08         0.00000E+00
    0.00000E+00         0.00000E+00        -0.53681E+08
 
   -0.54652E+08         0.18964E+07         0.00000E+00
    0.18964E+07        -0.50123E+08         0.00000E+00
    0.00000E+00         0.00000E+00        -0.53679E+08
 
   -0.54601E+08         0.19527E+07         0.00000E+00
    0.19527E+07        -0.50132E+08         0.00000E+00
    0.00000E+00         0.00000E+00        -0.53677E+08
 
   -0.54550E+08         0.20089E+07         0.00000E+00
    0.20089E+07        -0.50142E+08         0.00000E+00
    0.00000E+00         0.00000E+00        -0.53675E+08
 
   -0.54499E+08         0.20651E+07         0.00000E+00
    0.20651E+07        -0.50152E+08         0.00000E+00
    0.00000E+00         0.00000E+00        -0.53673E+08
 
   -0.54449E+08         0.21211E+07         0.00000E+00
    0.21211E+07        -0.50163E+08         0.00000E+00
    0.00000E+00         0.00000E+00        -0.53671E+08
 
   -0.54399E+08         0.21771E+07         0.00000E+00
    0.21771E+07        -0.50174E+08         0.00000E+00
    0.00000E+00         0.00000E+00        -0.53670E+08
 
   -0.54350E+08         0.22331E+07         0.00000E+00
    0.22331E+07        -0.50186E+08         0.00000E+00
    0.00000E+00         0.00000E+00        -0.53668E+08
 
   -0.54301E+08         0.22891E+07         0.00000E+00
    0.22891E+07        -0.50198E+08         0.00000E+00
    0.00000E+00         0.00000E+00        -0.53666E+08
 
   -0.54252E+08         0.23451E+07         0.00000E+00
    0.23451E+07        -0.50211E+08         0.00000E+00
    0.00000E+00         0.00000E+00        -0.53665E+08
 
   -0.54203E+08         0.24011E+07         0.00000E+00
    0.24011E+07        -0.50225E+08         0.00000E+00
    0.00000E+00         0.00000E+00        -0.53664E+08
 
   -0.54155E+08         0.24572E+07         0.00000E+00
    0.24572E+07        -0.50240E+08         0.00000E+00
    0.00000E+00         0.00000E+00        -0.53662E+08
 
   -0.54107E+08         0.25133E+07         0.00000E+00
    0.25133E+07        -0.50255E+08         0.00000E+00
    0.00000E+00         0.00000E+00        -0.53661E+08
 
   -0.54059E+08         0.25694E+07         0.00000E+00
    0.25694E+07        -0.50271E+08         0.00000E+00
    0.00000E+00         0.00000E+00        -0.53660E+08
 
   -0.54012E+08         0.26257E+07         0.00000E+00
    0.26257E+07        -0.50287E+08         0.00000E+00
    0.00000E+00         0.00000E+00        -0.53659E+08
 
   -0.53964E+08         0.26820E+07         0.00000E+00
    0.26820E+07        -0.50305E+08         0.00000E+00
    0.00000E+00         0.00000E+00        -0.53658E+08
 
   -0.53916E+08         0.27384E+07         0.00000E+00
    0.27384E+07        -0.50323E+08         0.00000E+00
    0.00000E+00         0.00000E+00        -0.53658E+08
 
   -0.53869E+08         0.27949E+07         0.00000E+00
    0.27949E+07        -0.50342E+08         0.00000E+00
    0.00000E+00         0.00000E+00        -0.53657E+08
 
   -0.53822E+08         0.28515E+07         0.00000E+00
    0.28515E+07        -0.50362E+08         0.00000E+00
    0.00000E+00         0.00000E+00        -0.53656E+08
 
   -0.53774E+08         0.29083E+07         0.00000E+00
    0.29083E+07        -0.50383E+08         0.00000E+00
    0.00000E+00         0.00000E+00        -0.53656E+08
 
   -0.53727E+08         0.29651E+07         0.00000E+00
    0.29651E+07        -0.50405E+08         0.00000E+00
    0.00000E+00         0.00000E+00        -0.53656E+08
 
   -0.53679E+08         0.30220E+07         0.00000E+00
    0.30220E+07        -0.50428E+08         0.00000E+00
    0.00000E+00         0.00000E+00        -0.53656E+08
 
   -0.55981E+08         0.39903E+05         0.00000E+00
    0.39903E+05        -0.50000E+08         0.00000E+00
    0.00000E+00         0.00000E+00        -0.53455E+08
 
   -0.55924E+08         0.11573E+06         0.00000E+00
    0.11573E+06        -0.50001E+08         0.00000E+00
    0.00000E+00         0.00000E+00        -0.53455E+08
 
   -0.55867E+08         0.19016E+06         0.00000E+00
    0.19016E+06        -0.50002E+08         0.00000E+00
    0.00000E+00         0.00000E+00        -0.53454E+08
 
   -0.55809E+08         0.26327E+06         0.00000E+00
    0.26327E+06        -0.50003E+08         0.00000E+00
    0.00000E+00         0.00000E+00        -0.53454E+08
 
   -0.55752E+08         0.33508E+06         0.00000E+00
    0.33508E+06        -0.50005E+08         0.00000E+00
    0.00000E+00         0.00000E+00        -0.53453E+08
 
   -0.55694E+08         0.40565E+06         0.00000E+00
    0.40565E+06        -0.50007E+08         0.00000E+00
    0.00000E+00         0.00000E+00        -0.53452E+08
 
   -0.55636E+08         0.47504E+06         0.00000E+00
    0.47504E+06        -0.50009E+08         0.00000E+00
    0.00000E+00         0.00000E+00        -0.53451E+08
 
   -0.55578E+08         0.54329E+06         0.00000E+00
    0.54329E+06        -0.50012E+08         0.00000E+00
    0.00000E+00         0.00000E+00        -0.53450E+08
 
   -0.55521E+08         0.61044E+06         0.00000E+00
    0.61044E+06        -0.50015E+08         0.00000E+00
    0.00000E+00         0.00000E+00        -0.53448E+08
 
   -0.55463E+08         0.67656E+06         0.00000E+00
    0.67656E+06        -0.50019E+08         0.00000E+00
    0.00000E+00         0.00000E+00        -0.53447E+08
 
   -0.55406E+08         0.74168E+06         0.00000E+00
    0.74168E+06        -0.50023E+08         0.00000E+00
    0.00000E+00         0.00000E+00        -0.53445E+08
 
   -0.55349E+08         0.80585E+06         0.00000E+00
    0.80585E+06        -0.50027E+08         0.00000E+00
    0.00000E+00         0.00000E+00        -0.53443E+08
 
   -0.55292E+08         0.86913E+06         0.00000E+00
    0.86913E+06        -0.50031E+08         0.00000E+00
    0.00000E+00         0.00000E+00        -0.53442E+08
 
   -0.55235E+08         0.93155E+06         0.00000E+00
    0.93155E+06        -0.50036E+08         0.00000E+00
    0.00000E+00         0.00000E+00        -0.53440E+08
 
   -0.55179E+08         0.99317E+06         0.00000E+00
    0.99317E+06        -0.50041E+08         0.00000E+00
    0.00000E+00         0.00000E+00        -0.53438E+08
 
   -0.55123E+08         0.10540E+07         0.00000E+00
    0.10540E+07        -0.50046E+08         0.00000E+00
    0.00000E+00         0.00000E+00        -0.53436E+08
 
   -0.55067E+08         0.11142E+07         0.00000E+00
    0.11142E+07        -0.50052E+08         0.00000E+00
    0.00000E+00         0.00000E+00        -0.53434E+08
 
   -0.55012E+08         0.11736E+07         0.00000E+00
    0.11736E+07        -0.50058E+08         0.00000E+00
    0.00000E+00         0.00000E+00        -0.53432E+08
 
   -0.54957E+08         0.12324E+07         0.00000E+00
    0.12324E+07        -0.50064E+08         0.00000E+00
    0.00000E+00         0.00000E+00        -0.53429E+08
 
   -0.54902E+08         0.12907E+07         0.00000E+00
    0.12907E+07        -0.50070E+08         0.00000E+00
    0.00000E+00         0.00000E+00        -0.53427E+08
 
   -0.54848E+08         0.13483E+07         0.00000E+00
    0.13483E+07        -0.50077E+08         0.00000E+00
    0.00000E+00         0.00000E+00        -0.53425E+08
 
   -0.54794E+08         0.14055E+07         0.00000E+00
    0.14055E+07        -0.50084E+08         0.00000E+00
    0.00000E+00         0.00000E+00        -0.53423E+08
 
   -0.54740E+08         0.14622E+07         0.00000E+00
    0.14622E+07        -0.50091E+08         0.00000E+00
    0.00000E+00         0.00000E+00        -0.53421E+08
 
   -0.54687E+08         0.15184E+07         0.00000E+00
    0.15184E+07        -0.50099E+08         0.00000E+00
    0.00000E+00         0.00000E+00        -0.53418E+08
 
   -0.54634E+08         0.15742E+07         0.00000E+00
    0.15742E+07        -0.50107E+08         0.00000E+00
    0.00000E+00         0.00000E+00        -0.53416E+08
 
   -0.54582E+08         0.16296E+07         0.00000E+00
    0.16296E+07        -0.50116E+08         0.00000E+00
    0.00000E+00         0.00000E+00        -0.53414E+08
 
   -0.54530E+08         0.16847E+07         0.00000E+00
    0.16847E+07        -0.50125E+08         0.00000E+00
    0.00000E+00         0.00000E+00        -0.53412E+08
 
   -0.54478E+08         0.17395E+07         0.00000E+00
    0.17395E+07        -0.50134E+08         0.00000E+00
    0.00000E+00         0.00000E+00        -0.53410E+08
 
   -0.54427E+08         0.17939E+07         0.00000E+00
    0.17939E+07        -0.50144E+08         0.00000E+00
    0.00000E+00         0.00000E+00        -0.53408E+08
 
   -0.54376E+08         0.18481E+07         0.00000E+00
    0.18481E+07        -0.50154E+08         0.00000E+00
    0.00000E+00         0.00000E+00        -0.53406E+08
 
   -0.54326E+08         0.19021E+07         0.00000E+00
    0.19021E+07        -0.50164E+08         0.00000E+00
    0.00000E+00         0.00000E+00        -0.53404E+08
 
   -0.54275E+08         0.19558E+07         0.00000E+00
    0.19558E+07        -0.50175E+08         0.00000E+00
    0.00000E+00         0.00000E+00        -0.53402E+08
 
   -0.54225E+08         0.20093E+07         0.00000E+00
    0.20093E+07        -0.50187E+08         0.00000E+00
    0.00000E+00         0.00000E+00        -0.53400E+08
 
   -0.54176E+08         0.20627E+07         0.00000E+00
    0.20627E+07        -0.50199E+08         0.00000E+00
    0.00000E+00         0.00000E+00        -0.53398E+08
 
   -0.54126E+08         0.21159E+07         0.00000E+00
    0.21159E+07        -0.50212E+08         0.00000E+00
    0.00000E+00         0.00000E+00        -0.53396E+08
 
   -0.54077E+08         0.21690E+07         0.00000E+00
    0.21690E+07        -0.50225E+08         0.00000E+00
    0.00000E+00         0.00000E+00        -0.53395E+08
 
   -0.54028E+08         0.22219E+07         0.00000E+00
    0.22219E+07        -0.50238E+08         0.00000E+00
    0.00000E+00         0.00000E+00        -0.53393E+08
 
   -0.53980E+08         0.22748E+07         0.00000E+00
    0.22748E+07        -0.50253E+08         0.00000E+00
    0.00000E+00         0.00000E+00        -0.53392E+08
 
   -0.53931E+08         0.23275E+07         0.00000E+00
    0.23275E+07        -0.50268E+08         0.00000E+00
    0.00000E+00         0.00000E+00        -0.53390E+08
 
   -0.53883E+08         0.23802E+07         0.00000E+00
    0.23802E+07        -0.50283E+08         0.00000E+00
    0.00000E+00         0.00000E+00        -0.53389E+08
 
   -0.53835E+08         0.24329E+07         0.00000E+00
    0.24329E+07        -0.50299E+08         0.00000E+00
    0.00000E+00         0.00000E+00        -0.53388E+08
 
   -0.53787E+08         0.24854E+07         0.00000E+00
    0.24854E+07        -0.50316E+08         0.00000E+00
    0.00000E+00         0.00000E+00        -0.53387E+08
 
   -0.53739E+08         0.25380E+07         0.00000E+00
    0.25380E+07        -0.50334E+08         0.00000E+00
    0.00000E+00         0.00000E+00        -0.53386E+08
 
   -0.53692E+08         0.25905E+07         0.00000E+00
    0.25905E+07        -0.50352E+08         0.00000E+00
    0.00000E+00         0.00000E+00        -0.53385E+08
 
   -0.53644E+08         0.26429E+07         0.00000E+00
    0.26429E+07        -0.50371E+08         0.00000E+00
    0.00000E+00         0.00000E+00        -0.53384E+08
 
   -0.53596E+08         0.26954E+07         0.00000E+00
    0.26954E+07        -0.50391E+08         0.00000E+00
    0.00000E+00         0.00000E+00        -0.53383E+08
 
   -0.53549E+08         0.27478E+07         0.00000E+00
    0.27478E+07        -0.50411E+08         0.00000E+00
    0.00000E+00         0.00000E+00        -0.53383E+08
 
   -0.53501E+08         0.28003E+07         0.00000E+00
    0.28003E+07        -0.50433E+08         0.00000E+00
    0.00000E+00         0.00000E+00        -0.53382E+08
 
   -0.53454E+08         0.28527E+07         0.00000E+00
    0.28527E+07        -0.50455E+08         0.00000E+00
    0.00000E+00         0.00000E+00        -0.53382E+08
 
   -0.53406E+08         0.29051E+07         0.00000E+00
    0.29051E+07        -0.50478E+08         0.00000E+00
    0.00000E+00         0.00000E+00        -0.53382E+08
 
   -0.55605E+08         0.38434E+05         0.00000E+00
    0.38434E+05        -0.50000E+08         0.00000E+00
    0.00000E+00         0.00000E+00        -0.53203E+08
 
   -0.55554E+08         0.11176E+06         0.00000E+00
    0.11176E+06        -0.50001E+08         0.00000E+00
    0.00000E+00         0.00000E+00        -0.53202E+08
 
   -0.55503E+08         0.18385E+06         0.00000E+00
    0.18385E+06        -0.50002E+08         0.00000E+00
    0.00000E+00         0.00000E+00        -0.53202E+08
 
   -0.55452E+08         0.25472E+06         0.00000E+00
    0.25472E+06        -0.50003E+08         0.00000E+00
    0.00000E+00         0.00000E+00        -0.53202E+08
 
   -0.55401E+08         0.32443E+06         0.00000E+00
    0.32443E+06        -0.50005E+08         0.00000E+00
    0.00000E+00         0.00000E+00        -0.53201E+08
 
   -0.55349E+08         0.39301E+06         0.00000E+00
    0.39301E+06        -0.50008E+08         0.00000E+00
    0.00000E+00         0.00000E+00        -0.53200E+08
 
   -0.55297E+08         0.46049E+06         0.00000E+00
    0.46049E+06        -0.50011E+08         0.00000E+00
    0.00000E+00         0.00000E+00        -0.53199E+08
 
   -0.55244E+08         0.52691E+06         0.00000E+00
    0.52691E+06        -0.50014E+08         0.00000E+00
    0.00000E+00         0.00000E+00        -0.53198E+08
 
   -0.55192E+08         0.59231E+06         0.00000E+00
    0.59231E+06        -0.50018E+08         0.00000E+00
    0.00000E+00         0.00000E+00        -0.53196E+08
 
   -0.55139E+08         0.65672E+06         0.00000E+00
    0.65672E+06        -0.50022E+08         0.00000E+00
    0.00000E+00         0.00000E+00        -0.53195E+08
 
   -0.55087E+08         0.72019E+06         0.00000E+00
    0.72019E+06        -0.50026E+08         0.00000E+00
    0.00000E+00         0.00000E+00        -0.53193E+08
 
   -0.55034E+08         0.78276E+06         0.00000E+00
    0.78276E+06        -0.50031E+08         0.00000E+00
    0.00000E+00         0.00000E+00        -0.53191E+08
 
   -0.54981E+08         0.84445E+06         0.00000E+00
    0.84445E+06        -0.50036E+08         0.00000E+00
    0.00000E+00         0.00000E+00        -0.53190E+08
 
   -0.54929E+08         0.90531E+06         0.00000E+00
    0.90531E+06        -0.50042E+08         0.00000E+00
    0.00000E+00         0.00000E+00        -0.53188E+08
 
   -0.54876E+08         0.96538E+06         0.00000E+00
    0.96538E+06        -0.50047E+08         0.00000E+00
    0.00000E+00         0.00000E+00        -0.53186E+08
 
   -0.54824E+08         0.10247E+07         0.00000E+00
    0.10247E+07        -0.50053E+08         0.00000E+00
    0.00000E+00         0.00000E+00        -0.53184E+08
 
   -0.54772E+08         0.10833E+07         0.00000E+00
    0.10833E+07        -0.50060E+08         0.00000E+00
    0.00000E+00         0.00000E+00        -0.53182E+08
 
   -0.54720E+08         0.11412E+07         0.00000E+00
    0.11412E+07        -0.50067E+08         0.00000E+00
    0.00000E+00         0.00000E+00        -0.53180E+08
 
   -0.54668E+08         0.11984E+07         0.00000E+00
    0.11984E+07        -0.50074E+08         0.00000E+00
    0.00000E+00         0.00000E+00        -0.53178E+08
 
   -0.54616E+08         0.12550E+07         0.00000E+00
    0.12550E+07        -0.50081E+08         0.00000E+00
    0.00000E+00         0.00000E+00        -0.53176E+08
 
   -0.54565E+08         0.13110E+07         0.00000E+00
    0.13110E+07        -0.50089E+08         0.00000E+00
    0.00000E+00         0.00000E+00        -0.53173E+08
 
   -0.54513E+08         0.13665E+07         0.00000E+00
    0.13665E+07        -0.50097E+08         0.00000E+00
    0.00000E+00         0.00000E+00        -0.53171E+08
 
   -0.54462E+08         0.14214E+07         0.00000E+00
    0.14214E+07        -0.50106E+08         0.00000E+00
    0.00000E+00         0.00000E+00        -0.53169E+08
 
   -0.54411E+08         0.14758E+07         0.00000E+00
    0.14758E+07        -0.50115E+08         0.00000E+00
    0.00000E+00         0.00000E+00        -0.53167E+08
 
   -0.54361E+08         0.15298E+07         0.00000E+00
    0.15298E+07        -0.50124E+08         0.00000E+00
    0.00000E+00         0.00000E+00        -0.53165E+08
 
   -0.54310E+08         0.15833E+07         0.00000E+00
    0.15833E+07        -0.50133E+08         0.00000E+00
    0.00000E+00         0.00000E+00        -0.53162E+08
 
   -0.54260E+08         0.16364E+07         0.00000E+00
    0.16364E+07        -0.50143E+08         0.00000E+00
    0.00000E+00         0.00000E+00        -0.53160E+08
 
   -0.54210E+08         0.16891E+07         0.00000E+00
    0.16891E+07        -0.50154E+08         0.00000E+00
    0.00000E+00         0.00000E+00        -0.53158E+08
 
   -0.54161E+08         0.17415E+07         0.00000E+00
    0.17415E+07        -0.50164E+08         0.00000E+00
    0.00000E+00         0.00000E+00        -0.53156E+08
 
   -0.54111E+08         0.17935E+07         0.00000E+00
    0.17935E+07        -0.50176E+08         0.00000E+00
    0.00000E+00         0.00000E+00        -0.53154E+08
 
   -0.54062E+08         0.18452E+07         0.00000E+00
    0.18452E+07        -0.50187E+08         0.00000E+00
    0.00000E+00         0.00000E+00        -0.53152E+08
 
   -0.54013E+08         0.18966E+07         0.00000E+00
    0.18966E+07        -0.50199E+08         0.00000E+00
    0.00000E+00         0.00000E+00        -0.53150E+08
 
   -0.53964E+08         0.19477E+07         0.00000E+00
    0.19477E+07        -0.50212E+08         0.00000E+00
    0.00000E+00         0.00000E+00        -0.53148E+08
 
   -0.53916E+08         0.19985E+07         0.00000E+00
    0.19985E+07        -0.50225E+08         0.00000E+00
    0.00000E+00         0.00000E+00        -0.53146E+08
 
   -0.53867E+08         0.20491E+07         0.00000E+00
    0.20491E+07        -0.50239E+08         0.00000E+00
    0.00000E+00         0.00000E+00        -0.53145E+08
 
   -0.53819E+08         0.20995E+07         0.00000E+00
    0.20995E+07        -0.50253E+08         0.00000E+00
    0.00000E+00         0.00000E+00        -0.53143E+08
 
   -0.53771E+08         0.21497E+07         0.00000E+00
    0.21497E+07        -0.50267E+08         0.00000E+00
    0.00000E+00         0.00000E+00        -0.53141E+08
 
   -0.53723E+08         0.21996E+07         0.00000E+00
    0.21996E+07        -0.50282E+08         0.00000E+00
    0.00000E+00         0.00000E+00        -0.53140E+08
 
   -0.53675E+08         0.22494E+07         0.00000E+00
    0.22494E+07        -0.50298E+08         0.00000E+00
    0.00000E+00         0.00000E+00        -0.53139E+08
 
   -0.53628E+08         0.22990E+07         0.00000E+00
    0.22990E+07        -0.50314E+08         0.00000E+00
    0.00000E+00         0.00000E+00        -0.53137E+08
 
   -0.53580E+08         0.23485E+07         0.00000E+00
    0.23485E+07        -0.50331E+08         0.00000E+00
    0.00000E+00         0.00000E+00        -0.53136E+08
 
   -0.53533E+08         0.23978E+07         0.00000E+00
    0.23978E+07        -0.50349E+08         0.00000E+00
    0.00000E+00         0.00000E+00        -0.53135E+08
 
   -0.53485E+08         0.24470E+07         0.00000E+00
    0.24470E+07        -0.50367E+08         0.00000E+00
    0.00000E+00         0.00000E+00        -0.53134E+08
 
   -0.53438E+08         0.24961E+07         0.00000E+00
    0.24961E+07        -0.50385E+08         0.00000E+00
    0.00000E+00         0.00000E+00        -0.53133E+08
 
   -0.53391E+08         0.25450E+07         0.00000E+00
    0.25450E+07        -0.50405E+08         0.00000E+00
    0.00000E+00         0.00000E+00        -0.53132E+08
 
   -0.53343E+08         0.25938E+07         0.00000E+00
    0.25938E+07        -0.50425E+08         0.00000E+00
    0.00000E+00         0.00000E+00        -0.53132E+08
 
   -0.53296E+08         0.26425E+07         0.00000E+00
    0.26425E+07        -0.50446E+08         0.00000E+00
    0.00000E+00         0.00000E+00        -0.53131E+08
 
   -0.53249E+08         0.26911E+07         0.00000E+00
    0.26911E+07        -0.50467E+08         0.00000E+00
    0.00000E+00         0.00000E+00        -0.53131E+08
 
   -0.53202E+08         0.27396E+07         0.00000E+00
    0.27396E+07        -0.50489E+08         0.00000E+00
    0.00000E+00         0.00000E+00        -0.53130E+08
 
   -0.53154E+08         0.27880E+07         0.00000E+00
    0.27880E+07        -0.50512E+08         0.00000E+00
    0.00000E+00         0.00000E+00        -0.53130E+08
 
   -0.55242E+08         0.36857E+05         0.00000E+00
    0.36857E+05        -0.50000E+08         0.00000E+00
    0.00000E+00         0.00000E+00        -0.52969E+08
 
   -0.55197E+08         0.10744E+06         0.00000E+00
    0.10744E+06        -0.50001E+08         0.00000E+00
    0.00000E+00         0.00000E+00        -0.52969E+08
 
   -0.55152E+08         0.17692E+06         0.00000E+00
    0.17692E+06        -0.50002E+08         0.00000E+00
    0.00000E+00         0.00000E+00        -0.52969E+08
 
   -0.55107E+08         0.24531E+06         0.00000E+00
    0.24531E+06        -0.50004E+08         0.00000E+00
    0.00000E+00         0.00000E+00        -0.52968E+08
 
   -0.55061E+08         0.31265E+06         0.00000E+00
    0.31265E+06        -0.50006E+08         0.00000E+00
    0.00000E+00         0.00000E+00        -0.52967E+08
 
   -0.55014E+08         0.37895E+06         0.00000E+00
    0.37895E+06        -0.50008E+08         0.00000E+00
    0.00000E+00         0.00000E+00        -0.52966E+08
 
   -0.54967E+08         0.44426E+06         0.00000E+00
    0.44426E+06        -0.50012E+08         0.00000E+00
    0.00000E+00         0.00000E+00        -0.52965E+08
 
   -0.54920E+08         0.50859E+06         0.00000E+00
    0.50859E+06        -0.50015E+08         0.00000E+00
    0.00000E+00         0.00000E+00        -0.52964E+08
 
   -0.54872E+08         0.57198E+06         0.00000E+00
    0.57198E+06        -0.50019E+08         0.00000E+00
    0.00000E+00         0.00000E+00        -0.52963E+08
 
   -0.54824E+08         0.63444E+06         0.00000E+00
    0.63444E+06        -0.50024E+08         0.00000E+00
    0.00000E+00         0.00000E+00        -0.52961E+08
 
   -0.54776E+08         0.69602E+06         0.00000E+00
    0.69602E+06        -0.50028E+08         0.00000E+00
    0.00000E+00         0.00000E+00        -0.52960E+08
 
   -0.54728E+08         0.75674E+06         0.00000E+00
    0.75674E+06        -0.50034E+08         0.00000E+00
    0.00000E+00         0.00000E+00        -0.52958E+08
 
   -0.54679E+08         0.81663E+06         0.00000E+00
    0.81663E+06        -0.50039E+08         0.00000E+00
    0.00000E+00         0.00000E+00        -0.52957E+08
 
   -0.54631E+08         0.87572E+06         0.00000E+00
    0.87572E+06        -0.50045E+08         0.00000E+00
    0.00000E+00         0.00000E+00        -0.52955E+08
 
   -0.54582E+08         0.93404E+06         0.00000E+00
    0.93404E+06        -0.50052E+08         0.00000E+00
    0.00000E+00         0.00000E+00        -0.52953E+08
 
   -0.54533E+08         0.99161E+06         0.00000E+00
    0.99161E+06        -0.50058E+08         0.00000E+00
    0.00000E+00         0.00000E+00        -0.52951E+08
 
   -0.54485E+08         0.10485E+07         0.00000E+00
    0.10485E+07        -0.50065E+08         0.00000E+00
    0.00000E+00         0.00000E+00        -0.52949E+08
 
   -0.54436E+08         0.11046E+07         0.00000E+00
    0.11046E+07        -0.50073E+08         0.00000E+00
    0.00000E+00         0.00000E+00        -0.52947E+08
 
   -0.54387E+08         0.11601E+07         0.00000E+00
    0.11601E+07        -0.50081E+08         0.00000E+00
    0.00000E+00         0.00000E+00        -0.52945E+08
 
   -0.54339E+08         0.12150E+07         0.00000E+00
    0.12150E+07        -0.50089E+08         0.00000E+00
    0.00000E+00         0.00000E+00        -0.52943E+08
 
   -0.54290E+08         0.12693E+07         0.00000E+00
    0.12693E+07        -0.50097E+08         0.00000E+00
    0.00000E+00         0.00000E+00        -0.52941E+08
 
   -0.54242E+08         0.13230E+07         0.00000E+00
    0.13230E+07        -0.50106E+08         0.00000E+00
    0.00000E+00         0.00000E+00        -0.52938E+08
 
   -0.54193E+08         0.13761E+07         0.00000E+00
    0.13761E+07        -0.50115E+08         0.00000E+00
    0.00000E+00         0.00000E+00        -0.52936E+08
 
   -0.54145E+08         0.14287E+07         0.00000E+00
    0.14287E+07        -0.50125E+08         0.00000E+00
    0.00000E+00         0.00000E+00        -0.52934E+08
 
   -0.54097E+08         0.14808E+07         0.00000E+00
    0.14808E+07        -0.50135E+08         0.00000E+00
    0.00000E+00         0.00000E+00        -0.52932E+08
 
   -0.54049E+08         0.15324E+07         0.00000E+00
    0.15324E+07        -0.50145E+08         0.00000E+00
    0.00000E+00         0.00000E+00        -0.52930E+08
 
   -0.54001E+08         0.15836E+07         0.00000E+00
    0.15836E+07        -0.50156E+08         0.00000E+00
    0.00000E+00         0.00000E+00        -0.52928E+08
 
   -0.53953E+08         0.16343E+07         0.00000E+00
    0.16343E+07        -0.50167E+08         0.00000E+00
    0.00000E+00         0.00000E+00        -0.52926E+08
 
   -0.53905E+08         0.16846E+07         0.00000E+00
    0.16846E+07        -0.50179E+08         0.00000E+00
    0.00000E+00         0.00000E+00        -0.52924E+08
 
   -0.53857E+08         0.17345E+07         0.00000E+00
    0.17345E+07        -0.50191E+08         0.00000E+00
    0.00000E+00         0.00000E+00        -0.52922E+08
 
   -0.53810E+08         0.17840E+07         0.00000E+00
    0.17840E+07        -0.50203E+08         0.00000E+00
    0.00000E+00         0.00000E+00        -0.52920E+08
 
   -0.53762E+08         0.18331E+07         0.00000E+00
    0.18331E+07        -0.50216E+08         0.00000E+00
    0.00000E+00         0.00000E+00        -0.52918E+08
 
   -0.53715E+08         0.18819E+07         0.00000E+00
    0.18819E+07        -0.50229E+08         0.00000E+00
    0.00000E+00         0.00000E+00        -0.52916E+08
 
   -0.53668E+08         0.19304E+07         0.00000E+00
    0.19304E+07        -0.50243E+08         0.00000E+00
    0.00000E+00         0.00000E+00        -0.52914E+08
 
   -0.53621E+08         0.19786E+07         0.00000E+00
    0.19786E+07        -0.50257E+08         0.00000E+00
    0.00000E+00         0.00000E+00        -0.52912E+08
 
   -0.53574E+08         0.20265E+07         0.00000E+00
    0.20265E+07        -0.50271E+08         0.00000E+00
    0.00000E+00         0.00000E+00        -0.52911E+08
 
   -0.53527E+08         0.20740E+07         0.00000E+00
    0.20740E+07        -0.50286E+08         0.00000E+00
    0.00000E+00         0.00000E+00        -0.52909E+08
 
   -0.53480E+08         0.21214E+07         0.00000E+00
    0.21214E+07        -0.50302E+08         0.00000E+00
    0.00000E+00         0.00000E+00        -0.52908E+08
 
   -0.53434E+08         0.21684E+07         0.00000E+00
    0.21684E+07        -0.50318E+08         0.00000E+00
    0.00000E+00         0.00000E+00        -0.52906E+08
 
   -0.53387E+08         0.22153E+07         0.00000E+00
    0.22153E+07        -0.50335E+08         0.00000E+00
    0.00000E+00         0.00000E+00        -0.52905E+08
 
   -0.53340E+08         0.22618E+07         0.00000E+00
    0.22618E+07        -0.50352E+08         0.00000E+00
    0.00000E+00         0.00000E+00        -0.52904E+08
 
   -0.53294E+08         0.23082E+07         0.00000E+00
    0.23082E+07        -0.50370E+08         0.00000E+00
    0.00000E+00         0.00000E+00        -0.52903E+08
 
   -0.53247E+08         0.23543E+07         0.00000E+00
    0.23543E+07        -0.50388E+08         0.00000E+00
    0.00000E+00         0.00000E+00        -0.52902E+08
 
   -0.53201E+08         0.24003E+07         0.00000E+00
    0.24003E+07        -0.50407E+08         0.00000E+00
    0.00000E+00         0.00000E+00        -0.52901E+08
 
   -0.53154E+08         0.24460E+07         0.00000E+00
    0.24460E+07        -0.50427E+08         0.00000E+00
    0.00000E+00         0.00000E+00        -0.52900E+08
 
   -0.53108E+08         0.24915E+07         0.00000E+00
    0.24915E+07        -0.50447E+08         0.00000E+00
    0.00000E+00         0.00000E+00        -0.52899E+08
 
   -0.53061E+08         0.25369E+07         0.00000E+00
    0.25369E+07        -0.50467E+08         0.00000E+00
    0.00000E+00         0.00000E+00        -0.52899E+08
 
   -0.53015E+08         0.25820E+07         0.00000E+00
    0.25820E+07        -0.50489E+08         0.00000E+00
    0.00000E+00         0.00000E+00        -0.52899E+08
 
   -0.52968E+08         0.26270E+07         0.00000E+00
    0.26270E+07        -0.50511E+08         0.00000E+00
    0.00000E+00         0.00000E+00        -0.52898E+08
 
   -0.52921E+08         0.26718E+07         0.00000E+00
    0.26718E+07        -0.50534E+08         0.00000E+00
    0.00000E+00         0.00000E+00        -0.52898E+08
 
   -0.54893E+08         0.35227E+05         0.00000E+00
    0.35227E+05        -0.50000E+08         0.00000E+00
    0.00000E+00         0.00000E+00        -0.52752E+08
 
   -0.54854E+08         0.10292E+06         0.00000E+00
    0.10292E+06        -0.50001E+08         0.00000E+00
    0.00000E+00         0.00000E+00        -0.52752E+08
 
   -0.54814E+08         0.16964E+06         0.00000E+00
    0.16964E+06        -0.50002E+08         0.00000E+00
    0.00000E+00         0.00000E+00        -0.52752E+08
 
   -0.54774E+08         0.23539E+06         0.00000E+00
    0.23539E+06        -0.50004E+08         0.00000E+00
    0.00000E+00         0.00000E+00        -0.52751E+08
 
   -0.54733E+08         0.30019E+06         0.00000E+00
    0.30019E+06        -0.50006E+08         0.00000E+00
    0.00000E+00         0.00000E+00        -0.52750E+08
 
   -0.54691E+08         0.36406E+06         0.00000E+00
    0.36406E+06        -0.50009E+08         0.00000E+00
    0.00000E+00         0.00000E+00        -0.52750E+08
 
   -0.54649E+08         0.42702E+06         0.00000E+00
    0.42702E+06        -0.50012E+08         0.00000E+00
    0.00000E+00         0.00000E+00        -0.52749E+08
 
   -0.54606E+08         0.48909E+06         0.00000E+00
    0.48909E+06        -0.50016E+08         0.00000E+00
    0.00000E+00         0.00000E+00        -0.52747E+08
 
   -0.54563E+08         0.55028E+06         0.00000E+00
    0.55028E+06        -0.50020E+08         0.00000E+00
    0.00000E+00         0.00000E+00        -0.52746E+08
 
   -0.54519E+08         0.61063E+06         0.00000E+00
    0.61063E+06        -0.50025E+08         0.00000E+00
    0.00000E+00         0.00000E+00        -0.52745E+08
 
   -0.54475E+08         0.67015E+06         0.00000E+00
    0.67015E+06        -0.50030E+08         0.00000E+00
    0.00000E+00         0.00000E+00        -0.52743E+08
 
   -0.54431E+08         0.72887E+06         0.00000E+00
    0.72887E+06        -0.50035E+08         0.00000E+00
    0.00000E+00         0.00000E+00        -0.52742E+08
 
   -0.54387E+08         0.78680E+06         0.00000E+00
    0.78680E+06        -0.50041E+08         0.00000E+00
    0.00000E+00         0.00000E+00        -0.52740E+08
 
   -0.54342E+08         0.84397E+06         0.00000E+00
    0.84397E+06        -0.50047E+08         0.00000E+00
    0.00000E+00         0.00000E+00        -0.52738E+08
 
   -0.54297E+08         0.90040E+06         0.00000E+00
    0.90040E+06        -0.50054E+08         0.00000E+00
    0.00000E+00         0.00000E+00        -0.52737E+08
 
   -0.54252E+08         0.95611E+06         0.00000E+00
    0.95611E+06        -0.50061E+08         0.00000E+00
    0.00000E+00         0.00000E+00        -0.52735E+08
 
   -0.54207E+08         0.10111E+07         0.00000E+00
    0.10111E+07        -0.50069E+08         0.00000E+00
    0.00000E+00         0.00000E+00        -0.52733E+08
 
   -0.54161E+08         0.10655E+07         0.00000E+00
    0.10655E+07        -0.50076E+08         0.00000E+00
    0.00000E+00         0.00000E+00        -0.52731E+08
 
   -0.54116E+08         0.11192E+07         0.00000E+00
    0.11192E+07        -0.50085E+08         0.00000E+00
    0.00000E+00         0.00000E+00        -0.52729E+08
 
   -0.54070E+08         0.11722E+07         0.00000E+00
    0.11722E+07        -0.50093E+08         0.00000E+00
    0.00000E+00         0.00000E+00        -0.52727E+08
 
   -0.54025E+08         0.12247E+07         0.00000E+00
    0.12247E+07        -0.50102E+08         0.00000E+00
    0.00000E+00         0.00000E+00        -0.52725E+08
 
   -0.53979E+08         0.12765E+07         0.00000E+00
    0.12765E+07        -0.50111E+08         0.00000E+00
    0.00000E+00         0.00000E+00        -0.52723E+08
 
   -0.53933E+08         0.13278E+07         0.00000E+00
    0.13278E+07        -0.50121E+08         0.00000E+00
    0.00000E+00         0.00000E+00        -0.52721E+08
 
   -0.53888E+08         0.13786E+07         0.00000E+00
    0.13786E+07        -0.50131E+08         0.00000E+00
    0.00000E+00         0.00000E+00        -0.52718E+08
 
   -0.53842E+08         0.14288E+07         0.00000E+00
    0.14288E+07        -0.50142E+08         0.00000E+00
    0.00000E+00         0.00000E+00        -0.52716E+08
 
   -0.53796E+08         0.14785E+07         0.00000E+00
    0.14785E+07        -0.50152E+08         0.00000E+00
    0.00000E+00         0.00000E+00        -0.52714E+08
 
   -0.53751E+08         0.15277E+07         0.00000E+00
    0.15277E+07        -0.50164E+08         0.00000E+00
    0.00000E+00         0.00000E+00        -0.52712E+08
 
   -0.53705E+08         0.15765E+07         0.00000E+00
    0.15765E+07        -0.50175E+08         0.00000E+00
    0.00000E+00         0.00000E+00        -0.52710E+08
 
   -0.53659E+08         0.16247E+07         0.00000E+00
    0.16247E+07        -0.50187E+08         0.00000E+00
    0.00000E+00         0.00000E+00        -0.52708E+08
 
   -0.53614E+08         0.16726E+07         0.00000E+00
    0.16726E+07        -0.50199E+08         0.00000E+00
    0.00000E+00         0.00000E+00        -0.52706E+08
 
   -0.53568E+08         0.17200E+07         0.00000E+00
    0.17200E+07        -0.50212E+08         0.00000E+00
    0.00000E+00         0.00000E+00        -0.52704E+08
 
   -0.53523E+08         0.17671E+07         0.00000E+00
    0.17671E+07        -0.50225E+08         0.00000E+00
    0.00000E+00         0.00000E+00        -0.52703E+08
 
   -0.53477E+08         0.18137E+07         0.00000E+00
    0.18137E+07        -0.50239E+08         0.00000E+00
    0.00000E+00         0.00000E+00        -0.52701E+08
 
   -0.53432E+08         0.18600E+07         0.00000E+00
    0.18600E+07        -0.50253E+08         0.00000E+00
    0.00000E+00         0.00000E+00        -0.52699E+08
 
   -0.53386E+08         0.19058E+07         0.00000E+00
    0.19058E+07        -0.50267E+08         0.00000E+00
    0.00000E+00         0.00000E+00        -0.52697E+08
 
   -0.53341E+08         0.19514E+07         0.00000E+00
    0.19514E+07        -0.50282E+08         0.00000E+00
    0.00000E+00         0.00000E+00        -0.52696E+08
 
   -0.53296E+08         0.19966E+07         0.00000E+00
    0.19966E+07        -0.50298E+08         0.00000E+00
    0.00000E+00         0.00000E+00        -0.52694E+08
 
   -0.53251E+08         0.20415E+07         0.00000E+00
    0.20415E+07        -0.50314E+08         0.00000E+00
    0.00000E+00         0.00000E+00        -0.52693E+08
 
   -0.53205E+08         0.20860E+07         0.00000E+00
    0.20860E+07        -0.50330E+08         0.00000E+00
    0.00000E+00         0.00000E+00        -0.52691E+08
 
   -0.53160E+08         0.21303E+07         0.00000E+00
    0.21303E+07        -0.50347E+08         0.00000E+00
    0.00000E+00         0.00000E+00        -0.52690E+08
 
   -0.53115E+08         0.21743E+07         0.00000E+00
    0.21743E+07        -0.50364E+08         0.00000E+00
    0.00000E+00         0.00000E+00        -0.52689E+08
 
   -0.53069E+08         0.22179E+07         0.00000E+00
    0.22179E+07        -0.50382E+08         0.00000E+00
    0.00000E+00         0.00000E+00        -0.52688E+08
 
   -0.53024E+08         0.22613E+07         0.00000E+00
    0.22613E+07        -0.50400E+08         0.00000E+00
    0.00000E+00         0.00000E+00        -0.52687E+08
 
   -0.52979E+08         0.23044E+07         0.00000E+00
    0.23044E+07        -0.50419E+08         0.00000E+00
    0.00000E+00         0.00000E+00        -0.52686E+08
 
   -0.52934E+08         0.23473E+07         0.00000E+00
    0.23473E+07        -0.50438E+08         0.00000E+00
    0.00000E+00         0.00000E+00        -0.52685E+08
 
   -0.52888E+08         0.23899E+07         0.00000E+00
    0.23899E+07        -0.50458E+08         0.00000E+00
    0.00000E+00         0.00000E+00        -0.52685E+08
 
   -0.52843E+08         0.24322E+07         0.00000E+00
    0.24322E+07        -0.50479E+08         0.00000E+00
    0.00000E+00         0.00000E+00        -0.52684E+08
 
   -0.52797E+08         0.24743E+07         0.00000E+00
    0.24743E+07        -0.50500E+08         0.00000E+00
    0.00000E+00         0.00000E+00        -0.52684E+08
 
   -0.52752E+08         0.25161E+07         0.00000E+00
    0.25161E+07        -0.50521E+08         0.00000E+00
    0.00000E+00         0.00000E+00        -0.52683E+08
 
   -0.52706E+08         0.25577E+07         0.00000E+00
    0.25577E+07        -0.50544E+08         0.00000E+00
    0.00000E+00         0.00000E+00        -0.52683E+08
 
   -0.54560E+08         0.33585E+05         0.00000E+00
    0.33585E+05        -0.50000E+08         0.00000E+00
    0.00000E+00         0.00000E+00        -0.52550E+08
 
   -0.54525E+08         0.98337E+05         0.00000E+00
    0.98337E+05        -0.50001E+08         0.00000E+00
    0.00000E+00         0.00000E+00        -0.52550E+08
 
   -0.54490E+08         0.16222E+06         0.00000E+00
    0.16222E+06        -0.50002E+08         0.00000E+00
    0.00000E+00         0.00000E+00        -0.52550E+08
 
   -0.54454E+08         0.22524E+06         0.00000E+00
    0.22524E+06        -0.50004E+08         0.00000E+00
    0.00000E+00         0.00000E+00        -0.52549E+08
 
   -0.54417E+08         0.28742E+06         0.00000E+00
    0.28742E+06        -0.50006E+08         0.00000E+00
    0.00000E+00         0.00000E+00        -0.52549E+08
 
   -0.54380E+08         0.34876E+06         0.00000E+00
    0.34876E+06        -0.50009E+08         0.00000E+00
    0.00000E+00         0.00000E+00        -0.52548E+08
 
   -0.54342E+08         0.40928E+06         0.00000E+00
    0.40928E+06        -0.50012E+08         0.00000E+00
    0.00000E+00         0.00000E+00        -0.52547E+08
 
   -0.54303E+08         0.46898E+06         0.00000E+00
    0.46898E+06        -0.50016E+08         0.00000E+00
    0.00000E+00         0.00000E+00        -0.52546E+08
 
   -0.54264E+08         0.52789E+06         0.00000E+00
    0.52789E+06        -0.50020E+08         0.00000E+00
    0.00000E+00         0.00000E+00        -0.52545E+08
 
   -0.54225E+08         0.58602E+06         0.00000E+00
    0.58602E+06        -0.50025E+08         0.00000E+00
    0.00000E+00         0.00000E+00        -0.52543E+08
 
   -0.54185E+08         0.64338E+06         0.00000E+00
    0.64338E+06        -0.50030E+08         0.00000E+00
    0.00000E+00         0.00000E+00        -0.52542E+08
 
   -0.54145E+08         0.69999E+06         0.00000E+00
    0.69999E+06        -0.50036E+08         0.00000E+00
    0.00000E+00         0.00000E+00        -0.52540E+08
 
   -0.54104E+08         0.75587E+06         0.00000E+00
    0.75587E+06        -0.50042E+08         0.00000E+00
    0.00000E+00         0.00000E+00        -0.52539E+08
 
   -0.54063E+08         0.81102E+06         0.00000E+00
    0.81102E+06        -0.50048E+08         0.00000E+00
    0.00000E+00         0.00000E+00        -0.52537E+08
 
   -0.54021E+08         0.86548E+06         0.00000E+00
    0.86548E+06        -0.50055E+08         0.00000E+00
    0.00000E+00         0.00000E+00        -0.52535E+08
 
   -0.53980E+08         0.91925E+06         0.00000E+00
    0.91925E+06        -0.50062E+08         0.00000E+00
    0.00000E+00         0.00000E+00        -0.52534E+08
 
   -0.53938E+08         0.97235E+06         0.00000E+00
    0.97235E+06        -0.50070E+08         0.00000E+00
    0.00000E+00         0.00000E+00        -0.52532E+08
 
   -0.53896E+08         0.10248E+07         0.00000E+00
    0.10248E+07        -0.50078E+08         0.00000E+00
    0.00000E+00         0.00000E+00        -0.52530E+08
 
   -0.53854E+08         0.10766E+07         0.00000E+00
    0.10766E+07        -0.50086E+08         0.00000E+00
    0.00000E+00         0.00000E+00        -0.52528E+08
 
   -0.53811E+08         0.11278E+07         0.00000E+00
    0.11278E+07        -0.50095E+08         0.00000E+00
    0.00000E+00         0.00000E+00        -0.52526E+08
 
   -0.53768E+08         0.11784E+07         0.00000E+00
    0.11784E+07        -0.50104E+08         0.00000E+00
    0.00000E+00         0.00000E+00        -0.52524E+08
 
   -0.53726E+08         0.12284E+07         0.00000E+00
    0.12284E+07        -0.50114E+08         0.00000E+00
    0.00000E+00         0.00000E+00        -0.52522E+08
 
   -0.53683E+08         0.12779E+07         0.00000E+00
    0.12779E+07        -0.50124E+08         0.00000E+00
    0.00000E+00         0.00000E+00        -0.52520E+08
 
   -0.53640E+08         0.13267E+07         0.00000E+00
    0.13267E+07        -0.50134E+08         0.00000E+00
    0.00000E+00         0.00000E+00        -0.52518E+08
 
   -0.53597E+08         0.13751E+07         0.00000E+00
    0.13751E+07        -0.50145E+08         0.00000E+00
    0.00000E+00         0.00000E+00        -0.52516E+08
 
   -0.53554E+08         0.14229E+07         0.00000E+00
    0.14229E+07        -0.50156E+08         0.00000E+00
    0.00000E+00         0.00000E+00        -0.52514E+08
 
   -0.53510E+08         0.14702E+07         0.00000E+00
    0.14702E+07        -0.50167E+08         0.00000E+00
    0.00000E+00         0.00000E+00        -0.52512E+08
 
   -0.53467E+08         0.15171E+07         0.00000E+00
    0.15171E+07        -0.50179E+08         0.00000E+00
    0.00000E+00         0.00000E+00        -0.52510E+08
 
   -0.53424E+08         0.15634E+07         0.00000E+00
    0.15634E+07        -0.50191E+08         0.00000E+00
    0.00000E+00         0.00000E+00        -0.52508E+08
 
   -0.53380E+08         0.16093E+07         0.00000E+00
    0.16093E+07        -0.50204E+08         0.00000E+00
    0.00000E+00         0.00000E+00        -0.52506E+08
 
   -0.53337E+08         0.16547E+07         0.00000E+00
    0.16547E+07        -0.50216E+08         0.00000E+00
    0.00000E+00         0.00000E+00        -0.52504E+08
 
   -0.53294E+08         0.16997E+07         0.00000E+00
    0.16997E+07        -0.50230E+08         0.00000E+00
    0.00000E+00         0.00000E+00        -0.52503E+08
 
   -0.53250E+08         0.17443E+07         0.00000E+00
    0.17443E+07        -0.50244E+08         0.00000E+00
    0.00000E+00         0.00000E+00        -0.52501E+08
 
   -0.53207E+08         0.17885E+07         0.00000E+00
    0.17885E+07        -0.50258E+08         0.00000E+00
    0.00000E+00         0.00000E+00        -0.52499E+08
 
   -0.53163E+08         0.18322E+07         0.00000E+00
    0.18322E+07        -0.50272E+08         0.00000E+00
    0.00000E+00         0.00000E+00        -0.52498E+08
 
   -0.53120E+08         0.18756E+07         0.00000E+00
    0.18756E+07        -0.50287E+08         0.00000E+00
    0.00000E+00         0.00000E+00        -0.52496E+08
 
   -0.53076E+08         0.19186E+07         0.00000E+00
    0.19186E+07        -0.50302E+08         0.00000E+00
    0.00000E+00         0.00000E+00        -0.52495E+08
 
   -0.53033E+08         0.19612E+07         0.00000E+00
    0.19612E+07        -0.50318E+08         0.00000E+00
    0.00000E+00         0.00000E+00        -0.52493E+08
 
   -0.52989E+08         0.20035E+07         0.00000E+00
    0.20035E+07        -0.50334E+08         0.00000E+00
    0.00000E+00         0.00000E+00        -0.52492E+08
 
   -0.52945E+08         0.20454E+07         0.00000E+00
    0.20454E+07        -0.50351E+08         0.00000E+00
    0.00000E+00         0.00000E+00        -0.52491E+08
 
   -0.52902E+08         0.20869E+07         0.00000E+00
    0.20869E+07        -0.50368E+08         0.00000E+00
    0.00000E+00         0.00000E+00        -0.52489E+08
 
   -0.52858E+08         0.21282E+07         0.00000E+00
    0.21282E+07        -0.50386E+08         0.00000E+00
    0.00000E+00         0.00000E+00        -0.52488E+08
 
   -0.52814E+08         0.21690E+07         0.00000E+00
    0.21690E+07        -0.50404E+08         0.00000E+00
    0.00000E+00         0.00000E+00        -0.52487E+08
 
   -0.52770E+08         0.22096E+07         0.00000E+00
    0.22096E+07        -0.50423E+08         0.00000E+00
    0.00000E+00         0.00000E+00        -0.52487E+08
 
   -0.52727E+08         0.22499E+07         0.00000E+00
    0.22499E+07        -0.50442E+08         0.00000E+00
    0.00000E+00         0.00000E+00        -0.52486E+08
 
   -0.52683E+08         0.22898E+07         0.00000E+00
    0.22898E+07        -0.50461E+08         0.00000E+00
    0.00000E+00         0.00000E+00        -0.52485E+08
 
   -0.52639E+08         0.23294E+07         0.00000E+00
    0.23294E+07        -0.50481E+08         0.00000E+00
    0.00000E+00         0.00000E+00        -0.52485E+08
 
   -0.52595E+08         0.23687E+07         0.00000E+00
    0.23687E+07        -0.50502E+08         0.00000E+00
    0.00000E+00         0.00000E+00        -0.52484E+08
 
   -0.52550E+08         0.24077E+07         0.00000E+00
    0.24077E+07        -0.50523E+08         0.00000E+00
    0.00000E+00         0.00000E+00        -0.52484E+08
 
   -0.52506E+08         0.24464E+07         0.00000E+00
    0.24464E+07        -0.50545E+08         0.00000E+00
    0.00000E+00         0.00000E+00        -0.52484E+08
 
   -0.54241E+08         0.31965E+05         0.00000E+00
    0.31965E+05        -0.50000E+08         0.00000E+00
    0.00000E+00         0.00000E+00        -0.52362E+08
 
   -0.54211E+08         0.93776E+05         0.00000E+00
    0.93776E+05        -0.50001E+08         0.00000E+00
    0.00000E+00         0.00000E+00        -0.52362E+08
 
   -0.54180E+08         0.15482E+06         0.00000E+00
    0.15482E+06        -0.50002E+08         0.00000E+00
    0.00000E+00         0.00000E+00        -0.52361E+08
 
   -0.54148E+08         0.21510E+06         0.00000E+00
    0.21510E+06        -0.50004E+08         0.00000E+00
    0.00000E+00         0.00000E+00        -0.52361E+08
 
   -0.54115E+08         0.27463E+06         0.00000E+00
    0.27463E+06        -0.50006E+08         0.00000E+00
    0.00000E+00         0.00000E+00        -0.52360E+08
 
   -0.54081E+08         0.33341E+06         0.00000E+00
    0.33341E+06        -0.50009E+08         0.00000E+00
    0.00000E+00         0.00000E+00        -0.52359E+08
 
   -0.54047E+08         0.39144E+06         0.00000E+00
    0.39144E+06        -0.50012E+08         0.00000E+00
    0.00000E+00         0.00000E+00        -0.52358E+08
 
   -0.54013E+08         0.44874E+06         0.00000E+00
    0.44874E+06        -0.50016E+08         0.00000E+00
    0.00000E+00         0.00000E+00        -0.52357E+08
 
   -0.53977E+08         0.50532E+06         0.00000E+00
    0.50532E+06        -0.50020E+08         0.00000E+00
    0.00000E+00         0.00000E+00        -0.52356E+08
 
   -0.53942E+08         0.56118E+06         0.00000E+00
    0.56118E+06        -0.50025E+08         0.00000E+00
    0.00000E+00         0.00000E+00        -0.52355E+08
 
   -0.53905E+08         0.61633E+06         0.00000E+00
    0.61633E+06        -0.50030E+08         0.00000E+00
    0.00000E+00         0.00000E+00        -0.52354E+08
 
   -0.53869E+08         0.67079E+06         0.00000E+00
    0.67079E+06        -0.50036E+08         0.00000E+00
    0.00000E+00         0.00000E+00        -0.52352E+08
 
   -0.53831E+08         0.72456E+06         0.00000E+00
    0.72456E+06        -0.50042E+08         0.00000E+00
    0.00000E+00         0.00000E+00        -0.52351E+08
 
   -0.53794E+08         0.77766E+06         0.00000E+00
    0.77766E+06        -0.50048E+08         0.00000E+00
    0.00000E+00         0.00000E+00        -0.52349E+08
 
   -0.53756E+08         0.83010E+06         0.00000E+00
    0.83010E+06        -0.50055E+08         0.00000E+00
    0.00000E+00         0.00000E+00        -0.52348E+08
 
   -0.53717E+08         0.88189E+06         0.00000E+00
    0.88189E+06        -0.50062E+08         0.00000E+00
    0.00000E+00         0.00000E+00        -0.52346E+08
 
   -0.53679E+08         0.93304E+06         0.00000E+00
    0.93304E+06        -0.50070E+08         0.00000E+00
    0.00000E+00         0.00000E+00        -0.52344E+08
 
   -0.53640E+08         0.98357E+06         0.00000E+00
    0.98357E+06        -0.50078E+08         0.00000E+00
    0.00000E+00         0.00000E+00        -0.52342E+08
 
   -0.53601E+08         0.10335E+07         0.00000E+00
    0.10335E+07        -0.50086E+08         0.00000E+00
    0.00000E+00         0.00000E+00        -0.52341E+08
 
   -0.53561E+08         0.10828E+07         0.00000E+00
    0.10828E+07        -0.50095E+08         0.00000E+00
    0.00000E+00         0.00000E+00        -0.52339E+08
 
   -0.53522E+08         0.11315E+07         0.00000E+00
    0.11315E+07        -0.50104E+08         0.00000E+00
    0.00000E+00         0.00000E+00        -0.52337E+08
 
   -0.53482E+08         0.11797E+07         0.00000E+00
    0.11797E+07        -0.50114E+08         0.00000E+00
    0.00000E+00         0.00000E+00        -0.52335E+08
 
   -0.53442E+08         0.12273E+07         0.00000E+00
    0.12273E+07        -0.50124E+08         0.00000E+00
    0.00000E+00         0.00000E+00        -0.52333E+08
 
   -0.53401E+08         0.12743E+07         0.00000E+00
    0.12743E+07        -0.50134E+08         0.00000E+00
    0.00000E+00         0.00000E+00        -0.52331E+08
 
   -0.53361E+08         0.13208E+07         0.00000E+00
    0.13208E+07        -0.50145E+08         0.00000E+00
    0.00000E+00         0.00000E+00        -0.52329E+08
 
   -0.53320E+08         0.13668E+07         0.00000E+00
    0.13668E+07        -0.50156E+08         0.00000E+00
    0.00000E+00         0.00000E+00        -0.52327E+08
 
   -0.53280E+08         0.14123E+07         0.00000E+00
    0.14123E+07        -0.50167E+08         0.00000E+00
    0.00000E+00         0.00000E+00        -0.52325E+08
 
   -0.53239E+08         0.14572E+07         0.00000E+00
    0.14572E+07        -0.50179E+08         0.00000E+00
    0.00000E+00         0.00000E+00        -0.52324E+08
 
   -0.53198E+08         0.15017E+07         0.00000E+00
    0.15017E+07        -0.50191E+08         0.00000E+00
    0.00000E+00         0.00000E+00        -0.52322E+08
 
   -0.53157E+08         0.15457E+07         0.00000E+00
    0.15457E+07        -0.50204E+08         0.00000E+00
    0.00000E+00         0.00000E+00        -0.52320E+08
 
   -0.53116E+08         0.15892E+07         0.00000E+00
    0.15892E+07        -0.50217E+08         0.00000E+00
    0.00000E+00         0.00000E+00        -0.52318E+08
 
   -0.53075E+08         0.16323E+07         0.00000E+00
    0.16323E+07        -0.50230E+08         0.00000E+00
    0.00000E+00         0.00000E+00        -0.52316E+08
 
   -0.53033E+08         0.16749E+07         0.00000E+00
    0.16749E+07        -0.50244E+08         0.00000E+00
    0.00000E+00         0.00000E+00        -0.52315E+08
 
   -0.52992E+08         0.17171E+07         0.00000E+00
    0.17171E+07        -0.50258E+08         0.00000E+00
    0.00000E+00         0.00000E+00        -0.52313E+08
 
   -0.52950E+08         0.17589E+07         0.00000E+00
    0.17589E+07        -0.50272E+08         0.00000E+00
    0.00000E+00         0.00000E+00        -0.52312E+08
 
   -0.52909E+08         0.18002E+07         0.00000E+00
    0.18002E+07        -0.50287E+08         0.00000E+00
    0.00000E+00         0.00000E+00        -0.52310E+08
 
   -0.52867E+08         0.18411E+07         0.00000E+00
    0.18411E+07        -0.50302E+08         0.00000E+00
    0.00000E+00         0.00000E+00        -0.52309E+08
 
   -0.52826E+08         0.18816E+07         0.00000E+00
    0.18816E+07        -0.50317E+08         0.00000E+00
    0.00000E+00         0.00000E+00        -0.52307E+08
 
   -0.52784E+08         0.19218E+07         0.00000E+00
    0.19218E+07        -0.50333E+08         0.00000E+00
    0.00000E+00         0.00000E+00        -0.52306E+08
 
   -0.52742E+08         0.19615E+07         0.00000E+00
    0.19615E+07        -0.50350E+08         0.00000E+00
    0.00000E+00         0.00000E+00        -0.52305E+08
 
   -0.52700E+08         0.20009E+07         0.00000E+00
    0.20009E+07        -0.50367E+08         0.00000E+00
    0.00000E+00         0.00000E+00        -0.52304E+08
 
   -0.52658E+08         0.20398E+07         0.00000E+00
    0.20398E+07        -0.50384E+08         0.00000E+00
    0.00000E+00         0.00000E+00        -0.52303E+08
 
   -0.52616E+08         0.20785E+07         0.00000E+00
    0.20785E+07        -0.50402E+08         0.00000E+00
    0.00000E+00         0.00000E+00        -0.52302E+08
 
   -0.52574E+08         0.21167E+07         0.00000E+00
    0.21167E+07        -0.50420E+08         0.00000E+00
    0.00000E+00         0.00000E+00        -0.52301E+08
 
   -0.52532E+08         0.21546E+07         0.00000E+00
    0.21546E+07        -0.50438E+08         0.00000E+00
    0.00000E+00         0.00000E+00        -0.52300E+08
 
   -0.52490E+08         0.21921E+07         0.00000E+00
    0.21921E+07        -0.50457E+08         0.00000E+00
    0.00000E+00         0.00000E+00        -0.52300E+08
 
   -0.52447E+08         0.22293E+07         0.00000E+00
    0.22293E+07        -0.50477E+08         0.00000E+00
    0.00000E+00         0.00000E+00        -0.52299E+08
 
   -0.52405E+08         0.22661E+07         0.00000E+00
    0.22661E+07        -0.50497E+08         0.00000E+00
    0.00000E+00         0.00000E+00        -0.52299E+08
 
   -0.52362E+08         0.23026E+07         0.00000E+00
    0.23026E+07        -0.50517E+08         0.00000E+00
    0.00000E+00         0.00000E+00        -0.52299E+08
 
   -0.52320E+08         0.23387E+07         0.00000E+00
    0.23387E+07        -0.50538E+08         0.00000E+00
    0.00000E+00         0.00000E+00        -0.52298E+08
 
   -0.53938E+08         0.30388E+05         0.00000E+00
    0.30388E+05        -0.50000E+08         0.00000E+00
    0.00000E+00         0.00000E+00        -0.52185E+08
 
   -0.53911E+08         0.89313E+05         0.00000E+00
    0.89313E+05        -0.50001E+08         0.00000E+00
    0.00000E+00         0.00000E+00        -0.52185E+08
 
   -0.53883E+08         0.14756E+06         0.00000E+00
    0.14756E+06        -0.50002E+08         0.00000E+00
    0.00000E+00         0.00000E+00        -0.52185E+08
 
   -0.53855E+08         0.20514E+06         0.00000E+00
    0.20514E+06        -0.50004E+08         0.00000E+00
    0.00000E+00         0.00000E+00        -0.52184E+08
 
   -0.53826E+08         0.26204E+06         0.00000E+00
    0.26204E+06        -0.50006E+08         0.00000E+00
    0.00000E+00         0.00000E+00        -0.52184E+08
 
   -0.53796E+08         0.31827E+06         0.00000E+00
    0.31827E+06        -0.50009E+08         0.00000E+00
    0.00000E+00         0.00000E+00        -0.52183E+08
 
   -0.53765E+08         0.37384E+06         0.00000E+00
    0.37384E+06        -0.50012E+08         0.00000E+00
    0.00000E+00         0.00000E+00        -0.52182E+08
 
   -0.53734E+08         0.42874E+06         0.00000E+00
    0.42874E+06        -0.50016E+08         0.00000E+00
    0.00000E+00         0.00000E+00        -0.52181E+08
 
   -0.53702E+08         0.48298E+06         0.00000E+00
    0.48298E+06        -0.50020E+08         0.00000E+00
    0.00000E+00         0.00000E+00        -0.52180E+08
 
   -0.53670E+08         0.53657E+06         0.00000E+00
    0.53657E+06        -0.50024E+08         0.00000E+00
    0.00000E+00         0.00000E+00        -0.52179E+08
 
   -0.53637E+08         0.58950E+06         0.00000E+00
    0.58950E+06        -0.50029E+08         0.00000E+00
    0.00000E+00         0.00000E+00        -0.52178E+08
 
   -0.53603E+08         0.64180E+06         0.00000E+00
    0.64180E+06        -0.50035E+08         0.00000E+00
    0.00000E+00         0.00000E+00        -0.52176E+08
 
   -0.53569E+08         0.69346E+06         0.00000E+00
    0.69346E+06        -0.50041E+08         0.00000E+00
    0.00000E+00         0.00000E+00        -0.52175E+08
 
   -0.53535E+08         0.74450E+06         0.00000E+00
    0.74450E+06        -0.50047E+08         0.00000E+00
    0.00000E+00         0.00000E+00        -0.52174E+08
 
   -0.53500E+08         0.79492E+06         0.00000E+00
    0.79492E+06        -0.50054E+08         0.00000E+00
    0.00000E+00         0.00000E+00        -0.52172E+08
 
   -0.53465E+08         0.84472E+06         0.00000E+00
    0.84472E+06        -0.50061E+08         0.00000E+00
    0.00000E+00         0.00000E+00        -0.52170E+08
 
   -0.53429E+08         0.89392E+06         0.00000E+00
    0.89392E+06        -0.50069E+08         0.00000E+00
    0.00000E+00         0.00000E+00        -0.52169E+08
 
   -0.53394E+08         0.94253E+06         0.00000E+00
    0.94253E+06        -0.50077E+08         0.00000E+00
    0.00000E+00         0.00000E+00        -0.52167E+08
 
   -0.53357E+08         0.99055E+06         0.00000E+00
    0.99055E+06        -0.50085E+08         0.00000E+00
    0.00000E+00         0.00000E+00        -0.52165E+08
 
   -0.53321E+08         0.10380E+07         0.00000E+00
    0.10380E+07        -0.50094E+08         0.00000E+00
    0.00000E+00         0.00000E+00        -0.52164E+08
 
   -0.53284E+08         0.10849E+07         0.00000E+00
    0.10849E+07        -0.50103E+08         0.00000E+00
    0.00000E+00         0.00000E+00        -0.52162E+08
 
   -0.53247E+08         0.11312E+07         0.00000E+00
    0.11312E+07        -0.50112E+08         0.00000E+00
    0.00000E+00         0.00000E+00        -0.52160E+08
 
   -0.53210E+08         0.11770E+07         0.00000E+00
    0.11770E+07        -0.50122E+08         0.00000E+00
    0.00000E+00         0.00000E+00        -0.52158E+08
 
   -0.53172E+08         0.12222E+07         0.00000E+00
    0.12222E+07        -0.50132E+08         0.00000E+00
    0.00000E+00         0.00000E+00        -0.52156E+08
 
   -0.53134E+08         0.12669E+07         0.00000E+00
    0.12669E+07        -0.50143E+08         0.00000E+00
    0.00000E+00         0.00000E+00        -0.52155E+08
 
   -0.53096E+08         0.13111E+07         0.00000E+00
    0.13111E+07        -0.50154E+08         0.00000E+00
    0.00000E+00         0.00000E+00        -0.52153E+08
 
   -0.53058E+08         0.13547E+07         0.00000E+00
    0.13547E+07        -0.50165E+08         0.00000E+00
    0.00000E+00         0.00000E+00        -0.52151E+08
 
   -0.53020E+08         0.13979E+07         0.00000E+00
    0.13979E+07        -0.50177E+08         0.00000E+00
    0.00000E+00         0.00000E+00        -0.52149E+08
 
   -0.52981E+08         0.14405E+07         0.00000E+00
    0.14405E+07        -0.50189E+08         0.00000E+00
    0.00000E+00         0.00000E+00        -0.52148E+08
 
   -0.52943E+08         0.14827E+07         0.00000E+00
    0.14827E+07        -0.50201E+08         0.00000E+00
    0.00000E+00         0.00000E+00        -0.52146E+08
 
   -0.52904E+08         0.15244E+07         0.00000E+00
    0.15244E+07        -0.50213E+08         0.00000E+00
    0.00000E+00         0.00000E+00        -0.52144E+08
 
   -0.52865E+08         0.15657E+07         0.00000E+00
    0.15657E+07        -0.50227E+08         0.00000E+00
    0.00000E+00         0.00000E+00        -0.52142E+08
 
   -0.52826E+08         0.16064E+07         0.00000E+00
    0.16064E+07        -0.50240E+08         0.00000E+00
    0.00000E+00         0.00000E+00        -0.52141E+08
 
   -0.52787E+08         0.16468E+07         0.00000E+00
    0.16468E+07        -0.50254E+08         0.00000E+00
    0.00000E+00         0.00000E+00        -0.52139E+08
 
   -0.52747E+08         0.16866E+07         0.00000E+00
    0.16866E+07        -0.50268E+08         0.00000E+00
    0.00000E+00         0.00000E+00        -0.52138E+08
 
   -0.52708E+08         0.17261E+07         0.00000E+00
    0.17261E+07        -0.50282E+08         0.00000E+00
    0.00000E+00         0.00000E+00        -0.52136E+08
 
   -0.52668E+08         0.17651E+07         0.00000E+00
    0.17651E+07        -0.50297E+08         0.00000E+00
    0.00000E+00         0.00000E+00        -0.52135E+08
 
   -0.52629E+08         0.18036E+07         0.00000E+00
    0.18036E+07        -0.50312E+08         0.00000E+00
    0.00000E+00         0.00000E+00        -0.52134E+08
 
   -0.52589E+08         0.18418E+07         0.00000E+00
    0.18418E+07        -0.50328E+08         0.00000E+00
    0.00000E+00         0.00000E+00        -0.52133E+08
 
   -0.52549E+08         0.18795E+07         0.00000E+00
    0.18795E+07        -0.50344E+08         0.00000E+00
    0.00000E+00         0.00000E+00        -0.52131E+08
 
   -0.52509E+08         0.19169E+07         0.00000E+00
    0.19169E+07        -0.50360E+08         0.00000E+00
    0.00000E+00         0.00000E+00        -0.52130E+08
 
   -0.52469E+08         0.19538E+07         0.00000E+00
    0.19538E+07        -0.50377E+08         0.00000E+00
    0.00000E+00         0.00000E+00        -0.52129E+08
 
   -0.52429E+08         0.19903E+07         0.00000E+00
    0.19903E+07        -0.50394E+08         0.00000E+00
    0.00000E+00         0.00000E+00        -0.52129E+08
 
   -0.52389E+08         0.20265E+07         0.00000E+00
    0.20265E+07        -0.50412E+08         0.00000E+00
    0.00000E+00         0.00000E+00        -0.52128E+08
 
   -0.52349E+08         0.20622E+07         0.00000E+00
    0.20622E+07        -0.50429E+08         0.00000E+00
    0.00000E+00         0.00000E+00        -0.52127E+08
 
   -0.52308E+08         0.20976E+07         0.00000E+00
    0.20976E+07        -0.50448E+08         0.00000E+00
    0.00000E+00         0.00000E+00        -0.52127E+08
 
   -0.52268E+08         0.21326E+07         0.00000E+00
    0.21326E+07        -0.50467E+08         0.00000E+00
    0.00000E+00         0.00000E+00        -0.52126E+08
 
   -0.52227E+08         0.21671E+07         0.00000E+00
    0.21671E+07        -0.50486E+08         0.00000E+00
    0.00000E+00         0.00000E+00        -0.52126E+08
 
   -0.52187E+08         0.22014E+07         0.00000E+00
    0.22014E+07        -0.50505E+08         0.00000E+00
    0.00000E+00         0.00000E+00        -0.52125E+08
 
   -0.52146E+08         0.22352E+07         0.00000E+00
    0.22352E+07        -0.50525E+08         0.00000E+00
    0.00000E+00         0.00000E+00        -0.52125E+08
 
   -0.53648E+08         0.28874E+05         0.00000E+00
    0.28874E+05        -0.50000E+08         0.00000E+00
    0.00000E+00         0.00000E+00        -0.52020E+08
 
   -0.53625E+08         0.85003E+05         0.00000E+00
    0.85003E+05        -0.50001E+08         0.00000E+00
    0.00000E+00         0.00000E+00        -0.52019E+08
 
   -0.53600E+08         0.14054E+06         0.00000E+00
    0.14054E+06        -0.50002E+08         0.00000E+00
    0.00000E+00         0.00000E+00        -0.52019E+08
 
   -0.53575E+08         0.19548E+06         0.00000E+00
    0.19548E+06        -0.50003E+08         0.00000E+00
    0.00000E+00         0.00000E+00        -0.52019E+08
 
   -0.53549E+08         0.24982E+06         0.00000E+00
    0.24982E+06        -0.50006E+08         0.00000E+00
    0.00000E+00         0.00000E+00        -0.52018E+08
 
   -0.53522E+08         0.30356E+06         0.00000E+00
    0.30356E+06        -0.50008E+08         0.00000E+00
    0.00000E+00         0.00000E+00        -0.52018E+08
 
   -0.53495E+08         0.35670E+06         0.00000E+00
    0.35670E+06        -0.50011E+08         0.00000E+00
    0.00000E+00         0.00000E+00        -0.52017E+08
 
   -0.53467E+08         0.40924E+06         0.00000E+00
    0.40924E+06        -0.50015E+08         0.00000E+00
    0.00000E+00         0.00000E+00        -0.52016E+08
 
   -0.53438E+08         0.46119E+06         0.00000E+00
    0.46119E+06        -0.50019E+08         0.00000E+00
    0.00000E+00         0.00000E+00        -0.52015E+08
 
   -0.53409E+08         0.51253E+06         0.00000E+00
    0.51253E+06        -0.50024E+08         0.00000E+00
    0.00000E+00         0.00000E+00        -0.52014E+08
 
   -0.53379E+08         0.56329E+06         0.00000E+00
    0.56329E+06        -0.50028E+08         0.00000E+00
    0.00000E+00         0.00000E+00        -0.52013E+08
 
   -0.53349E+08         0.61345E+06         0.00000E+00
    0.61345E+06        -0.50034E+08         0.00000E+00
    0.00000E+00         0.00000E+00        -0.52011E+08
 
   -0.53318E+08         0.66303E+06         0.00000E+00
    0.66303E+06        -0.50040E+08         0.00000E+00
    0.00000E+00         0.00000E+00        -0.52010E+08
 
   -0.53286E+08         0.71202E+06         0.00000E+00
    0.71202E+06        -0.50046E+08         0.00000E+00
    0.00000E+00         0.00000E+00        -0.52009E+08
 
   -0.53255E+08         0.76043E+06         0.00000E+00
    0.76043E+06        -0.50052E+08         0.00000E+00
    0.00000E+00         0.00000E+00        -0.52007E+08
 
   -0.53222E+08         0.80828E+06         0.00000E+00
    0.80828E+06        -0.50059E+08         0.00000E+00
    0.00000E+00         0.00000E+00        -0.52006E+08
 
   -0.53190E+08         0.85555E+06         0.00000E+00
    0.85555E+06        -0.50067E+08         0.00000E+00
    0.00000E+00         0.00000E+00        -0.52004E+08
 
   -0.53157E+08         0.90226E+06         0.00000E+00
    0.90226E+06        -0.50075E+08         0.00000E+00
    0.00000E+00         0.00000E+00        -0.52003E+08
 
   -0.53123E+08         0.94841E+06         0.00000E+00
    0.94841E+06        -0.50083E+08         0.00000E+00
    0.00000E+00         0.00000E+00        -0.52001E+08
 
   -0.53089E+08         0.99401E+06         0.00000E+00
    0.99401E+06        -0.50091E+08         0.00000E+00
    0.00000E+00         0.00000E+00        -0.51999E+08
 
   -0.53055E+08         0.10391E+07         0.00000E+00
    0.10391E+07        -0.50100E+08         0.00000E+00
    0.00000E+00         0.00000E+00        -0.51998E+08
 
   -0.53021E+08         0.10836E+07         0.00000E+00
    0.10836E+07        -0.50109E+08         0.00000E+00
    0.00000E+00         0.00000E+00        -0.51996E+08
 
   -0.52986E+08         0.11276E+07         0.00000E+00
    0.11276E+07        -0.50119E+08         0.00000E+00
    0.00000E+00         0.00000E+00        -0.51994E+08
 
   -0.52952E+08         0.11710E+07         0.00000E+00
    0.11710E+07        -0.50129E+08         0.00000E+00
    0.00000E+00         0.00000E+00        -0.51993E+08
 
   -0.52916E+08         0.12140E+07         0.00000E+00
    0.12140E+07        -0.50139E+08         0.00000E+00
    0.00000E+00         0.00000E+00        -0.51991E+08
 
   -0.52881E+08         0.12564E+07         0.00000E+00
    0.12564E+07        -0.50150E+08         0.00000E+00
    0.00000E+00         0.00000E+00        -0.51989E+08
 
   -0.52845E+08         0.12983E+07         0.00000E+00
    0.12983E+07        -0.50161E+08         0.00000E+00
    0.00000E+00         0.00000E+00        -0.51988E+08
 
   -0.52809E+08         0.13397E+07         0.00000E+00
    0.13397E+07        -0.50172E+08         0.00000E+00
    0.00000E+00         0.00000E+00        -0.51986E+08
 
   -0.52773E+08         0.13807E+07         0.00000E+00
    0.13807E+07        -0.50183E+08         0.00000E+00
    0.00000E+00         0.00000E+00        -0.51984E+08
 
   -0.52737E+08         0.14211E+07         0.00000E+00
    0.14211E+07        -0.50195E+08         0.00000E+00
    0.00000E+00         0.00000E+00        -0.51983E+08
 
   -0.52701E+08         0.14611E+07         0.00000E+00
    0.14611E+07        -0.50208E+08         0.00000E+00
    0.00000E+00         0.00000E+00        -0.51981E+08
 
   -0.52664E+08         0.15006E+07         0.00000E+00
    0.15006E+07        -0.50220E+08         0.00000E+00
    0.00000E+00         0.00000E+00        -0.51979E+08
 
   -0.52627E+08         0.15396E+07         0.00000E+00
    0.15396E+07        -0.50233E+08         0.00000E+00
    0.00000E+00         0.00000E+00        -0.51978E+08
 
   -0.52591E+08         0.15782E+07         0.00000E+00
    0.15782E+07        -0.50247E+08         0.00000E+00
    0.00000E+00         0.00000E+00        -0.51977E+08
 
   -0.52554E+08         0.16163E+07         0.00000E+00
    0.16163E+07        -0.50260E+08         0.00000E+00
    0.00000E+00         0.00000E+00        -0.51975E+08
 
   -0.52516E+08         0.16539E+07         0.00000E+00
    0.16539E+07        -0.50274E+08         0.00000E+00
    0.00000E+00         0.00000E+00        -0.51974E+08
 
   -0.52479E+08         0.16911E+07         0.00000E+00
    0.16911E+07        -0.50289E+08         0.00000E+00
    0.00000E+00         0.00000E+00        -0.51972E+08
 
   -0.52442E+08         0.17279E+07         0.00000E+00
    0.17279E+07        -0.50304E+08         0.00000E+00
    0.00000E+00         0.00000E+00        -0.51971E+08
 
   -0.52404E+08         0.17642E+07         0.00000E+00
    0.17642E+07        -0.50319E+08         0.00000E+00
    0.00000E+00         0.00000E+00        -0.51970E+08
 
   -0.52366E+08         0.18001E+07         0.00000E+00
    0.18001E+07        -0.50334E+08         0.00000E+00
    0.00000E+00         0.00000E+00        -0.51969E+08
 
   -0.52328E+08         0.18356E+07         0.00000E+00
    0.18356E+07        -0.50350E+08         0.00000E+00
    0.00000E+00         0.00000E+00        -0.51968E+08
 
   -0.52291E+08         0.18707E+07         0.00000E+00
    0.18707E+07        -0.50366E+08         0.00000E+00
    0.00000E+00         0.00000E+00        -0.51967E+08
 
   -0.52252E+08         0.19053E+07         0.00000E+00
    0.19053E+07        -0.50382E+08         0.00000E+00
    0.00000E+00         0.00000E+00        -0.51966E+08
 
   -0.52214E+08         0.19395E+07         0.00000E+00
    0.19395E+07        -0.50399E+08         0.00000E+00
    0.00000E+00         0.00000E+00        -0.51966E+08
 
   -0.52176E+08         0.19733E+07         0.00000E+00
    0.19733E+07        -0.50416E+08         0.00000E+00
    0.00000E+00         0.00000E+00        -0.51965E+08
 
   -0.52138E+08         0.20067E+07         0.00000E+00
    0.20067E+07        -0.50434E+08         0.00000E+00
    0.00000E+00         0.00000E+00        -0.51964E+08
 
   -0.52099E+08         0.20397E+07         0.00000E+00
    0.20397E+07        -0.50452E+08         0.00000E+00
    0.00000E+00         0.00000E+00        -0.51964E+08
 
   -0.52060E+08         0.20723E+07         0.00000E+00
    0.20723E+07        -0.50470E+08         0.00000E+00
    0.00000E+00         0.00000E+00        -0.51964E+08
 
   -0.52022E+08         0.21044E+07         0.00000E+00
    0.21044E+07        -0.50489E+08         0.00000E+00
    0.00000E+00         0.00000E+00        -0.51963E+08
 
   -0.51983E+08         0.21362E+07         0.00000E+00
    0.21362E+07        -0.50508E+08         0.00000E+00
    0.00000E+00         0.00000E+00        -0.51963E+08
 
   -0.53373E+08         0.27433E+05         0.00000E+00
    0.27433E+05        -0.50000E+08         0.00000E+00
    0.00000E+00         0.00000E+00        -0.51864E+08
 
   -0.53352E+08         0.80885E+05         0.00000E+00
    0.80885E+05        -0.50001E+08         0.00000E+00
    0.00000E+00         0.00000E+00        -0.51864E+08
 
   -0.53331E+08         0.13381E+06         0.00000E+00
    0.13381E+06        -0.50002E+08         0.00000E+00
    0.00000E+00         0.00000E+00        -0.51863E+08
 
   -0.53308E+08         0.18622E+06         0.00000E+00
    0.18622E+06        -0.50003E+08         0.00000E+00
    0.00000E+00         0.00000E+00        -0.51863E+08
 
   -0.53285E+08         0.23809E+06         0.00000E+00
    0.23809E+06        -0.50005E+08         0.00000E+00
    0.00000E+00         0.00000E+00        -0.51862E+08
 
   -0.53261E+08         0.28942E+06         0.00000E+00
    0.28942E+06        -0.50008E+08         0.00000E+00
    0.00000E+00         0.00000E+00        -0.51862E+08
 
   -0.53236E+08         0.34021E+06         0.00000E+00
    0.34021E+06        -0.50011E+08         0.00000E+00
    0.00000E+00         0.00000E+00        -0.51861E+08
 
   -0.53211E+08         0.39047E+06         0.00000E+00
    0.39047E+06        -0.50014E+08         0.00000E+00
    0.00000E+00         0.00000E+00        -0.51860E+08
 
   -0.53185E+08         0.44018E+06         0.00000E+00
    0.44018E+06        -0.50018E+08         0.00000E+00
    0.00000E+00         0.00000E+00        -0.51859E+08
 
   -0.53159E+08         0.48935E+06         0.00000E+00
    0.48935E+06        -0.50023E+08         0.00000E+00
    0.00000E+00         0.00000E+00        -0.51858E+08
 
   -0.53132E+08         0.53797E+06         0.00000E+00
    0.53797E+06        -0.50027E+08         0.00000E+00
    0.00000E+00         0.00000E+00        -0.51857E+08
 
   -0.53104E+08         0.58605E+06         0.00000E+00
    0.58605E+06        -0.50032E+08         0.00000E+00
    0.00000E+00         0.00000E+00        -0.51856E+08
 
   -0.53076E+08         0.63359E+06         0.00000E+00
    0.63359E+06        -0.50038E+08         0.00000E+00
    0.00000E+00         0.00000E+00        -0.51855E+08
 
   -0.53048E+08         0.68059E+06         0.00000E+00
    0.68059E+06        -0.50044E+08         0.00000E+00
    0.00000E+00         0.00000E+00        -0.51854E+08
 
   -0.53019E+08         0.72705E+06         0.00000E+00
    0.72705E+06        -0.50050E+08         0.00000E+00
    0.00000E+00         0.00000E+00        -0.51852E+08
 
   -0.52989E+08         0.77298E+06         0.00000E+00
    0.77298E+06        -0.50057E+08         0.00000E+00
    0.00000E+00         0.00000E+00        -0.51851E+08
 
   -0.52959E+08         0.81837E+06         0.00000E+00
    0.81837E+06        -0.50064E+08         0.00000E+00
    0.00000E+00         0.00000E+00        -0.51849E+08
 
   -0.52929E+08         0.86323E+06         0.00000E+00
    0.86323E+06        -0.50072E+08         0.00000E+00
    0.00000E+00         0.00000E+00        -0.51848E+08
 
   -0.52898E+08         0.90756E+06         0.00000E+00
    0.90756E+06        -0.50079E+08         0.00000E+00
    0.00000E+00         0.00000E+00        -0.51846E+08
 
   -0.52867E+08         0.95137E+06         0.00000E+00
    0.95137E+06        -0.50088E+08         0.00000E+00
    0.00000E+00         0.00000E+00        -0.51845E+08
 
   -0.52836E+08         0.99465E+06         0.00000E+00
    0.99465E+06        -0.50096E+08         0.00000E+00
    0.00000E+00         0.00000E+00        -0.51843E+08
 
   -0.52804E+08         0.10374E+07         0.00000E+00
    0.10374E+07        -0.50105E+08         0.00000E+00
    0.00000E+00         0.00000E+00        -0.51842E+08
 
   -0.52772E+08         0.10797E+07         0.00000E+00
    0.10797E+07        -0.50114E+08         0.00000E+00
    0.00000E+00         0.00000E+00        -0.51840E+08
 
   -0.52740E+08         0.11214E+07         0.00000E+00
    0.11214E+07        -0.50124E+08         0.00000E+00
    0.00000E+00         0.00000E+00        -0.51839E+08
 
   -0.52707E+08         0.11627E+07         0.00000E+00
    0.11627E+07        -0.50134E+08         0.00000E+00
    0.00000E+00         0.00000E+00        -0.51837E+08
 
   -0.52674E+08         0.12034E+07         0.00000E+00
    0.12034E+07        -0.50144E+08         0.00000E+00
    0.00000E+00         0.00000E+00        -0.51835E+08
 
   -0.52641E+08         0.12437E+07         0.00000E+00
    0.12437E+07        -0.50155E+08         0.00000E+00
    0.00000E+00         0.00000E+00        -0.51834E+08
 
   -0.52608E+08         0.12834E+07         0.00000E+00
    0.12834E+07        -0.50165E+08         0.00000E+00
    0.00000E+00         0.00000E+00        -0.51832E+08
 
   -0.52574E+08         0.13227E+07         0.00000E+00
    0.13227E+07        -0.50177E+08         0.00000E+00
    0.00000E+00         0.00000E+00        -0.51831E+08
 
   -0.52540E+08         0.13615E+07         0.00000E+00
    0.13615E+07        -0.50188E+08         0.00000E+00
    0.00000E+00         0.00000E+00        -0.51829E+08
 
   -0.52506E+08         0.13998E+07         0.00000E+00
    0.13998E+07        -0.50200E+08         0.00000E+00
    0.00000E+00         0.00000E+00        -0.51828E+08
 
   -0.52472E+08         0.14376E+07         0.00000E+00
    0.14376E+07        -0.50212E+08         0.00000E+00
    0.00000E+00         0.00000E+00        -0.51826E+08
 
   -0.52438E+08         0.14750E+07         0.00000E+00
    0.14750E+07        -0.50225E+08         0.00000E+00
    0.00000E+00         0.00000E+00        -0.51825E+08
 
   -0.52403E+08         0.15119E+07         0.00000E+00
    0.15119E+07        -0.50238E+08         0.00000E+00
    0.00000E+00         0.00000E+00        -0.51824E+08
 
   -0.52368E+08         0.15484E+07         0.00000E+00
    0.15484E+07        -0.50251E+08         0.00000E+00
    0.00000E+00         0.00000E+00        -0.51822E+08
 
   -0.52333E+08         0.15844E+07         0.00000E+00
    0.15844E+07        -0.50264E+08         0.00000E+00
    0.00000E+00         0.00000E+00        -0.51821E+08
 
   -0.52298E+08         0.16199E+07         0.00000E+00
    0.16199E+07        -0.50278E+08         0.00000E+00
    0.00000E+00         0.00000E+00        -0.51820E+08
 
   -0.52263E+08         0.16550E+07         0.00000E+00
    0.16550E+07        -0.50292E+08         0.00000E+00
    0.00000E+00         0.00000E+00        -0.51819E+08
 
   -0.52228E+08         0.16896E+07         0.00000E+00
    0.16896E+07        -0.50306E+08         0.00000E+00
    0.00000E+00         0.00000E+00        -0.51818E+08
 
   -0.52192E+08         0.17238E+07         0.00000E+00
    0.17238E+07        -0.50321E+08         0.00000E+00
    0.00000E+00         0.00000E+00        -0.51817E+08
 
   -0.52156E+08         0.17576E+07         0.00000E+00
    0.17576E+07        -0.50336E+08         0.00000E+00
    0.00000E+00         0.00000E+00        -0.51816E+08
 
   -0.52121E+08         0.17909E+07         0.00000E+00
    0.17909E+07        -0.50352E+08         0.00000E+00
    0.00000E+00         0.00000E+00        -0.51815E+08
 
   -0.52085E+08         0.18238E+07         0.00000E+00
    0.18238E+07        -0.50367E+08         0.00000E+00
    0.00000E+00         0.00000E+00        -0.51814E+08
 
   -0.52049E+08         0.18563E+07         0.00000E+00
    0.18563E+07        -0.50384E+08         0.00000E+00
    0.00000E+00         0.00000E+00        -0.51813E+08
 
   -0.52012E+08         0.18883E+07         0.00000E+00
    0.18883E+07        -0.50400E+08         0.00000E+00
    0.00000E+00         0.00000E+00        -0.51813E+08
 
   -0.51976E+08         0.19199E+07         0.00000E+00
    0.19199E+07        -0.50417E+08         0.00000E+00
    0.00000E+00         0.00000E+00        -0.51812E+08
 
   -0.51940E+08         0.19511E+07         0.00000E+00
    0.19511E+07        -0.50434E+08         0.00000E+00
    0.00000E+00         0.00000E+00        -0.51812E+08
 
   -0.51903E+08         0.19819E+07         0.00000E+00
    0.19819E+07        -0.50451E+08         0.00000E+00
    0.00000E+00         0.00000E+00        -0.51811E+08
 
   -0.51866E+08         0.20122E+07         0.00000E+00
    0.20122E+07        -0.50469E+08         0.00000E+00
    0.00000E+00         0.00000E+00        -0.51811E+08
 
   -0.51830E+08         0.20422E+07         0.00000E+00
    0.20422E+07        -0.50487E+08         0.00000E+00
    0.00000E+00         0.00000E+00        -0.51811E+08
 
   -0.53111E+08         0.26075E+05         0.00000E+00
    0.26075E+05        -0.50000E+08         0.00000E+00
    0.00000E+00         0.00000E+00        -0.51717E+08
 
   -0.53092E+08         0.76988E+05         0.00000E+00
    0.76988E+05        -0.50001E+08         0.00000E+00
    0.00000E+00         0.00000E+00        -0.51717E+08
 
   -0.53073E+08         0.12744E+06         0.00000E+00
    0.12744E+06        -0.50002E+08         0.00000E+00
    0.00000E+00         0.00000E+00        -0.51716E+08
 
   -0.53053E+08         0.17742E+06         0.00000E+00
    0.17742E+06        -0.50003E+08         0.00000E+00
    0.00000E+00         0.00000E+00        -0.51716E+08
 
   -0.53033E+08         0.22693E+06         0.00000E+00
    0.22693E+06        -0.50005E+08         0.00000E+00
    0.00000E+00         0.00000E+00        -0.51715E+08
 
   -0.53011E+08         0.27596E+06         0.00000E+00
    0.27596E+06        -0.50007E+08         0.00000E+00
    0.00000E+00         0.00000E+00        -0.51715E+08
 
   -0.52989E+08         0.32451E+06         0.00000E+00
    0.32451E+06        -0.50010E+08         0.00000E+00
    0.00000E+00         0.00000E+00        -0.51714E+08
 
   -0.52967E+08         0.37257E+06         0.00000E+00
    0.37257E+06        -0.50014E+08         0.00000E+00
    0.00000E+00         0.00000E+00        -0.51713E+08
 
   -0.52944E+08         0.42013E+06         0.00000E+00
    0.42013E+06        -0.50017E+08         0.00000E+00
    0.00000E+00         0.00000E+00        -0.51713E+08
 
   -0.52920E+08         0.46720E+06         0.00000E+00
    0.46720E+06        -0.50021E+08         0.00000E+00
    0.00000E+00         0.00000E+00        -0.51712E+08
 
   -0.52895E+08         0.51378E+06         0.00000E+00
    0.51378E+06        -0.50026E+08         0.00000E+00
    0.00000E+00         0.00000E+00        -0.51711E+08
 
   -0.52870E+08         0.55985E+06         0.00000E+00
    0.55985E+06        -0.50031E+08         0.00000E+00
    0.00000E+00         0.00000E+00        -0.51710E+08
 
   -0.52845E+08         0.60543E+06         0.00000E+00
    0.60543E+06        -0.50036E+08         0.00000E+00
    0.00000E+00         0.00000E+00        -0.51709E+08
 
   -0.52819E+08         0.65050E+06         0.00000E+00
    0.65050E+06        -0.50042E+08         0.00000E+00
    0.00000E+00         0.00000E+00        -0.51707E+08
 
   -0.52792E+08         0.69507E+06         0.00000E+00
    0.69507E+06        -0.50048E+08         0.00000E+00
    0.00000E+00         0.00000E+00        -0.51706E+08
 
   -0.52766E+08         0.73915E+06         0.00000E+00
    0.73915E+06        -0.50054E+08         0.00000E+00
    0.00000E+00         0.00000E+00        -0.51705E+08
 
   -0.52738E+08         0.78272E+06         0.00000E+00
    0.78272E+06        -0.50061E+08         0.00000E+00
    0.00000E+00         0.00000E+00        -0.51704E+08
 
   -0.52710E+08         0.82579E+06         0.00000E+00
    0.82579E+06        -0.50068E+08         0.00000E+00
    0.00000E+00         0.00000E+00        -0.51702E+08
 
   -0.52682E+08         0.86836E+06         0.00000E+00
    0.86836E+06        -0.50076E+08         0.00000E+00
    0.00000E+00         0.00000E+00        -0.51701E+08
 
   -0.52654E+08         0.91044E+06         0.00000E+00
    0.91044E+06        -0.50083E+08         0.00000E+00
    0.00000E+00         0.00000E+00        -0.51699E+08
 
   -0.52625E+08         0.95202E+06         0.00000E+00
    0.95202E+06        -0.50092E+08         0.00000E+00
    0.00000E+00         0.00000E+00        -0.51698E+08
 
   -0.52596E+08         0.99310E+06         0.00000E+00
    0.99310E+06        -0.50100E+08         0.00000E+00
    0.00000E+00         0.00000E+00        -0.51696E+08
 
   -0.52566E+08         0.10337E+07         0.00000E+00
    0.10337E+07        -0.50109E+08         0.00000E+00
    0.00000E+00         0.00000E+00        -0.51695E+08
 
   -0.52536E+08         0.10738E+07         0.00000E+00
    0.10738E+07        -0.50118E+08         0.00000E+00
    0.00000E+00         0.00000E+00        -0.51694E+08
 
   -0.52506E+08         0.11134E+07         0.00000E+00
    0.11134E+07        -0.50128E+08         0.00000E+00
    0.00000E+00         0.00000E+00        -0.51692E+08
 
   -0.52476E+08         0.11526E+07         0.00000E+00
    0.11526E+07        -0.50137E+08         0.00000E+00
    0.00000E+00         0.00000E+00        -0.51691E+08
 
   -0.52445E+08         0.11912E+07         0.00000E+00
    0.11912E+07        -0.50147E+08         0.00000E+00
    0.00000E+00         0.00000E+00        -0.51689E+08
 
   -0.52414E+08         0.12294E+07         0.00000E+00
    0.12294E+07        -0.50158E+08         0.00000E+00
    0.00000E+00         0.00000E+00        -0.51688E+08
 
   -0.52383E+08         0.12671E+07         0.00000E+00
    0.12671E+07        -0.50169E+08         0.00000E+00
    0.00000E+00         0.00000E+00        -0.51686E+08
 
   -0.52351E+08         0.13043E+07         0.00000E+00
    0.13043E+07        -0.50180E+08         0.00000E+00
    0.00000E+00         0.00000E+00        -0.51685E+08
 
   -0.52320E+08         0.13410E+07         0.00000E+00
    0.13410E+07        -0.50191E+08         0.00000E+00
    0.00000E+00         0.00000E+00        -0.51683E+08
 
   -0.52288E+08         0.13773E+07         0.00000E+00
    0.13773E+07        -0.50202E+08         0.00000E+00
    0.00000E+00         0.00000E+00        -0.51682E+08
 
   -0.52256E+08         0.14131E+07         0.00000E+00
    0.14131E+07        -0.50214E+08         0.00000E+00
    0.00000E+00         0.00000E+00        -0.51681E+08
 
   -0.52224E+08         0.14485E+07         0.00000E+00
    0.14485E+07        -0.50227E+08         0.00000E+00
    0.00000E+00         0.00000E+00        -0.51679E+08
 
   -0.52191E+08         0.14834E+07         0.00000E+00
    0.14834E+07        -0.50239E+08         0.00000E+00
    0.00000E+00         0.00000E+00        -0.51678E+08
 
   -0.52158E+08         0.15178E+07         0.00000E+00
    0.15178E+07        -0.50252E+08         0.00000E+00
    0.00000E+00         0.00000E+00        -0.51677E+08
 
   -0.52126E+08         0.15518E+07         0.00000E+00
    0.15518E+07        -0.50265E+08         0.00000E+00
    0.00000E+00         0.00000E+00        -0.51676E+08
 
   -0.52093E+08         0.15854E+07         0.00000E+00
    0.15854E+07        -0.50279E+08         0.00000E+00
    0.00000E+00         0.00000E+00        -0.51675E+08
 
   -0.52059E+08         0.16184E+07         0.00000E+00
    0.16184E+07        -0.50292E+08         0.00000E+00
    0.00000E+00         0.00000E+00        -0.51674E+08
 
   -0.52026E+08         0.16511E+07         0.00000E+00
    0.16511E+07        -0.50306E+08         0.00000E+00
    0.00000E+00         0.00000E+00        -0.51673E+08
 
   -0.51993E+08         0.16833E+07         0.00000E+00
    0.16833E+07        -0.50321E+08         0.00000E+00
    0.00000E+00         0.00000E+00        -0.51672E+08
 
   -0.51959E+08         0.17150E+07         0.00000E+00
    0.17150E+07        -0.50335E+08         0.00000E+00
    0.00000E+00         0.00000E+00        -0.51671E+08
 
   -0.51925E+08         0.17463E+07         0.00000E+00
    0.17463E+07        -0.50350E+08         0.00000E+00
    0.00000E+00         0.00000E+00        -0.51671E+08
 
   -0.51891E+08         0.17772E+07         0.00000E+00
    0.17772E+07        -0.50365E+08         0.00000E+00
    0.00000E+00         0.00000E+00        -0.51670E+08
 
   -0.51857E+08         0.18076E+07         0.00000E+00
    0.18076E+07        -0.50381E+08         0.00000E+00
    0.00000E+00         0.00000E+00        -0.51669E+08
 
   -0.51823E+08         0.18376E+07         0.00000E+00
    0.18376E+07        -0.50397E+08         0.00000E+00
    0.00000E+00         0.00000E+00        -0.51669E+08
 
   -0.51789E+08         0.18672E+07         0.00000E+00
    0.18672E+07        -0.50413E+08         0.00000E+00
    0.00000E+00         0.00000E+00        -0.51668E+08
 
   -0.51754E+08         0.18963E+07         0.00000E+00
    0.18963E+07        -0.50429E+08         0.00000E+00
    0.00000E+00         0.00000E+00        -0.51668E+08
 
   -0.51720E+08         0.19250E+07         0.00000E+00
    0.19250E+07        -0.50446E+08         0.00000E+00
    0.00000E+00         0.00000E+00        -0.51668E+08
 
   -0.51685E+08         0.19533E+07         0.00000E+00
    0.19533E+07        -0.50463E+08         0.00000E+00
    0.00000E+00         0.00000E+00        -0.51668E+08
 
   -0.52861E+08         0.24805E+05         0.00000E+00
    0.24805E+05        -0.50000E+08         0.00000E+00
    0.00000E+00         0.00000E+00        -0.51578E+08
 
   -0.52845E+08         0.73328E+05         0.00000E+00
    0.73328E+05        -0.50001E+08         0.00000E+00
    0.00000E+00         0.00000E+00        -0.51577E+08
 
   -0.52828E+08         0.12144E+06         0.00000E+00
    0.12144E+06        -0.50002E+08         0.00000E+00
    0.00000E+00         0.00000E+00        -0.51577E+08
 
   -0.52810E+08         0.16914E+06         0.00000E+00
    0.16914E+06        -0.50003E+08         0.00000E+00
    0.00000E+00         0.00000E+00        -0.51577E+08
 
   -0.52792E+08         0.21642E+06         0.00000E+00
    0.21642E+06        -0.50005E+08         0.00000E+00
    0.00000E+00         0.00000E+00        -0.51576E+08
 
   -0.52773E+08         0.26327E+06         0.00000E+00
    0.26327E+06        -0.50007E+08         0.00000E+00
    0.00000E+00         0.00000E+00        -0.51576E+08
 
   -0.52753E+08         0.30968E+06         0.00000E+00
    0.30968E+06        -0.50010E+08         0.00000E+00
    0.00000E+00         0.00000E+00        -0.51575E+08
 
   -0.52733E+08         0.35565E+06         0.00000E+00
    0.35565E+06        -0.50013E+08         0.00000E+00
    0.00000E+00         0.00000E+00        -0.51575E+08
 
   -0.52712E+08         0.40117E+06         0.00000E+00
    0.40117E+06        -0.50016E+08         0.00000E+00
    0.00000E+00         0.00000E+00        -0.51574E+08
 
   -0.52691E+08         0.44625E+06         0.00000E+00
    0.44625E+06        -0.50020E+08         0.00000E+00
    0.00000E+00         0.00000E+00        -0.51573E+08
 
   -0.52669E+08         0.49086E+06         0.00000E+00
    0.49086E+06        -0.50024E+08         0.00000E+00
    0.00000E+00         0.00000E+00        -0.51572E+08
 
   -0.52646E+08         0.53502E+06         0.00000E+00
    0.53502E+06        -0.50029E+08         0.00000E+00
    0.00000E+00         0.00000E+00        -0.51571E+08
 
   -0.52623E+08         0.57872E+06         0.00000E+00
    0.57872E+06        -0.50034E+08         0.00000E+00
    0.00000E+00         0.00000E+00        -0.51570E+08
 
   -0.52599E+08         0.62195E+06         0.00000E+00
    0.62195E+06        -0.50039E+08         0.00000E+00
    0.00000E+00         0.00000E+00        -0.51569E+08
 
   -0.52575E+08         0.66472E+06         0.00000E+00
    0.66472E+06        -0.50045E+08         0.00000E+00
    0.00000E+00         0.00000E+00        -0.51568E+08
 
   -0.52551E+08         0.70702E+06         0.00000E+00
    0.70702E+06        -0.50051E+08         0.00000E+00
    0.00000E+00         0.00000E+00        -0.51567E+08
 
   -0.52526E+08         0.74885E+06         0.00000E+00
    0.74885E+06        -0.50058E+08         0.00000E+00
    0.00000E+00         0.00000E+00        -0.51566E+08
 
   -0.52501E+08         0.79021E+06         0.00000E+00
    0.79021E+06        -0.50064E+08         0.00000E+00
    0.00000E+00         0.00000E+00        -0.51564E+08
 
   -0.52475E+08         0.83110E+06         0.00000E+00
    0.83110E+06        -0.50071E+08         0.00000E+00
    0.00000E+00         0.00000E+00        -0.51563E+08
 
   -0.52449E+08         0.87152E+06         0.00000E+00
    0.87152E+06        -0.50079E+08         0.00000E+00
    0.00000E+00         0.00000E+00        -0.51562E+08
 
   -0.52422E+08         0.91146E+06         0.00000E+00
    0.91146E+06        -0.50086E+08         0.00000E+00
    0.00000E+00         0.00000E+00        -0.51560E+08
 
   -0.52396E+08         0.95094E+06         0.00000E+00
    0.95094E+06        -0.50095E+08         0.00000E+00
    0.00000E+00         0.00000E+00        -0.51559E+08
 
   -0.52368E+08         0.98995E+06         0.00000E+00
    0.98995E+06        -0.50103E+08         0.00000E+00
    0.00000E+00         0.00000E+00        -0.51558E+08
 
   -0.52341E+08         0.10285E+07         0.00000E+00
    0.10285E+07        -0.50112E+08         0.00000E+00
    0.00000E+00         0.00000E+00        -0.51556E+08
 
   -0.52313E+08         0.10666E+07         0.00000E+00
    0.10666E+07        -0.50121E+08         0.00000E+00
    0.00000E+00         0.00000E+00        -0.51555E+08
 
   -0.52285E+08         0.11042E+07         0.00000E+00
    0.11042E+07        -0.50130E+08         0.00000E+00
    0.00000E+00         0.00000E+00        -0.51554E+08
 
   -0.52257E+08         0.11413E+07         0.00000E+00
    0.11413E+07        -0.50139E+08         0.00000E+00
    0.00000E+00         0.00000E+00        -0.51552E+08
 
   -0.52228E+08         0.11780E+07         0.00000E+00
    0.11780E+07        -0.50149E+08         0.00000E+00
    0.00000E+00         0.00000E+00        -0.51551E+08
 
   -0.52199E+08         0.12142E+07         0.00000E+00
    0.12142E+07        -0.50159E+08         0.00000E+00
    0.00000E+00         0.00000E+00        -0.51550E+08
 
   -0.52170E+08         0.12499E+07         0.00000E+00
    0.12499E+07        -0.50170E+08         0.00000E+00
    0.00000E+00         0.00000E+00        -0.51548E+08
 
   -0.52141E+08         0.12852E+07         0.00000E+00
    0.12852E+07        -0.50181E+08         0.00000E+00
    0.00000E+00         0.00000E+00        -0.51547E+08
 
   -0.52111E+08         0.13200E+07         0.00000E+00
    0.13200E+07        -0.50192E+08         0.00000E+00
    0.00000E+00         0.00000E+00        -0.51546E+08
 
   -0.52081E+08         0.13543E+07         0.00000E+00
    0.13543E+07        -0.50203E+08         0.00000E+00
    0.00000E+00         0.00000E+00        -0.51544E+08
 
   -0.52051E+08         0.13883E+07         0.00000E+00
    0.13883E+07        -0.50214E+08         0.00000E+00
    0.00000E+00         0.00000E+00        -0.51543E+08
 
   -0.52021E+08         0.14217E+07         0.00000E+00
    0.14217E+07        -0.50226E+08         0.00000E+00
    0.00000E+00         0.00000E+00        -0.51542E+08
 
   -0.51991E+08         0.14547E+07         0.00000E+00
    0.14547E+07        -0.50238E+08         0.00000E+00
    0.00000E+00         0.00000E+00        -0.51541E+08
 
   -0.51960E+08         0.14872E+07         0.00000E+00
    0.14872E+07        -0.50251E+08         0.00000E+00
    0.00000E+00         0.00000E+00        -0.51540E+08
 
   -0.51930E+08         0.15193E+07         0.00000E+00
    0.15193E+07        -0.50263E+08         0.00000E+00
    0.00000E+00         0.00000E+00        -0.51539E+08
 
   -0.51899E+08         0.15510E+07         0.00000E+00
    0.15510E+07        -0.50276E+08         0.00000E+00
    0.00000E+00         0.00000E+00        -0.51538E+08
 
   -0.51868E+08         0.15822E+07         0.00000E+00
    0.15822E+07        -0.50290E+08         0.00000E+00
    0.00000E+00         0.00000E+00        -0.51537E+08
 
   -0.51836E+08         0.16129E+07         0.00000E+00
    0.16129E+07        -0.50303E+08         0.00000E+00
    0.00000E+00         0.00000E+00        -0.51536E+08
 
   -0.51805E+08         0.16432E+07         0.00000E+00
    0.16432E+07        -0.50317E+08         0.00000E+00
    0.00000E+00         0.00000E+00        -0.51536E+08
 
   -0.51773E+08         0.16731E+07         0.00000E+00
    0.16731E+07        -0.50331E+08         0.00000E+00
    0.00000E+00         0.00000E+00        -0.51535E+08
 
   -0.51742E+08         0.17025E+07         0.00000E+00
    0.17025E+07        -0.50345E+08         0.00000E+00
    0.00000E+00         0.00000E+00        -0.51534E+08
 
   -0.51710E+08         0.17315E+07         0.00000E+00
    0.17315E+07        -0.50360E+08         0.00000E+00
    0.00000E+00         0.00000E+00        -0.51534E+08
 
   -0.51678E+08         0.17600E+07         0.00000E+00
    0.17600E+07        -0.50375E+08         0.00000E+00
    0.00000E+00         0.00000E+00        -0.51533E+08
 
   -0.51646E+08         0.17881E+07         0.00000E+00
    0.17881E+07        -0.50390E+08         0.00000E+00
    0.00000E+00         0.00000E+00        -0.51533E+08
 
   -0.51614E+08         0.18157E+07         0.00000E+00
    0.18157E+07        -0.50406E+08         0.00000E+00
    0.00000E+00         0.00000E+00        -0.51533E+08
 
   -0.51581E+08         0.18429E+07         0.00000E+00
    0.18429E+07        -0.50421E+08         0.00000E+00
    0.00000E+00         0.00000E+00        -0.51533E+08
 
   -0.51549E+08         0.18697E+07         0.00000E+00
    0.18697E+07        -0.50437E+08         0.00000E+00
    0.00000E+00         0.00000E+00        -0.51532E+08
 
   -0.52623E+08         0.23624E+05         0.00000E+00
    0.23624E+05        -0.50000E+08         0.00000E+00
    0.00000E+00         0.00000E+00        -0.51446E+08
 
   -0.52609E+08         0.69917E+05         0.00000E+00
    0.69917E+05        -0.50001E+08         0.00000E+00
    0.00000E+00         0.00000E+00        -0.51446E+08
 
   -0.52594E+08         0.11585E+06         0.00000E+00
    0.11585E+06        -0.50001E+08         0.00000E+00
    0.00000E+00         0.00000E+00        -0.51445E+08
 
   -0.52578E+08         0.16141E+06         0.00000E+00
    0.16141E+06        -0.50003E+08         0.00000E+00
    0.00000E+00         0.00000E+00        -0.51445E+08
 
   -0.52562E+08         0.20659E+06         0.00000E+00
    0.20659E+06        -0.50004E+08         0.00000E+00
    0.00000E+00         0.00000E+00        -0.51445E+08
 
   -0.52545E+08         0.25139E+06         0.00000E+00
    0.25139E+06        -0.50006E+08         0.00000E+00
    0.00000E+00         0.00000E+00        -0.51444E+08
 
   -0.52527E+08         0.29579E+06         0.00000E+00
    0.29579E+06        -0.50009E+08         0.00000E+00
    0.00000E+00         0.00000E+00        -0.51444E+08
 
   -0.52509E+08         0.33979E+06         0.00000E+00
    0.33979E+06        -0.50012E+08         0.00000E+00
    0.00000E+00         0.00000E+00        -0.51443E+08
 
   -0.52490E+08         0.38339E+06         0.00000E+00
    0.38339E+06        -0.50015E+08         0.00000E+00
    0.00000E+00         0.00000E+00        -0.51442E+08
 
   -0.52471E+08         0.42657E+06         0.00000E+00
    0.42657E+06        -0.50019E+08         0.00000E+00
    0.00000E+00         0.00000E+00        -0.51442E+08
 
   -0.52451E+08         0.46934E+06         0.00000E+00
    0.46934E+06        -0.50023E+08         0.00000E+00
    0.00000E+00         0.00000E+00        -0.51441E+08
 
   -0.52431E+08         0.51168E+06         0.00000E+00
    0.51168E+06        -0.50027E+08         0.00000E+00
    0.00000E+00         0.00000E+00        -0.51440E+08
 
   -0.52410E+08         0.55360E+06         0.00000E+00
    0.55360E+06        -0.50032E+08         0.00000E+00
    0.00000E+00         0.00000E+00        -0.51439E+08
 
   -0.52389E+08         0.59509E+06         0.00000E+00
    0.59509E+06        -0.50037E+08         0.00000E+00
    0.00000E+00         0.00000E+00        -0.51438E+08
 
   -0.52367E+08         0.63614E+06         0.00000E+00
    0.63614E+06        -0.50042E+08         0.00000E+00
    0.00000E+00         0.00000E+00        -0.51437E+08
 
   -0.52345E+08         0.67676E+06         0.00000E+00
    0.67676E+06        -0.50048E+08         0.00000E+00
    0.00000E+00         0.00000E+00        -0.51436E+08
 
   -0.52322E+08         0.71694E+06         0.00000E+00
    0.71694E+06        -0.50054E+08         0.00000E+00
    0.00000E+00         0.00000E+00        -0.51435E+08
 
   -0.52299E+08         0.75667E+06         0.00000E+00
    0.75667E+06        -0.50060E+08         0.00000E+00
    0.00000E+00         0.00000E+00        -0.51433E+08
 
   -0.52276E+08         0.79596E+06         0.00000E+00
    0.79596E+06        -0.50067E+08         0.00000E+00
    0.00000E+00         0.00000E+00        -0.51432E+08
 
   -0.52252E+08         0.83481E+06         0.00000E+00
    0.83481E+06        -0.50074E+08         0.00000E+00
    0.00000E+00         0.00000E+00        -0.51431E+08
 
   -0.52228E+08         0.87321E+06         0.00000E+00
    0.87321E+06        -0.50081E+08         0.00000E+00
    0.00000E+00         0.00000E+00        -0.51430E+08
 
   -0.52203E+08         0.91116E+06         0.00000E+00
    0.91116E+06        -0.50089E+08         0.00000E+00
    0.00000E+00         0.00000E+00        -0.51429E+08
 
   -0.52178E+08         0.94866E+06         0.00000E+00
    0.94866E+06        -0.50096E+08         0.00000E+00
    0.00000E+00         0.00000E+00        -0.51427E+08
 
   -0.52153E+08         0.98571E+06         0.00000E+00
    0.98571E+06        -0.50105E+08         0.00000E+00
    0.00000E+00         0.00000E+00        -0.51426E+08
 
   -0.52128E+08         0.10223E+07         0.00000E+00
    0.10223E+07        -0.50113E+08         0.00000E+00
    0.00000E+00         0.00000E+00        -0.51425E+08
 
   -0.52102E+08         0.10585E+07         0.00000E+00
    0.10585E+07        -0.50122E+08         0.00000E+00
    0.00000E+00         0.00000E+00        -0.51424E+08
 
   -0.52076E+08         0.10942E+07         0.00000E+00
    0.10942E+07        -0.50131E+08         0.00000E+00
    0.00000E+00         0.00000E+00        -0.51422E+08
 
   -0.52050E+08         0.11294E+07         0.00000E+00
    0.11294E+07        -0.50140E+08         0.00000E+00
    0.00000E+00         0.00000E+00        -0.51421E+08
 
   -0.52023E+08         0.11642E+07         0.00000E+00
    0.11642E+07        -0.50149E+08         0.00000E+00
    0.00000E+00         0.00000E+00        -0.51420E+08
 
   -0.51996E+08         0.11986E+07         0.00000E+00
    0.11986E+07        -0.50159E+08         0.00000E+00
    0.00000E+00         0.00000E+00        -0.51419E+08
 
   -0.51969E+08         0.12325E+07         0.00000E+00
    0.12325E+07        -0.50169E+08         0.00000E+00
    0.00000E+00         0.00000E+00        -0.51418E+08
 
   -0.51942E+08         0.12659E+07         0.00000E+00
    0.12659E+07        -0.50180E+08         0.00000E+00
    0.00000E+00         0.00000E+00        -0.51416E+08
 
   -0.51914E+08         0.12989E+07         0.00000E+00
    0.12989E+07        -0.50190E+08         0.00000E+00
    0.00000E+00         0.00000E+00        -0.51415E+08
 
   -0.51886E+08         0.13315E+07         0.00000E+00
    0.13315E+07        -0.50201E+08         0.00000E+00
    0.00000E+00         0.00000E+00        -0.51414E+08
 
   -0.51859E+08         0.13636E+07         0.00000E+00
    0.13636E+07        -0.50212E+08         0.00000E+00
    0.00000E+00         0.00000E+00        -0.51413E+08
 
   -0.51830E+08         0.13952E+07         0.00000E+00
    0.13952E+07        -0.50224E+08         0.00000E+00
    0.00000E+00         0.00000E+00        -0.51412E+08
 
   -0.51802E+08         0.14264E+07         0.00000E+00
    0.14264E+07        -0.50235E+08         0.00000E+00
    0.00000E+00         0.00000E+00        -0.51411E+08
 
   -0.51774E+08         0.14572E+07         0.00000E+00
    0.14572E+07        -0.50247E+08         0.00000E+00
    0.00000E+00         0.00000E+00        -0.51410E+08
 
   -0.51745E+08         0.14875E+07         0.00000E+00
    0.14875E+07        -0.50259E+08         0.00000E+00
    0.00000E+00         0.00000E+00        -0.51409E+08
 
   -0.51716E+08         0.15173E+07         0.00000E+00
    0.15173E+07        -0.50272E+08         0.00000E+00
    0.00000E+00         0.00000E+00        -0.51409E+08
 
   -0.51687E+08         0.15468E+07         0.00000E+00
    0.15468E+07        -0.50285E+08         0.00000E+00
    0.00000E+00         0.00000E+00        -0.51408E+08
 
   -0.51658E+08         0.15757E+07         0.00000E+00
    0.15757E+07        -0.50297E+08         0.00000E+00
    0.00000E+00         0.00000E+00        -0.51407E+08
 
   -0.51629E+08         0.16043E+07         0.00000E+00
    0.16043E+07        -0.50311E+08         0.00000E+00
    0.00000E+00         0.00000E+00        -0.51407E+08
 
   -0.51599E+08         0.16324E+07         0.00000E+00
    0.16324E+07        -0.50324E+08         0.00000E+00
    0.00000E+00         0.00000E+00        -0.51406E+08
 
   -0.51570E+08         0.16600E+07         0.00000E+00
    0.16600E+07        -0.50338E+08         0.00000E+00
    0.00000E+00         0.00000E+00        -0.51406E+08
 
   -0.51540E+08         0.16872E+07         0.00000E+00
    0.16872E+07        -0.50352E+08         0.00000E+00
    0.00000E+00         0.00000E+00        -0.51405E+08
 
   -0.51510E+08         0.17140E+07         0.00000E+00
    0.17140E+07        -0.50366E+08         0.00000E+00
    0.00000E+00         0.00000E+00        -0.51405E+08
 
   -0.51480E+08         0.17403E+07         0.00000E+00
    0.17403E+07        -0.50380E+08         0.00000E+00
    0.00000E+00         0.00000E+00        -0.51405E+08
 
   -0.51450E+08         0.17661E+07         0.00000E+00
    0.17661E+07        -0.50395E+08         0.00000E+00
    0.00000E+00         0.00000E+00        -0.51404E+08
 
   -0.51419E+08         0.17915E+07         0.00000E+00
    0.17915E+07        -0.50410E+08         0.00000E+00
    0.00000E+00         0.00000E+00        -0.51404E+08
 
   -0.52396E+08         0.22536E+05         0.00000E+00
    0.22536E+05        -0.50000E+08         0.00000E+00
    0.00000E+00         0.00000E+00        -0.51320E+08
 
   -0.52384E+08         0.66761E+05         0.00000E+00
    0.66761E+05        -0.50001E+08         0.00000E+00
    0.00000E+00         0.00000E+00        -0.51320E+08
 
   -0.52370E+08         0.11066E+06         0.00000E+00
    0.11066E+06        -0.50001E+08         0.00000E+00
    0.00000E+00         0.00000E+00        -0.51320E+08
 
   -0.52356E+08         0.15424E+06         0.00000E+00
    0.15424E+06        -0.50002E+08         0.00000E+00
    0.00000E+00         0.00000E+00        -0.51320E+08
 
   -0.52342E+08         0.19747E+06         0.00000E+00
    0.19747E+06        -0.50004E+08         0.00000E+00
    0.00000E+00         0.00000E+00        -0.51319E+08
 
   -0.52327E+08         0.24035E+06         0.00000E+00
    0.24035E+06        -0.50006E+08         0.00000E+00
    0.00000E+00         0.00000E+00        -0.51319E+08
 
   -0.52311E+08         0.28288E+06         0.00000E+00
    0.28288E+06        -0.50008E+08         0.00000E+00
    0.00000E+00         0.00000E+00        -0.51318E+08
 
   -0.52295E+08         0.32504E+06         0.00000E+00
    0.32504E+06        -0.50011E+08         0.00000E+00
    0.00000E+00         0.00000E+00        -0.51318E+08
 
   -0.52278E+08         0.36684E+06         0.00000E+00
    0.36684E+06        -0.50014E+08         0.00000E+00
    0.00000E+00         0.00000E+00        -0.51317E+08
 
   -0.52261E+08         0.40825E+06         0.00000E+00
    0.40825E+06        -0.50017E+08         0.00000E+00
    0.00000E+00         0.00000E+00        -0.51316E+08
 
   -0.52243E+08         0.44928E+06         0.00000E+00
    0.44928E+06        -0.50021E+08         0.00000E+00
    0.00000E+00         0.00000E+00        -0.51316E+08
 
   -0.52224E+08         0.48992E+06         0.00000E+00
    0.48992E+06        -0.50025E+08         0.00000E+00
    0.00000E+00         0.00000E+00        -0.51315E+08
 
   -0.52206E+08         0.53017E+06         0.00000E+00
    0.53017E+06        -0.50029E+08         0.00000E+00
    0.00000E+00         0.00000E+00        -0.51314E+08
 
   -0.52186E+08         0.57001E+06         0.00000E+00
    0.57001E+06        -0.50034E+08         0.00000E+00
    0.00000E+00         0.00000E+00        -0.51313E+08
 
   -0.52167E+08         0.60945E+06         0.00000E+00
    0.60945E+06        -0.50039E+08         0.00000E+00
    0.00000E+00         0.00000E+00        -0.51312E+08
 
   -0.52147E+08         0.64849E+06         0.00000E+00
    0.64849E+06        -0.50044E+08         0.00000E+00
    0.00000E+00         0.00000E+00        -0.51311E+08
 
   -0.52126E+08         0.68711E+06         0.00000E+00
    0.68711E+06        -0.50050E+08         0.00000E+00
    0.00000E+00         0.00000E+00        -0.51310E+08
 
   -0.52105E+08         0.72531E+06         0.00000E+00
    0.72531E+06        -0.50056E+08         0.00000E+00
    0.00000E+00         0.00000E+00        -0.51309E+08
 
   -0.52084E+08         0.76310E+06         0.00000E+00
    0.76310E+06        -0.50062E+08         0.00000E+00
    0.00000E+00         0.00000E+00        -0.51308E+08
 
   -0.52062E+08         0.80047E+06         0.00000E+00
    0.80047E+06        -0.50069E+08         0.00000E+00
    0.00000E+00         0.00000E+00        -0.51307E+08
 
   -0.52040E+08         0.83741E+06         0.00000E+00
    0.83741E+06        -0.50075E+08         0.00000E+00
    0.00000E+00         0.00000E+00        -0.51306E+08
 
   -0.52018E+08         0.87393E+06         0.00000E+00
    0.87393E+06        -0.50082E+08         0.00000E+00
    0.00000E+00         0.00000E+00        -0.51305E+08
 
   -0.51995E+08         0.91001E+06         0.00000E+00
    0.91001E+06        -0.50090E+08         0.00000E+00
    0.00000E+00         0.00000E+00        -0.51304E+08
 
   -0.51972E+08         0.94567E+06         0.00000E+00
    0.94567E+06        -0.50097E+08         0.00000E+00
    0.00000E+00         0.00000E+00        -0.51303E+08
 
   -0.51949E+08         0.98090E+06         0.00000E+00
    0.98090E+06        -0.50105E+08         0.00000E+00
    0.00000E+00         0.00000E+00        -0.51301E+08
 
   -0.51926E+08         0.10157E+07         0.00000E+00
    0.10157E+07        -0.50113E+08         0.00000E+00
    0.00000E+00         0.00000E+00        -0.51300E+08
 
   -0.51902E+08         0.10500E+07         0.00000E+00
    0.10500E+07        -0.50122E+08         0.00000E+00
    0.00000E+00         0.00000E+00        -0.51299E+08
 
   -0.51878E+08         0.10840E+07         0.00000E+00
    0.10840E+07        -0.50130E+08         0.00000E+00
    0.00000E+00         0.00000E+00        -0.51298E+08
 
   -0.51853E+08         0.11175E+07         0.00000E+00
    0.11175E+07        -0.50139E+08         0.00000E+00
    0.00000E+00         0.00000E+00        -0.51297E+08
 
   -0.51829E+08         0.11505E+07         0.00000E+00
    0.11505E+07        -0.50148E+08         0.00000E+00
    0.00000E+00         0.00000E+00        -0.51296E+08
 
   -0.51804E+08         0.11831E+07         0.00000E+00
    0.11831E+07        -0.50158E+08         0.00000E+00
    0.00000E+00         0.00000E+00        -0.51295E+08
 
   -0.51779E+08         0.12153E+07         0.00000E+00
    0.12153E+07        -0.50167E+08         0.00000E+00
    0.00000E+00         0.00000E+00        -0.51294E+08
 
   -0.51754E+08         0.12470E+07         0.00000E+00
    0.12470E+07        -0.50177E+08         0.00000E+00
    0.00000E+00         0.00000E+00        -0.51293E+08
 
   -0.51728E+08         0.12783E+07         0.00000E+00
    0.12783E+07        -0.50187E+08         0.00000E+00
    0.00000E+00         0.00000E+00        -0.51292E+08
 
   -0.51702E+08         0.13091E+07         0.00000E+00
    0.13091E+07        -0.50198E+08         0.00000E+00
    0.00000E+00         0.00000E+00        -0.51291E+08
 
   -0.51676E+08         0.13396E+07         0.00000E+00
    0.13396E+07        -0.50208E+08         0.00000E+00
    0.00000E+00         0.00000E+00        -0.51290E+08
 
   -0.51650E+08         0.13695E+07         0.00000E+00
    0.13695E+07        -0.50219E+08         0.00000E+00
    0.00000E+00         0.00000E+00        -0.51289E+08
 
   -0.51624E+08         0.13991E+07         0.00000E+00
    0.13991E+07        -0.50230E+08         0.00000E+00
    0.00000E+00         0.00000E+00        -0.51288E+08
 
   -0.51598E+08         0.14281E+07         0.00000E+00
    0.14281E+07        -0.50242E+08         0.00000E+00
    0.00000E+00         0.00000E+00        -0.51287E+08
 
   -0.51571E+08         0.14568E+07         0.00000E+00
    0.14568E+07        -0.50253E+08         0.00000E+00
    0.00000E+00         0.00000E+00        -0.51286E+08
 
   -0.51544E+08         0.14850E+07         0.00000E+00
    0.14850E+07        -0.50265E+08         0.00000E+00
    0.00000E+00         0.00000E+00        -0.51286E+08
 
   -0.51517E+08         0.15128E+07         0.00000E+00
    0.15128E+07        -0.50277E+08         0.00000E+00
    0.00000E+00         0.00000E+00        -0.51285E+08
 
   -0.51490E+08         0.15401E+07         0.00000E+00
    0.15401E+07        -0.50289E+08         0.00000E+00
    0.00000E+00         0.00000E+00        -0.51285E+08
 
   -0.51463E+08         0.15670E+07         0.00000E+00
    0.15670E+07        -0.50302E+08         0.00000E+00
    0.00000E+00         0.00000E+00        -0.51284E+08
 
   -0.51435E+08         0.15934E+07         0.00000E+00
    0.15934E+07        -0.50315E+08         0.00000E+00
    0.00000E+00         0.00000E+00        -0.51284E+08
 
   -0.51408E+08         0.16194E+07         0.00000E+00
    0.16194E+07        -0.50327E+08         0.00000E+00
    0.00000E+00         0.00000E+00        -0.51283E+08
 
   -0.51380E+08         0.16449E+07         0.00000E+00
    0.16449E+07        -0.50341E+08         0.00000E+00
    0.00000E+00         0.00000E+00        -0.51283E+08
 
   -0.51352E+08         0.16700E+07         0.00000E+00
    0.16700E+07        -0.50354E+08         0.00000E+00
    0.00000E+00         0.00000E+00        -0.51283E+08
 
   -0.51325E+08         0.16947E+07         0.00000E+00
    0.16947E+07        -0.50368E+08         0.00000E+00
    0.00000E+00         0.00000E+00        -0.51283E+08
 
   -0.51296E+08         0.17189E+07         0.00000E+00
    0.17189E+07        -0.50382E+08         0.00000E+00
    0.00000E+00         0.00000E+00        -0.51282E+08
 
   -0.52179E+08         0.21538E+05         0.00000E+00
    0.21538E+05        -0.50000E+08         0.00000E+00
    0.00000E+00         0.00000E+00        -0.51201E+08
 
   -0.52168E+08         0.63860E+05         0.00000E+00
    0.63860E+05        -0.50000E+08         0.00000E+00
    0.00000E+00         0.00000E+00        -0.51200E+08
 
   -0.52156E+08         0.10590E+06         0.00000E+00
    0.10590E+06        -0.50001E+08         0.00000E+00
    0.00000E+00         0.00000E+00        -0.51200E+08
 
   -0.52144E+08         0.14763E+06         0.00000E+00
    0.14763E+06        -0.50002E+08         0.00000E+00
    0.00000E+00         0.00000E+00        -0.51200E+08
 
   -0.52131E+08         0.18906E+06         0.00000E+00
    0.18906E+06        -0.50004E+08         0.00000E+00
    0.00000E+00         0.00000E+00        -0.51200E+08
 
   -0.52117E+08         0.23018E+06         0.00000E+00
    0.23018E+06        -0.50005E+08         0.00000E+00
    0.00000E+00         0.00000E+00        -0.51199E+08
 
   -0.52104E+08         0.27097E+06         0.00000E+00
    0.27097E+06        -0.50008E+08         0.00000E+00
    0.00000E+00         0.00000E+00        -0.51199E+08
 
   -0.52089E+08         0.31142E+06         0.00000E+00
    0.31142E+06        -0.50010E+08         0.00000E+00
    0.00000E+00         0.00000E+00        -0.51198E+08
 
   -0.52074E+08         0.35154E+06         0.00000E+00
    0.35154E+06        -0.50013E+08         0.00000E+00
    0.00000E+00         0.00000E+00        -0.51198E+08
 
   -0.52059E+08         0.39131E+06         0.00000E+00
    0.39131E+06        -0.50016E+08         0.00000E+00
    0.00000E+00         0.00000E+00        -0.51197E+08
 
   -0.52043E+08         0.43073E+06         0.00000E+00
    0.43073E+06        -0.50019E+08         0.00000E+00
    0.00000E+00         0.00000E+00        -0.51197E+08
 
   -0.52026E+08         0.46978E+06         0.00000E+00
    0.46978E+06        -0.50023E+08         0.00000E+00
    0.00000E+00         0.00000E+00        -0.51196E+08
 
   -0.52009E+08         0.50847E+06         0.00000E+00
    0.50847E+06        -0.50027E+08         0.00000E+00
    0.00000E+00         0.00000E+00        -0.51195E+08
 
   -0.51992E+08         0.54679E+06         0.00000E+00
    0.54679E+06        -0.50031E+08         0.00000E+00
    0.00000E+00         0.00000E+00        -0.51194E+08
 
   -0.51974E+08         0.58472E+06         0.00000E+00
    0.58472E+06        -0.50036E+08         0.00000E+00
    0.00000E+00         0.00000E+00        -0.51193E+08
 
   -0.51956E+08         0.62228E+06         0.00000E+00
    0.62228E+06        -0.50041E+08         0.00000E+00
    0.00000E+00         0.00000E+00        -0.51192E+08
 
   -0.51938E+08         0.65945E+06         0.00000E+00
    0.65945E+06        -0.50046E+08         0.00000E+00
    0.00000E+00         0.00000E+00        -0.51192E+08
 
   -0.51919E+08         0.69623E+06         0.00000E+00
    0.69623E+06        -0.50051E+08         0.00000E+00
    0.00000E+00         0.00000E+00        -0.51191E+08
 
   -0.51900E+08         0.73261E+06         0.00000E+00
    0.73261E+06        -0.50057E+08         0.00000E+00
    0.00000E+00         0.00000E+00        -0.51190E+08
 
   -0.51880E+08         0.76859E+06         0.00000E+00
    0.76859E+06        -0.50063E+08         0.00000E+00
    0.00000E+00         0.00000E+00        -0.51189E+08
 
   -0.51860E+08         0.80417E+06         0.00000E+00
    0.80417E+06        -0.50069E+08         0.00000E+00
    0.00000E+00         0.00000E+00        -0.51188E+08
 
   -0.51840E+08         0.83935E+06         0.00000E+00
    0.83935E+06        -0.50076E+08         0.00000E+00
    0.00000E+00         0.00000E+00        -0.51187E+08
 
   -0.51819E+08         0.87411E+06         0.00000E+00
    0.87411E+06        -0.50083E+08         0.00000E+00
    0.00000E+00         0.00000E+00        -0.51186E+08
 
   -0.51798E+08         0.90847E+06         0.00000E+00
    0.90847E+06        -0.50090E+08         0.00000E+00
    0.00000E+00         0.00000E+00        -0.51185E+08
 
   -0.51777E+08         0.94241E+06         0.00000E+00
    0.94241E+06        -0.50097E+08         0.00000E+00
    0.00000E+00         0.00000E+00        -0.51184E+08
 
   -0.51756E+08         0.97593E+06         0.00000E+00
    0.97593E+06        -0.50105E+08         0.00000E+00
    0.00000E+00         0.00000E+00        -0.51183E+08
 
   -0.51734E+08         0.10090E+07         0.00000E+00
    0.10090E+07        -0.50112E+08         0.00000E+00
    0.00000E+00         0.00000E+00        -0.51181E+08
 
   -0.51712E+08         0.10417E+07         0.00000E+00
    0.10417E+07        -0.50120E+08         0.00000E+00
    0.00000E+00         0.00000E+00        -0.51180E+08
 
   -0.51690E+08         0.10740E+07         0.00000E+00
    0.10740E+07        -0.50129E+08         0.00000E+00
    0.00000E+00         0.00000E+00        -0.51179E+08
 
   -0.51668E+08         0.11058E+07         0.00000E+00
    0.11058E+07        -0.50137E+08         0.00000E+00
    0.00000E+00         0.00000E+00        -0.51178E+08
 
   -0.51645E+08         0.11372E+07         0.00000E+00
    0.11372E+07        -0.50146E+08         0.00000E+00
    0.00000E+00         0.00000E+00        -0.51177E+08
 
   -0.51622E+08         0.11682E+07         0.00000E+00
    0.11682E+07        -0.50155E+08         0.00000E+00
    0.00000E+00         0.00000E+00        -0.51177E+08
 
   -0.51599E+08         0.11988E+07         0.00000E+00
    0.11988E+07        -0.50164E+08         0.00000E+00
    0.00000E+00         0.00000E+00        -0.51176E+08
 
   -0.51576E+08         0.12289E+07         0.00000E+00
    0.12289E+07        -0.50173E+08         0.00000E+00
    0.00000E+00         0.00000E+00        -0.51175E+08
 
   -0.51552E+08         0.12586E+07         0.00000E+00
    0.12586E+07        -0.50183E+08         0.00000E+00
    0.00000E+00         0.00000E+00        -0.51174E+08
 
   -0.51528E+08         0.12879E+07         0.00000E+00
    0.12879E+07        -0.50193E+08         0.00000E+00
    0.00000E+00         0.00000E+00        -0.51173E+08
 
   -0.51504E+08         0.13167E+07         0.00000E+00
    0.13167E+07        -0.50203E+08         0.00000E+00
    0.00000E+00         0.00000E+00        -0.51172E+08
 
   -0.51480E+08         0.13451E+07         0.00000E+00
    0.13451E+07        -0.50213E+08         0.00000E+00
    0.00000E+00         0.00000E+00        -0.51171E+08
 
   -0.51456E+08         0.13731E+07         0.00000E+00
    0.13731E+07        -0.50223E+08         0.00000E+00
    0.00000E+00         0.00000E+00        -0.51171E+08
 
   -0.51432E+08         0.14006E+07         0.00000E+00
    0.14006E+07        -0.50234E+08         0.00000E+00
    0.00000E+00         0.00000E+00        -0.51170E+08
 
   -0.51407E+08         0.14277E+07         0.00000E+00
    0.14277E+07        -0.50245E+08         0.00000E+00
    0.00000E+00         0.00000E+00        -0.51169E+08
 
   -0.51382E+08         0.14544E+07         0.00000E+00
    0.14544E+07        -0.50256E+08         0.00000E+00
    0.00000E+00         0.00000E+00        -0.51169E+08
 
   -0.51357E+08         0.14806E+07         0.00000E+00
    0.14806E+07        -0.50267E+08         0.00000E+00
    0.00000E+00         0.00000E+00        -0.51168E+08
 
   -0.51332E+08         0.15064E+07         0.00000E+00
    0.15064E+07        -0.50279E+08         0.00000E+00
    0.00000E+00         0.00000E+00        -0.51168E+08
 
   -0.51307E+08         0.15317E+07         0.00000E+00
    0.15317E+07        -0.50291E+08         0.00000E+00
    0.00000E+00         0.00000E+00        -0.51167E+08
 
   -0.51282E+08         0.15566E+07         0.00000E+00
    0.15566E+07        -0.50303E+08         0.00000E+00
    0.00000E+00         0.00000E+00        -0.51167E+08
 
   -0.51256E+08         0.15811E+07         0.00000E+00
    0.15811E+07        -0.50315E+08         0.00000E+00
    0.00000E+00         0.00000E+00        -0.51167E+08
 
   -0.51231E+08         0.16051E+07         0.00000E+00
    0.16051E+07        -0.50327E+08         0.00000E+00
    0.00000E+00         0.00000E+00        -0.51167E+08
 
   -0.51205E+08         0.16287E+07         0.00000E+00
    0.16287E+07        -0.50340E+08         0.00000E+00
    0.00000E+00         0.00000E+00        -0.51166E+08
 
   -0.51179E+08         0.16518E+07         0.00000E+00
    0.16518E+07        -0.50352E+08         0.00000E+00
    0.00000E+00         0.00000E+00        -0.51166E+08
 
   -0.51971E+08         0.20629E+05         0.00000E+00
    0.20629E+05        -0.50000E+08         0.00000E+00
    0.00000E+00         0.00000E+00        -0.51086E+08
 
   -0.51961E+08         0.61214E+05         0.00000E+00
    0.61214E+05        -0.50000E+08         0.00000E+00
    0.00000E+00         0.00000E+00        -0.51086E+08
 
   -0.51951E+08         0.10154E+06         0.00000E+00
    0.10154E+06        -0.50001E+08         0.00000E+00
    0.00000E+00         0.00000E+00        -0.51086E+08
 
   -0.51940E+08         0.14160E+06         0.00000E+00
    0.14160E+06        -0.50002E+08         0.00000E+00
    0.00000E+00         0.00000E+00        -0.51086E+08
 
   -0.51929E+08         0.18137E+06         0.00000E+00
    0.18137E+06        -0.50003E+08         0.00000E+00
    0.00000E+00         0.00000E+00        -0.51085E+08
 
   -0.51917E+08         0.22086E+06         0.00000E+00
    0.22086E+06        -0.50005E+08         0.00000E+00
    0.00000E+00         0.00000E+00        -0.51085E+08
 
   -0.51904E+08         0.26006E+06         0.00000E+00
    0.26006E+06        -0.50007E+08         0.00000E+00
    0.00000E+00         0.00000E+00        -0.51085E+08
 
   -0.51891E+08         0.29895E+06         0.00000E+00
    0.29895E+06        -0.50009E+08         0.00000E+00
    0.00000E+00         0.00000E+00        -0.51084E+08
 
   -0.51878E+08         0.33752E+06         0.00000E+00
    0.33752E+06        -0.50012E+08         0.00000E+00
    0.00000E+00         0.00000E+00        -0.51084E+08
 
   -0.51864E+08         0.37577E+06         0.00000E+00
    0.37577E+06        -0.50015E+08         0.00000E+00
    0.00000E+00         0.00000E+00        -0.51083E+08
 
   -0.51850E+08         0.41370E+06         0.00000E+00
    0.41370E+06        -0.50018E+08         0.00000E+00
    0.00000E+00         0.00000E+00        -0.51083E+08
 
   -0.51835E+08         0.45129E+06         0.00000E+00
    0.45129E+06        -0.50021E+08         0.00000E+00
    0.00000E+00         0.00000E+00        -0.51082E+08
 
   -0.51820E+08         0.48854E+06         0.00000E+00
    0.48854E+06        -0.50025E+08         0.00000E+00
    0.00000E+00         0.00000E+00        -0.51081E+08
 
   -0.51805E+08         0.52544E+06         0.00000E+00
    0.52544E+06        -0.50029E+08         0.00000E+00
    0.00000E+00         0.00000E+00        -0.51080E+08
 
   -0.51789E+08         0.56199E+06         0.00000E+00
    0.56199E+06        -0.50033E+08         0.00000E+00
    0.00000E+00         0.00000E+00        -0.51080E+08
 
   -0.51773E+08         0.59818E+06         0.00000E+00
    0.59818E+06        -0.50037E+08         0.00000E+00
    0.00000E+00         0.00000E+00        -0.51079E+08
 
   -0.51756E+08         0.63400E+06         0.00000E+00
    0.63400E+06        -0.50042E+08         0.00000E+00
    0.00000E+00         0.00000E+00        -0.51078E+08
 
   -0.51739E+08         0.66946E+06         0.00000E+00
    0.66946E+06        -0.50047E+08         0.00000E+00
    0.00000E+00         0.00000E+00        -0.51077E+08
 
   -0.51722E+08         0.70454E+06         0.00000E+00
    0.70454E+06        -0.50052E+08         0.00000E+00
    0.00000E+00         0.00000E+00        -0.51076E+08
 
   -0.51704E+08         0.73924E+06         0.00000E+00
    0.73924E+06        -0.50058E+08         0.00000E+00
    0.00000E+00         0.00000E+00        -0.51075E+08
 
   -0.51686E+08         0.77356E+06         0.00000E+00
    0.77356E+06        -0.50064E+08         0.00000E+00
    0.00000E+00         0.00000E+00        -0.51075E+08
 
   -0.51668E+08         0.80749E+06         0.00000E+00
    0.80749E+06        -0.50070E+08         0.00000E+00
    0.00000E+00         0.00000E+00        -0.51074E+08
 
   -0.51650E+08         0.84103E+06         0.00000E+00
    0.84103E+06        -0.50076E+08         0.00000E+00
    0.00000E+00         0.00000E+00        -0.51073E+08
 
   -0.51631E+08         0.87418E+06         0.00000E+00
    0.87418E+06        -0.50082E+08         0.00000E+00
    0.00000E+00         0.00000E+00        -0.51072E+08
 
   -0.51612E+08         0.90694E+06         0.00000E+00
    0.90694E+06        -0.50089E+08         0.00000E+00
    0.00000E+00         0.00000E+00        -0.51071E+08
 
   -0.51592E+08         0.93929E+06         0.00000E+00
    0.93929E+06        -0.50096E+08         0.00000E+00
    0.00000E+00         0.00000E+00        -0.51070E+08
 
   -0.51573E+08         0.97124E+06         0.00000E+00
    0.97124E+06        -0.50103E+08         0.00000E+00
    0.00000E+00         0.00000E+00        -0.51069E+08
 
   -0.51553E+08         0.10028E+07         0.00000E+00
    0.10028E+07        -0.50110E+08         0.00000E+00
    0.00000E+00         0.00000E+00        -0.51068E+08
 
   -0.51533E+08         0.10339E+07         0.00000E+00
    0.10339E+07        -0.50118E+08         0.00000E+00
    0.00000E+00         0.00000E+00        -0.51067E+08
 
   -0.51512E+08         0.10646E+07         0.00000E+00
    0.10646E+07        -0.50126E+08         0.00000E+00
    0.00000E+00         0.00000E+00        -0.51066E+08
 
   -0.51492E+08         0.10950E+07         0.00000E+00
    0.10950E+07        -0.50134E+08         0.00000E+00
    0.00000E+00         0.00000E+00        -0.51065E+08
 
   -0.51471E+08         0.11248E+07         0.00000E+00
    0.11248E+07        -0.50142E+08         0.00000E+00
    0.00000E+00         0.00000E+00        -0.51065E+08
 
   -0.51450E+08         0.11543E+07         0.00000E+00
    0.11543E+07        -0.50150E+08         0.00000E+00
    0.00000E+00         0.00000E+00        -0.51064E+08
 
   -0.51429E+08         0.11834E+07         0.00000E+00
    0.11834E+07        -0.50159E+08         0.00000E+00
    0.00000E+00         0.00000E+00        -0.51063E+08
 
   -0.51407E+08         0.12120E+07         0.00000E+00
    0.12120E+07        -0.50168E+08         0.00000E+00
    0.00000E+00         0.00000E+00        -0.51062E+08
 
   -0.51386E+08         0.12402E+07         0.00000E+00
    0.12402E+07        -0.50177E+08         0.00000E+00
    0.00000E+00         0.00000E+00        -0.51061E+08
 
   -0.51364E+08         0.12680E+07         0.00000E+00
    0.12680E+07        -0.50186E+08         0.00000E+00
    0.00000E+00         0.00000E+00        -0.51061E+08
 
   -0.51342E+08         0.12954E+07         0.00000E+00
    0.12954E+07        -0.50195E+08         0.00000E+00
    0.00000E+00         0.00000E+00        -0.51060E+08
 
   -0.51320E+08         0.13224E+07         0.00000E+00
    0.13224E+07        -0.50205E+08         0.00000E+00
    0.00000E+00         0.00000E+00        -0.51059E+08
 
   -0.51298E+08         0.13489E+07         0.00000E+00
    0.13489E+07        -0.50215E+08         0.00000E+00
    0.00000E+00         0.00000E+00        -0.51059E+08
 
   -0.51275E+08         0.13750E+07         0.00000E+00
    0.13750E+07        -0.50225E+08         0.00000E+00
    0.00000E+00         0.00000E+00        -0.51058E+08
 
   -0.51253E+08         0.14006E+07         0.00000E+00
    0.14006E+07        -0.50235E+08         0.00000E+00
    0.00000E+00         0.00000E+00        -0.51058E+08
 
   -0.51230E+08         0.14258E+07         0.00000E+00
    0.14258E+07        -0.50245E+08         0.00000E+00
    0.00000E+00         0.00000E+00        -0.51057E+08
 
   -0.51207E+08         0.14506E+07         0.00000E+00
    0.14506E+07        -0.50256E+08         0.00000E+00
    0.00000E+00         0.00000E+00        -0.51057E+08
 
   -0.51184E+08         0.14750E+07         0.00000E+00
    0.14750E+07        -0.50267E+08         0.00000E+00
    0.00000E+00         0.00000E+00        -0.51056E+08
 
   -0.51161E+08         0.14989E+07         0.00000E+00
    0.14989E+07        -0.50277E+08         0.00000E+00
    0.00000E+00         0.00000E+00        -0.51056E+08
 
   -0.51138E+08         0.15224E+07         0.00000E+00
    0.15224E+07        -0.50289E+08         0.00000E+00
    0.00000E+00         0.00000E+00        -0.51056E+08
 
   -0.51114E+08         0.15454E+07         0.00000E+00
    0.15454E+07        -0.50300E+08         0.00000E+00
    0.00000E+00         0.00000E+00        -0.51056E+08
 
   -0.51091E+08         0.15680E+07         0.00000E+00
    0.15680E+07        -0.50311E+08         0.00000E+00
    0.00000E+00         0.00000E+00        -0.51055E+08
 
   -0.51067E+08         0.15902E+07         0.00000E+00
    0.15902E+07        -0.50323E+08         0.00000E+00
    0.00000E+00         0.00000E+00        -0.51055E+08
 
   -0.51772E+08         0.19809E+05         0.00000E+00
    0.19809E+05        -0.50000E+08         0.00000E+00
    0.00000E+00         0.00000E+00        -0.50976E+08
 
   -0.51763E+08         0.58818E+05         0.00000E+00
    0.58818E+05        -0.50000E+08         0.00000E+00
    0.00000E+00         0.00000E+00        -0.50976E+08
 
   -0.51754E+08         0.97593E+05         0.00000E+00
    0.97593E+05        -0.50001E+08         0.00000E+00
    0.00000E+00         0.00000E+00        -0.50976E+08
 
   -0.51744E+08         0.13612E+06         0.00000E+00
    0.13612E+06        -0.50002E+08         0.00000E+00
    0.00000E+00         0.00000E+00        -0.50976E+08
 
   -0.51734E+08         0.17440E+06         0.00000E+00
    0.17440E+06        -0.50003E+08         0.00000E+00
    0.00000E+00         0.00000E+00        -0.50976E+08
 
   -0.51724E+08         0.21241E+06         0.00000E+00
    0.21241E+06        -0.50005E+08         0.00000E+00
    0.00000E+00         0.00000E+00        -0.50976E+08
 
   -0.51713E+08         0.25015E+06         0.00000E+00
    0.25015E+06        -0.50006E+08         0.00000E+00
    0.00000E+00         0.00000E+00        -0.50975E+08
 
   -0.51701E+08         0.28760E+06         0.00000E+00
    0.28760E+06        -0.50008E+08         0.00000E+00
    0.00000E+00         0.00000E+00        -0.50975E+08
 
   -0.51690E+08         0.32477E+06         0.00000E+00
    0.32477E+06        -0.50011E+08         0.00000E+00
    0.00000E+00         0.00000E+00        -0.50974E+08
 
   -0.51677E+08         0.36164E+06         0.00000E+00
    0.36164E+06        -0.50013E+08         0.00000E+00
    0.00000E+00         0.00000E+00        -0.50974E+08
 
   -0.51665E+08         0.39820E+06         0.00000E+00
    0.39820E+06        -0.50016E+08         0.00000E+00
    0.00000E+00         0.00000E+00        -0.50973E+08
 
   -0.51652E+08         0.43445E+06         0.00000E+00
    0.43445E+06        -0.50019E+08         0.00000E+00
    0.00000E+00         0.00000E+00        -0.50973E+08
 
   -0.51638E+08         0.47038E+06         0.00000E+00
    0.47038E+06        -0.50022E+08         0.00000E+00
    0.00000E+00         0.00000E+00        -0.50972E+08
 
   -0.51624E+08         0.50599E+06         0.00000E+00
    0.50599E+06        -0.50026E+08         0.00000E+00
    0.00000E+00         0.00000E+00        -0.50971E+08
 
   -0.51610E+08         0.54126E+06         0.00000E+00
    0.54126E+06        -0.50030E+08         0.00000E+00
    0.00000E+00         0.00000E+00        -0.50971E+08
 
   -0.51596E+08         0.57620E+06         0.00000E+00
    0.57620E+06        -0.50034E+08         0.00000E+00
    0.00000E+00         0.00000E+00        -0.50970E+08
 
   -0.51581E+08         0.61079E+06         0.00000E+00
    0.61079E+06        -0.50038E+08         0.00000E+00
    0.00000E+00         0.00000E+00        -0.50969E+08
 
   -0.51566E+08         0.64503E+06         0.00000E+00
    0.64503E+06        -0.50043E+08         0.00000E+00
    0.00000E+00         0.00000E+00        -0.50969E+08
 
   -0.51550E+08         0.67891E+06         0.00000E+00
    0.67891E+06        -0.50047E+08         0.00000E+00
    0.00000E+00         0.00000E+00        -0.50968E+08
 
   -0.51535E+08         0.71244E+06         0.00000E+00
    0.71244E+06        -0.50052E+08         0.00000E+00
    0.00000E+00         0.00000E+00        -0.50967E+08
 
   -0.51519E+08         0.74560E+06         0.00000E+00
    0.74560E+06        -0.50058E+08         0.00000E+00
    0.00000E+00         0.00000E+00        -0.50966E+08
 
   -0.51502E+08         0.77839E+06         0.00000E+00
    0.77839E+06        -0.50063E+08         0.00000E+00
    0.00000E+00         0.00000E+00        -0.50965E+08
 
   -0.51486E+08         0.81081E+06         0.00000E+00
    0.81081E+06        -0.50069E+08         0.00000E+00
    0.00000E+00         0.00000E+00        -0.50965E+08
 
   -0.51469E+08         0.84286E+06         0.00000E+00
    0.84286E+06        -0.50075E+08         0.00000E+00
    0.00000E+00         0.00000E+00        -0.50964E+08
 
   -0.51452E+08         0.87452E+06         0.00000E+00
    0.87452E+06        -0.50081E+08         0.00000E+00
    0.00000E+00         0.00000E+00        -0.50963E+08
 
   -0.51434E+08         0.90579E+06         0.00000E+00
    0.90579E+06        -0.50087E+08         0.00000E+00
    0.00000E+00         0.00000E+00        -0.50962E+08
 
   -0.51417E+08         0.93668E+06         0.00000E+00
    0.93668E+06        -0.50093E+08         0.00000E+00
    0.00000E+00         0.00000E+00        -0.50961E+08
 
   -0.51399E+08         0.96718E+06         0.00000E+00
    0.96718E+06        -0.50100E+08         0.00000E+00
    0.00000E+00         0.00000E+00        -0.50960E+08
 
   -0.51381E+08         0.99728E+06         0.00000E+00
    0.99728E+06        -0.50107E+08         0.00000E+00
    0.00000E+00         0.00000E+00        -0.50960E+08
 
   -0.51362E+08         0.10270E+07         0.00000E+00
    0.10270E+07        -0.50114E+08         0.00000E+00
    0.00000E+00         0.00000E+00        -0.50959E+08
 
   -0.51344E+08         0.10563E+07         0.00000E+00
    0.10563E+07        -0.50121E+08         0.00000E+00
    0.00000E+00         0.00000E+00        -0.50958E+08
 
   -0.51325E+08         0.10852E+07         0.00000E+00
    0.10852E+07        -0.50129E+08         0.00000E+00
    0.00000E+00         0.00000E+00        -0.50957E+08
 
   -0.51306E+08         0.11137E+07         0.00000E+00
    0.11137E+07        -0.50136E+08         0.00000E+00
    0.00000E+00         0.00000E+00        -0.50956E+08
 
   -0.51287E+08         0.11418E+07         0.00000E+00
    0.11418E+07        -0.50144E+08         0.00000E+00
    0.00000E+00         0.00000E+00        -0.50956E+08
 
   -0.51268E+08         0.11694E+07         0.00000E+00
    0.11694E+07        -0.50152E+08         0.00000E+00
    0.00000E+00         0.00000E+00        -0.50955E+08
 
   -0.51248E+08         0.11967E+07         0.00000E+00
    0.11967E+07        -0.50161E+08         0.00000E+00
    0.00000E+00         0.00000E+00        -0.50954E+08
 
   -0.51228E+08         0.12236E+07         0.00000E+00
    0.12236E+07        -0.50169E+08         0.00000E+00
    0.00000E+00         0.00000E+00        -0.50954E+08
 
   -0.51209E+08         0.12500E+07         0.00000E+00
    0.12500E+07        -0.50177E+08         0.00000E+00
    0.00000E+00         0.00000E+00        -0.50953E+08
 
   -0.51189E+08         0.12760E+07         0.00000E+00
    0.12760E+07        -0.50186E+08         0.00000E+00
    0.00000E+00         0.00000E+00        -0.50952E+08
 
   -0.51168E+08         0.13016E+07         0.00000E+00
    0.13016E+07        -0.50195E+08         0.00000E+00
    0.00000E+00         0.00000E+00        -0.50952E+08
 
   -0.51148E+08         0.13268E+07         0.00000E+00
    0.13268E+07        -0.50204E+08         0.00000E+00
    0.00000E+00         0.00000E+00        -0.50951E+08
 
   -0.51128E+08         0.13515E+07         0.00000E+00
    0.13515E+07        -0.50213E+08         0.00000E+00
    0.00000E+00         0.00000E+00        -0.50951E+08
 
   -0.51107E+08         0.13758E+07         0.00000E+00
    0.13758E+07        -0.50223E+08         0.00000E+00
    0.00000E+00         0.00000E+00        -0.50950E+08
 
   -0.51086E+08         0.13997E+07         0.00000E+00
    0.13997E+07        -0.50233E+08         0.00000E+00
    0.00000E+00         0.00000E+00        -0.50950E+08
 
   -0.51066E+08         0.14232E+07         0.00000E+00
    0.14232E+07        -0.50242E+08         0.00000E+00
    0.00000E+00         0.00000E+00        -0.50950E+08
 
   -0.51045E+08         0.14462E+07         0.00000E+00
    0.14462E+07        -0.50252E+08         0.00000E+00
    0.00000E+00         0.00000E+00        -0.50949E+08
 
   -0.51024E+08         0.14688E+07         0.00000E+00
    0.14688E+07        -0.50262E+08         0.00000E+00
    0.00000E+00         0.00000E+00        -0.50949E+08
 
   -0.51002E+08         0.14910E+07         0.00000E+00
    0.14910E+07        -0.50273E+08         0.00000E+00
    0.00000E+00         0.00000E+00        -0.50949E+08
 
   -0.50981E+08         0.15128E+07         0.00000E+00
    0.15128E+07        -0.50283E+08         0.00000E+00
    0.00000E+00         0.00000E+00        -0.50949E+08
 
   -0.50960E+08         0.15341E+07         0.00000E+00
    0.15341E+07        -0.50294E+08         0.00000E+00
    0.00000E+00         0.00000E+00        -0.50949E+08
 
   -0.51580E+08         0.19073E+05         0.00000E+00
    0.19073E+05        -0.50000E+08         0.00000E+00
    0.00000E+00         0.00000E+00        -0.50871E+08
 
   -0.51572E+08         0.56668E+05         0.00000E+00
    0.56668E+05        -0.50000E+08         0.00000E+00
    0.00000E+00         0.00000E+00        -0.50871E+08
 
   -0.51564E+08         0.94047E+05         0.00000E+00
    0.94047E+05        -0.50001E+08         0.00000E+00
    0.00000E+00         0.00000E+00        -0.50871E+08
 
   -0.51556E+08         0.13120E+06         0.00000E+00
    0.13120E+06        -0.50002E+08         0.00000E+00
    0.00000E+00         0.00000E+00        -0.50871E+08
 
   -0.51547E+08         0.16812E+06         0.00000E+00
    0.16812E+06        -0.50003E+08         0.00000E+00
    0.00000E+00         0.00000E+00        -0.50870E+08
 
   -0.51538E+08         0.20480E+06         0.00000E+00
    0.20480E+06        -0.50004E+08         0.00000E+00
    0.00000E+00         0.00000E+00        -0.50870E+08
 
   -0.51528E+08         0.24122E+06         0.00000E+00
    0.24122E+06        -0.50006E+08         0.00000E+00
    0.00000E+00         0.00000E+00        -0.50870E+08
 
   -0.51518E+08         0.27739E+06         0.00000E+00
    0.27739E+06        -0.50007E+08         0.00000E+00
    0.00000E+00         0.00000E+00        -0.50869E+08
 
   -0.51508E+08         0.31328E+06         0.00000E+00
    0.31328E+06        -0.50009E+08         0.00000E+00
    0.00000E+00         0.00000E+00        -0.50869E+08
 
   -0.51497E+08         0.34889E+06         0.00000E+00
    0.34889E+06        -0.50012E+08         0.00000E+00
    0.00000E+00         0.00000E+00        -0.50869E+08
 
   -0.51486E+08         0.38422E+06         0.00000E+00
    0.38422E+06        -0.50014E+08         0.00000E+00
    0.00000E+00         0.00000E+00        -0.50868E+08
 
   -0.51474E+08         0.41926E+06         0.00000E+00
    0.41926E+06        -0.50017E+08         0.00000E+00
    0.00000E+00         0.00000E+00        -0.50868E+08
 
   -0.51462E+08         0.45400E+06         0.00000E+00
    0.45400E+06        -0.50020E+08         0.00000E+00
    0.00000E+00         0.00000E+00        -0.50867E+08
 
   -0.51450E+08         0.48843E+06         0.00000E+00
    0.48843E+06        -0.50023E+08         0.00000E+00
    0.00000E+00         0.00000E+00        -0.50866E+08
 
   -0.51438E+08         0.52254E+06         0.00000E+00
    0.52254E+06        -0.50027E+08         0.00000E+00
    0.00000E+00         0.00000E+00        -0.50866E+08
 
   -0.51425E+08         0.55634E+06         0.00000E+00
    0.55634E+06        -0.50030E+08         0.00000E+00
    0.00000E+00         0.00000E+00        -0.50865E+08
 
   -0.51412E+08         0.58981E+06         0.00000E+00
    0.58981E+06        -0.50034E+08         0.00000E+00
    0.00000E+00         0.00000E+00        -0.50865E+08
 
   -0.51398E+08         0.62294E+06         0.00000E+00
    0.62294E+06        -0.50038E+08         0.00000E+00
    0.00000E+00         0.00000E+00        -0.50864E+08
 
   -0.51385E+08         0.65574E+06         0.00000E+00
    0.65574E+06        -0.50043E+08         0.00000E+00
    0.00000E+00         0.00000E+00        -0.50863E+08
 
   -0.51371E+08         0.68820E+06         0.00000E+00
    0.68820E+06        -0.50047E+08         0.00000E+00
    0.00000E+00         0.00000E+00        -0.50863E+08
 
   -0.51356E+08         0.72031E+06         0.00000E+00
    0.72031E+06        -0.50052E+08         0.00000E+00
    0.00000E+00         0.00000E+00        -0.50862E+08
 
   -0.51342E+08         0.75206E+06         0.00000E+00
    0.75206E+06        -0.50057E+08         0.00000E+00
    0.00000E+00         0.00000E+00        -0.50861E+08
 
   -0.51327E+08         0.78346E+06         0.00000E+00
    0.78346E+06        -0.50062E+08         0.00000E+00
    0.00000E+00         0.00000E+00        -0.50860E+08
 
   -0.51312E+08         0.81450E+06         0.00000E+00
    0.81450E+06        -0.50067E+08         0.00000E+00
    0.00000E+00         0.00000E+00        -0.50860E+08
 
   -0.51297E+08         0.84517E+06         0.00000E+00
    0.84517E+06        -0.50072E+08         0.00000E+00
    0.00000E+00         0.00000E+00        -0.50859E+08
 
   -0.51281E+08         0.87547E+06         0.00000E+00
    0.87547E+06        -0.50078E+08         0.00000E+00
    0.00000E+00         0.00000E+00        -0.50858E+08
 
   -0.51265E+08         0.90539E+06         0.00000E+00
    0.90539E+06        -0.50084E+08         0.00000E+00
    0.00000E+00         0.00000E+00        -0.50857E+08
 
   -0.51250E+08         0.93494E+06         0.00000E+00
    0.93494E+06        -0.50090E+08         0.00000E+00
    0.00000E+00         0.00000E+00        -0.50857E+08
 
   -0.51233E+08         0.96410E+06         0.00000E+00
    0.96410E+06        -0.50096E+08         0.00000E+00
    0.00000E+00         0.00000E+00        -0.50856E+08
 
   -0.51217E+08         0.99288E+06         0.00000E+00
    0.99288E+06        -0.50103E+08         0.00000E+00
    0.00000E+00         0.00000E+00        -0.50855E+08
 
   -0.51200E+08         0.10213E+07         0.00000E+00
    0.10213E+07        -0.50109E+08         0.00000E+00
    0.00000E+00         0.00000E+00        -0.50855E+08
 
   -0.51184E+08         0.10493E+07         0.00000E+00
    0.10493E+07        -0.50116E+08         0.00000E+00
    0.00000E+00         0.00000E+00        -0.50854E+08
 
   -0.51167E+08         0.10769E+07         0.00000E+00
    0.10769E+07        -0.50123E+08         0.00000E+00
    0.00000E+00         0.00000E+00        -0.50853E+08
 
   -0.51150E+08         0.11041E+07         0.00000E+00
    0.11041E+07        -0.50130E+08         0.00000E+00
    0.00000E+00         0.00000E+00        -0.50853E+08
 
   -0.51132E+08         0.11309E+07         0.00000E+00
    0.11309E+07        -0.50137E+08         0.00000E+00
    0.00000E+00         0.00000E+00        -0.50852E+08
 
   -0.51115E+08         0.11573E+07         0.00000E+00
    0.11573E+07        -0.50144E+08         0.00000E+00
    0.00000E+00         0.00000E+00        -0.50851E+08
 
   -0.51097E+08         0.11833E+07         0.00000E+00
    0.11833E+07        -0.50152E+08         0.00000E+00
    0.00000E+00         0.00000E+00        -0.50851E+08
 
   -0.51080E+08         0.12089E+07         0.00000E+00
    0.12089E+07        -0.50160E+08         0.00000E+00
    0.00000E+00         0.00000E+00        -0.50850E+08
 
   -0.51062E+08         0.12340E+07         0.00000E+00
    0.12340E+07        -0.50168E+08         0.00000E+00
    0.00000E+00         0.00000E+00        -0.50850E+08
 
   -0.51044E+08         0.12588E+07         0.00000E+00
    0.12588E+07        -0.50176E+08         0.00000E+00
    0.00000E+00         0.00000E+00        -0.50849E+08
 
   -0.51025E+08         0.12832E+07         0.00000E+00
    0.12832E+07        -0.50184E+08         0.00000E+00
    0.00000E+00         0.00000E+00        -0.50849E+08
 
   -0.51007E+08         0.13071E+07         0.00000E+00
    0.13071E+07        -0.50192E+08         0.00000E+00
    0.00000E+00         0.00000E+00        -0.50848E+08
 
   -0.50989E+08         0.13306E+07         0.00000E+00
    0.13306E+07        -0.50201E+08         0.00000E+00
    0.00000E+00         0.00000E+00        -0.50848E+08
 
   -0.50970E+08         0.13537E+07         0.00000E+00
    0.13537E+07        -0.50209E+08         0.00000E+00
    0.00000E+00         0.00000E+00        -0.50848E+08
 
   -0.50951E+08         0.13764E+07         0.00000E+00
    0.13764E+07        -0.50218E+08         0.00000E+00
    0.00000E+00         0.00000E+00        -0.50847E+08
 
   -0.50932E+08         0.13986E+07         0.00000E+00
    0.13986E+07        -0.50227E+08         0.00000E+00
    0.00000E+00         0.00000E+00        -0.50847E+08
 
   -0.50914E+08         0.14205E+07         0.00000E+00
    0.14205E+07        -0.50236E+08         0.00000E+00
    0.00000E+00         0.00000E+00        -0.50847E+08
 
   -0.50894E+08         0.14419E+07         0.00000E+00
    0.14419E+07        -0.50245E+08         0.00000E+00
    0.00000E+00         0.00000E+00        -0.50847E+08
 
   -0.50875E+08         0.14628E+07         0.00000E+00
    0.14628E+07        -0.50255E+08         0.00000E+00
    0.00000E+00         0.00000E+00        -0.50847E+08
 
   -0.50856E+08         0.14834E+07         0.00000E+00
    0.14834E+07        -0.50264E+08         0.00000E+00
    0.00000E+00         0.00000E+00        -0.50846E+08
 
   -0.51394E+08         0.18421E+05         0.00000E+00
    0.18421E+05        -0.50000E+08         0.00000E+00
    0.00000E+00         0.00000E+00        -0.50769E+08
 
   -0.51388E+08         0.54756E+05         0.00000E+00
    0.54756E+05        -0.50000E+08         0.00000E+00
    0.00000E+00         0.00000E+00        -0.50769E+08
 
   -0.51381E+08         0.90893E+05         0.00000E+00
    0.90893E+05        -0.50001E+08         0.00000E+00
    0.00000E+00         0.00000E+00        -0.50769E+08
 
   -0.51374E+08         0.12682E+06         0.00000E+00
    0.12682E+06        -0.50001E+08         0.00000E+00
    0.00000E+00         0.00000E+00        -0.50769E+08
 
   -0.51366E+08         0.16254E+06         0.00000E+00
    0.16254E+06        -0.50002E+08         0.00000E+00
    0.00000E+00         0.00000E+00        -0.50769E+08
 
   -0.51358E+08         0.19802E+06         0.00000E+00
    0.19802E+06        -0.50004E+08         0.00000E+00
    0.00000E+00         0.00000E+00        -0.50768E+08
 
   -0.51350E+08         0.23327E+06         0.00000E+00
    0.23327E+06        -0.50005E+08         0.00000E+00
    0.00000E+00         0.00000E+00        -0.50768E+08
 
   -0.51341E+08         0.26828E+06         0.00000E+00
    0.26828E+06        -0.50007E+08         0.00000E+00
    0.00000E+00         0.00000E+00        -0.50768E+08
 
   -0.51332E+08         0.30303E+06         0.00000E+00
    0.30303E+06        -0.50008E+08         0.00000E+00
    0.00000E+00         0.00000E+00        -0.50767E+08
 
   -0.51322E+08         0.33752E+06         0.00000E+00
    0.33752E+06        -0.50010E+08         0.00000E+00
    0.00000E+00         0.00000E+00        -0.50767E+08
 
   -0.51313E+08         0.37175E+06         0.00000E+00
    0.37175E+06        -0.50013E+08         0.00000E+00
    0.00000E+00         0.00000E+00        -0.50767E+08
 
   -0.51303E+08         0.40570E+06         0.00000E+00
    0.40570E+06        -0.50015E+08         0.00000E+00
    0.00000E+00         0.00000E+00        -0.50766E+08
 
   -0.51292E+08         0.43936E+06         0.00000E+00
    0.43936E+06        -0.50018E+08         0.00000E+00
    0.00000E+00         0.00000E+00        -0.50766E+08
 
   -0.51282E+08         0.47274E+06         0.00000E+00
    0.47274E+06        -0.50021E+08         0.00000E+00
    0.00000E+00         0.00000E+00        -0.50765E+08
 
   -0.51271E+08         0.50581E+06         0.00000E+00
    0.50581E+06        -0.50024E+08         0.00000E+00
    0.00000E+00         0.00000E+00        -0.50765E+08
 
   -0.51259E+08         0.53859E+06         0.00000E+00
    0.53859E+06        -0.50027E+08         0.00000E+00
    0.00000E+00         0.00000E+00        -0.50764E+08
 
   -0.51248E+08         0.57105E+06         0.00000E+00
    0.57105E+06        -0.50030E+08         0.00000E+00
    0.00000E+00         0.00000E+00        -0.50764E+08
 
   -0.51236E+08         0.60319E+06         0.00000E+00
    0.60319E+06        -0.50034E+08         0.00000E+00
    0.00000E+00         0.00000E+00        -0.50763E+08
 
   -0.51224E+08         0.63502E+06         0.00000E+00
    0.63502E+06        -0.50038E+08         0.00000E+00
    0.00000E+00         0.00000E+00        -0.50762E+08
 
   -0.51212E+08         0.66651E+06         0.00000E+00
    0.66651E+06        -0.50042E+08         0.00000E+00
    0.00000E+00         0.00000E+00        -0.50762E+08
 
   -0.51199E+08         0.69768E+06         0.00000E+00
    0.69768E+06        -0.50046E+08         0.00000E+00
    0.00000E+00         0.00000E+00        -0.50761E+08
 
   -0.51186E+08         0.72850E+06         0.00000E+00
    0.72850E+06        -0.50050E+08         0.00000E+00
    0.00000E+00         0.00000E+00        -0.50760E+08
 
   -0.51173E+08         0.75898E+06         0.00000E+00
    0.75898E+06        -0.50055E+08         0.00000E+00
    0.00000E+00         0.00000E+00        -0.50760E+08
 
   -0.51160E+08         0.78911E+06         0.00000E+00
    0.78911E+06        -0.50060E+08         0.00000E+00
    0.00000E+00         0.00000E+00        -0.50759E+08
 
   -0.51147E+08         0.81889E+06         0.00000E+00
    0.81889E+06        -0.50064E+08         0.00000E+00
    0.00000E+00         0.00000E+00        -0.50759E+08
 
   -0.51133E+08         0.84831E+06         0.00000E+00
    0.84831E+06        -0.50069E+08         0.00000E+00
    0.00000E+00         0.00000E+00        -0.50758E+08
 
   -0.51119E+08         0.87736E+06         0.00000E+00
    0.87736E+06        -0.50075E+08         0.00000E+00
    0.00000E+00         0.00000E+00        -0.50757E+08
 
   -0.51105E+08         0.90606E+06         0.00000E+00
    0.90606E+06        -0.50080E+08         0.00000E+00
    0.00000E+00         0.00000E+00        -0.50757E+08
 
   -0.51091E+08         0.93438E+06         0.00000E+00
    0.93438E+06        -0.50085E+08         0.00000E+00
    0.00000E+00         0.00000E+00        -0.50756E+08
 
   -0.51076E+08         0.96233E+06         0.00000E+00
    0.96233E+06        -0.50091E+08         0.00000E+00
    0.00000E+00         0.00000E+00        -0.50755E+08
 
   -0.51062E+08         0.98990E+06         0.00000E+00
    0.98990E+06        -0.50097E+08         0.00000E+00
    0.00000E+00         0.00000E+00        -0.50755E+08
 
   -0.51047E+08         0.10171E+07         0.00000E+00
    0.10171E+07        -0.50103E+08         0.00000E+00
    0.00000E+00         0.00000E+00        -0.50754E+08
 
   -0.51032E+08         0.10439E+07         0.00000E+00
    0.10439E+07        -0.50109E+08         0.00000E+00
    0.00000E+00         0.00000E+00        -0.50754E+08
 
   -0.51017E+08         0.10703E+07         0.00000E+00
    0.10703E+07        -0.50115E+08         0.00000E+00
    0.00000E+00         0.00000E+00        -0.50753E+08
 
   -0.51001E+08         0.10963E+07         0.00000E+00
    0.10963E+07        -0.50122E+08         0.00000E+00
    0.00000E+00         0.00000E+00        -0.50752E+08
 
   -0.50986E+08         0.11220E+07         0.00000E+00
    0.11220E+07        -0.50128E+08         0.00000E+00
    0.00000E+00         0.00000E+00        -0.50752E+08
 
   -0.50970E+08         0.11472E+07         0.00000E+00
    0.11472E+07        -0.50135E+08         0.00000E+00
    0.00000E+00         0.00000E+00        -0.50751E+08
 
   -0.50954E+08         0.11720E+07         0.00000E+00
    0.11720E+07        -0.50142E+08         0.00000E+00
    0.00000E+00         0.00000E+00        -0.50751E+08
 
   -0.50939E+08         0.11965E+07         0.00000E+00
    0.11965E+07        -0.50149E+08         0.00000E+00
    0.00000E+00         0.00000E+00        -0.50750E+08
 
   -0.50923E+08         0.12205E+07         0.00000E+00
    0.12205E+07        -0.50156E+08         0.00000E+00
    0.00000E+00         0.00000E+00        -0.50750E+08
 
   -0.50906E+08         0.12441E+07         0.00000E+00
    0.12441E+07        -0.50163E+08         0.00000E+00
    0.00000E+00         0.00000E+00        -0.50750E+08
 
   -0.50890E+08         0.12673E+07         0.00000E+00
    0.12673E+07        -0.50171E+08         0.00000E+00
    0.00000E+00         0.00000E+00        -0.50749E+08
 
   -0.50874E+08         0.12901E+07         0.00000E+00
    0.12901E+07        -0.50178E+08         0.00000E+00
    0.00000E+00         0.00000E+00        -0.50749E+08
 
   -0.50857E+08         0.13125E+07         0.00000E+00
    0.13125E+07        -0.50186E+08         0.00000E+00
    0.00000E+00         0.00000E+00        -0.50749E+08
 
   -0.50841E+08         0.13345E+07         0.00000E+00
    0.13345E+07        -0.50194E+08         0.00000E+00
    0.00000E+00         0.00000E+00        -0.50748E+08
 
   -0.50824E+08         0.13560E+07         0.00000E+00
    0.13560E+07        -0.50202E+08         0.00000E+00
    0.00000E+00         0.00000E+00        -0.50748E+08
 
   -0.50807E+08         0.13772E+07         0.00000E+00
    0.13772E+07        -0.50210E+08         0.00000E+00
    0.00000E+00         0.00000E+00        -0.50748E+08
 
   -0.50790E+08         0.13979E+07         0.00000E+00
    0.13979E+07        -0.50218E+08         0.00000E+00
    0.00000E+00         0.00000E+00        -0.50748E+08
 
   -0.50773E+08         0.14182E+07         0.00000E+00
    0.14182E+07        -0.50227E+08         0.00000E+00
    0.00000E+00         0.00000E+00        -0.50748E+08
 
   -0.50756E+08         0.14380E+07         0.00000E+00
    0.14380E+07        -0.50235E+08         0.00000E+00
    0.00000E+00         0.00000E+00        -0.50748E+08
 
   -0.51215E+08         0.17849E+05         0.00000E+00
    0.17849E+05        -0.50000E+08         0.00000E+00
    0.00000E+00         0.00000E+00        -0.50670E+08
 
   -0.51210E+08         0.53078E+05         0.00000E+00
    0.53078E+05        -0.50000E+08         0.00000E+00
    0.00000E+00         0.00000E+00        -0.50670E+08
 
   -0.51204E+08         0.88122E+05         0.00000E+00
    0.88122E+05        -0.50001E+08         0.00000E+00
    0.00000E+00         0.00000E+00        -0.50670E+08
 
   -0.51197E+08         0.12297E+06         0.00000E+00
    0.12297E+06        -0.50001E+08         0.00000E+00
    0.00000E+00         0.00000E+00        -0.50670E+08
 
   -0.51191E+08         0.15762E+06         0.00000E+00
    0.15762E+06        -0.50002E+08         0.00000E+00
    0.00000E+00         0.00000E+00        -0.50670E+08
 
   -0.51184E+08         0.19206E+06         0.00000E+00
    0.19206E+06        -0.50003E+08         0.00000E+00
    0.00000E+00         0.00000E+00        -0.50670E+08
 
   -0.51177E+08         0.22627E+06         0.00000E+00
    0.22627E+06        -0.50004E+08         0.00000E+00
    0.00000E+00         0.00000E+00        -0.50670E+08
 
   -0.51169E+08         0.26026E+06         0.00000E+00
    0.26026E+06        -0.50006E+08         0.00000E+00
    0.00000E+00         0.00000E+00        -0.50669E+08
 
   -0.51161E+08         0.29401E+06         0.00000E+00
    0.29401E+06        -0.50007E+08         0.00000E+00
    0.00000E+00         0.00000E+00        -0.50669E+08
 
   -0.51153E+08         0.32751E+06         0.00000E+00
    0.32751E+06        -0.50009E+08         0.00000E+00
    0.00000E+00         0.00000E+00        -0.50669E+08
 
   -0.51145E+08         0.36075E+06         0.00000E+00
    0.36075E+06        -0.50011E+08         0.00000E+00
    0.00000E+00         0.00000E+00        -0.50668E+08
 
   -0.51136E+08         0.39374E+06         0.00000E+00
    0.39374E+06        -0.50013E+08         0.00000E+00
    0.00000E+00         0.00000E+00        -0.50668E+08
 
   -0.51127E+08         0.42646E+06         0.00000E+00
    0.42646E+06        -0.50016E+08         0.00000E+00
    0.00000E+00         0.00000E+00        -0.50668E+08
 
   -0.51118E+08         0.45890E+06         0.00000E+00
    0.45890E+06        -0.50018E+08         0.00000E+00
    0.00000E+00         0.00000E+00        -0.50667E+08
 
   -0.51108E+08         0.49105E+06         0.00000E+00
    0.49105E+06        -0.50021E+08         0.00000E+00
    0.00000E+00         0.00000E+00        -0.50667E+08
 
   -0.51098E+08         0.52292E+06         0.00000E+00
    0.52292E+06        -0.50024E+08         0.00000E+00
    0.00000E+00         0.00000E+00        -0.50666E+08
 
   -0.51089E+08         0.55449E+06         0.00000E+00
    0.55449E+06        -0.50027E+08         0.00000E+00
    0.00000E+00         0.00000E+00        -0.50666E+08
 
   -0.51078E+08         0.58576E+06         0.00000E+00
    0.58576E+06        -0.50030E+08         0.00000E+00
    0.00000E+00         0.00000E+00        -0.50665E+08
 
   -0.51068E+08         0.61672E+06         0.00000E+00
    0.61672E+06        -0.50033E+08         0.00000E+00
    0.00000E+00         0.00000E+00        -0.50665E+08
 
   -0.51057E+08         0.64736E+06         0.00000E+00
    0.64736E+06        -0.50037E+08         0.00000E+00
    0.00000E+00         0.00000E+00        -0.50664E+08
 
   -0.51046E+08         0.67768E+06         0.00000E+00
    0.67768E+06        -0.50040E+08         0.00000E+00
    0.00000E+00         0.00000E+00        -0.50664E+08
 
   -0.51035E+08         0.70768E+06         0.00000E+00
    0.70768E+06        -0.50044E+08         0.00000E+00
    0.00000E+00         0.00000E+00        -0.50663E+08
 
   -0.51024E+08         0.73734E+06         0.00000E+00
    0.73734E+06        -0.50048E+08         0.00000E+00
    0.00000E+00         0.00000E+00        -0.50663E+08
 
   -0.51012E+08         0.76667E+06         0.00000E+00
    0.76667E+06        -0.50052E+08         0.00000E+00
    0.00000E+00         0.00000E+00        -0.50662E+08
 
   -0.51001E+08         0.79566E+06         0.00000E+00
    0.79566E+06        -0.50056E+08         0.00000E+00
    0.00000E+00         0.00000E+00        -0.50661E+08
 
   -0.50989E+08         0.82430E+06         0.00000E+00
    0.82430E+06        -0.50061E+08         0.00000E+00
    0.00000E+00         0.00000E+00        -0.50661E+08
 
   -0.50977E+08         0.85259E+06         0.00000E+00
    0.85259E+06        -0.50065E+08         0.00000E+00
    0.00000E+00         0.00000E+00        -0.50660E+08
 
   -0.50964E+08         0.88052E+06         0.00000E+00
    0.88052E+06        -0.50070E+08         0.00000E+00
    0.00000E+00         0.00000E+00        -0.50660E+08
 
   -0.50952E+08         0.90810E+06         0.00000E+00
    0.90810E+06        -0.50075E+08         0.00000E+00
    0.00000E+00         0.00000E+00        -0.50659E+08
 
   -0.50939E+08         0.93531E+06         0.00000E+00
    0.93531E+06        -0.50080E+08         0.00000E+00
    0.00000E+00         0.00000E+00        -0.50659E+08
 
   -0.50926E+08         0.96215E+06         0.00000E+00
    0.96215E+06        -0.50085E+08         0.00000E+00
    0.00000E+00         0.00000E+00        -0.50658E+08
 
   -0.50914E+08         0.98863E+06         0.00000E+00
    0.98863E+06        -0.50090E+08         0.00000E+00
    0.00000E+00         0.00000E+00        -0.50658E+08
 
   -0.50900E+08         0.10147E+07         0.00000E+00
    0.10147E+07        -0.50096E+08         0.00000E+00
    0.00000E+00         0.00000E+00        -0.50657E+08
 
   -0.50887E+08         0.10404E+07         0.00000E+00
    0.10404E+07        -0.50101E+08         0.00000E+00
    0.00000E+00         0.00000E+00        -0.50657E+08
 
   -0.50874E+08         0.10658E+07         0.00000E+00
    0.10658E+07        -0.50107E+08         0.00000E+00
    0.00000E+00         0.00000E+00        -0.50656E+08
 
   -0.50860E+08         0.10907E+07         0.00000E+00
    0.10907E+07        -0.50113E+08         0.00000E+00
    0.00000E+00         0.00000E+00        -0.50656E+08
 
   -0.50847E+08         0.11153E+07         0.00000E+00
    0.11153E+07        -0.50118E+08         0.00000E+00
    0.00000E+00         0.00000E+00        -0.50655E+08
 
   -0.50833E+08         0.11395E+07         0.00000E+00
    0.11395E+07        -0.50125E+08         0.00000E+00
    0.00000E+00         0.00000E+00        -0.50655E+08
 
   -0.50819E+08         0.11632E+07         0.00000E+00
    0.11632E+07        -0.50131E+08         0.00000E+00
    0.00000E+00         0.00000E+00        -0.50654E+08
 
   -0.50805E+08         0.11866E+07         0.00000E+00
    0.11866E+07        -0.50137E+08         0.00000E+00
    0.00000E+00         0.00000E+00        -0.50654E+08
 
   -0.50791E+08         0.12096E+07         0.00000E+00
    0.12096E+07        -0.50143E+08         0.00000E+00
    0.00000E+00         0.00000E+00        -0.50654E+08
 
   -0.50777E+08         0.12322E+07         0.00000E+00
    0.12322E+07        -0.50150E+08         0.00000E+00
    0.00000E+00         0.00000E+00        -0.50653E+08
 
   -0.50762E+08         0.12544E+07         0.00000E+00
    0.12544E+07        -0.50156E+08         0.00000E+00
    0.00000E+00         0.00000E+00        -0.50653E+08
 
   -0.50748E+08         0.12761E+07         0.00000E+00
    0.12761E+07        -0.50163E+08         0.00000E+00
    0.00000E+00         0.00000E+00        -0.50653E+08
 
   -0.50733E+08         0.12975E+07         0.00000E+00
    0.12975E+07        -0.50170E+08         0.00000E+00
    0.00000E+00         0.00000E+00        -0.50653E+08
 
   -0.50719E+08         0.13184E+07         0.00000E+00
    0.13184E+07        -0.50177E+08         0.00000E+00
    0.00000E+00         0.00000E+00        -0.50652E+08
 
   -0.50704E+08         0.13390E+07         0.00000E+00
    0.13390E+07        -0.50184E+08         0.00000E+00
    0.00000E+00         0.00000E+00        -0.50652E+08
 
   -0.50689E+08         0.13591E+07         0.00000E+00
    0.13591E+07        -0.50191E+08         0.00000E+00
    0.00000E+00         0.00000E+00        -0.50652E+08
 
   -0.50674E+08         0.13788E+07         0.00000E+00
    0.13788E+07        -0.50199E+08         0.00000E+00
    0.00000E+00         0.00000E+00        -0.50652E+08
 
   -0.50659E+08         0.13980E+07         0.00000E+00
    0.13980E+07        -0.50206E+08         0.00000E+00
    0.00000E+00         0.00000E+00        -0.50652E+08
 
   -0.51041E+08         0.17355E+05         0.00000E+00
    0.17355E+05        -0.50000E+08         0.00000E+00
    0.00000E+00         0.00000E+00        -0.50575E+08
 
   -0.51036E+08         0.51626E+05         0.00000E+00
    0.51626E+05        -0.50000E+08         0.00000E+00
    0.00000E+00         0.00000E+00        -0.50575E+08
 
   -0.51031E+08         0.85724E+05         0.00000E+00
    0.85724E+05        -0.50001E+08         0.00000E+00
    0.00000E+00         0.00000E+00        -0.50575E+08
 
   -0.51026E+08         0.11964E+06         0.00000E+00
    0.11964E+06        -0.50001E+08         0.00000E+00
    0.00000E+00         0.00000E+00        -0.50574E+08
 
   -0.51020E+08         0.15337E+06         0.00000E+00
    0.15337E+06        -0.50002E+08         0.00000E+00
    0.00000E+00         0.00000E+00        -0.50574E+08
 
   -0.51014E+08         0.18689E+06         0.00000E+00
    0.18689E+06        -0.50003E+08         0.00000E+00
    0.00000E+00         0.00000E+00        -0.50574E+08
 
   -0.51008E+08         0.22021E+06         0.00000E+00
    0.22021E+06        -0.50004E+08         0.00000E+00
    0.00000E+00         0.00000E+00        -0.50574E+08
 
   -0.51002E+08         0.25331E+06         0.00000E+00
    0.25331E+06        -0.50005E+08         0.00000E+00
    0.00000E+00         0.00000E+00        -0.50574E+08
 
   -0.50995E+08         0.28618E+06         0.00000E+00
    0.28618E+06        -0.50006E+08         0.00000E+00
    0.00000E+00         0.00000E+00        -0.50573E+08
 
   -0.50988E+08         0.31882E+06         0.00000E+00
    0.31882E+06        -0.50008E+08         0.00000E+00
    0.00000E+00         0.00000E+00        -0.50573E+08
 
   -0.50981E+08         0.35122E+06         0.00000E+00
    0.35122E+06        -0.50009E+08         0.00000E+00
    0.00000E+00         0.00000E+00        -0.50573E+08
 
   -0.50974E+08         0.38337E+06         0.00000E+00
    0.38337E+06        -0.50011E+08         0.00000E+00
    0.00000E+00         0.00000E+00        -0.50573E+08
 
   -0.50966E+08         0.41526E+06         0.00000E+00
    0.41526E+06        -0.50013E+08         0.00000E+00
    0.00000E+00         0.00000E+00        -0.50572E+08
 
   -0.50958E+08         0.44688E+06         0.00000E+00
    0.44688E+06        -0.50015E+08         0.00000E+00
    0.00000E+00         0.00000E+00        -0.50572E+08
 
   -0.50950E+08         0.47824E+06         0.00000E+00
    0.47824E+06        -0.50018E+08         0.00000E+00
    0.00000E+00         0.00000E+00        -0.50571E+08
 
   -0.50942E+08         0.50932E+06         0.00000E+00
    0.50932E+06        -0.50020E+08         0.00000E+00
    0.00000E+00         0.00000E+00        -0.50571E+08
 
   -0.50933E+08         0.54011E+06         0.00000E+00
    0.54011E+06        -0.50023E+08         0.00000E+00
    0.00000E+00         0.00000E+00        -0.50571E+08
 
   -0.50925E+08         0.57061E+06         0.00000E+00
    0.57061E+06        -0.50026E+08         0.00000E+00
    0.00000E+00         0.00000E+00        -0.50570E+08
 
   -0.50916E+08         0.60081E+06         0.00000E+00
    0.60081E+06        -0.50028E+08         0.00000E+00
    0.00000E+00         0.00000E+00        -0.50570E+08
 
   -0.50907E+08         0.63071E+06         0.00000E+00
    0.63071E+06        -0.50031E+08         0.00000E+00
    0.00000E+00         0.00000E+00        -0.50569E+08
 
   -0.50897E+08         0.66030E+06         0.00000E+00
    0.66030E+06        -0.50035E+08         0.00000E+00
    0.00000E+00         0.00000E+00        -0.50569E+08
 
   -0.50888E+08         0.68958E+06         0.00000E+00
    0.68958E+06        -0.50038E+08         0.00000E+00
    0.00000E+00         0.00000E+00        -0.50568E+08
 
   -0.50878E+08         0.71853E+06         0.00000E+00
    0.71853E+06        -0.50041E+08         0.00000E+00
    0.00000E+00         0.00000E+00        -0.50568E+08
 
   -0.50868E+08         0.74716E+06         0.00000E+00
    0.74716E+06        -0.50045E+08         0.00000E+00
    0.00000E+00         0.00000E+00        -0.50567E+08
 
   -0.50858E+08         0.77546E+06         0.00000E+00
    0.77546E+06        -0.50048E+08         0.00000E+00
    0.00000E+00         0.00000E+00        -0.50567E+08
 
   -0.50848E+08         0.80342E+06         0.00000E+00
    0.80342E+06        -0.50052E+08         0.00000E+00
    0.00000E+00         0.00000E+00        -0.50567E+08
 
   -0.50838E+08         0.83104E+06         0.00000E+00
    0.83104E+06        -0.50056E+08         0.00000E+00
    0.00000E+00         0.00000E+00        -0.50566E+08
 
   -0.50827E+08         0.85831E+06         0.00000E+00
    0.85831E+06        -0.50060E+08         0.00000E+00
    0.00000E+00         0.00000E+00        -0.50566E+08
 
   -0.50816E+08         0.88524E+06         0.00000E+00
    0.88524E+06        -0.50064E+08         0.00000E+00
    0.00000E+00         0.00000E+00        -0.50565E+08
 
   -0.50806E+08         0.91181E+06         0.00000E+00
    0.91181E+06        -0.50069E+08         0.00000E+00
    0.00000E+00         0.00000E+00        -0.50565E+08
 
   -0.50795E+08         0.93802E+06         0.00000E+00
    0.93802E+06        -0.50073E+08         0.00000E+00
    0.00000E+00         0.00000E+00        -0.50564E+08
 
   -0.50784E+08         0.96387E+06         0.00000E+00
    0.96387E+06        -0.50078E+08         0.00000E+00
    0.00000E+00         0.00000E+00        -0.50564E+08
 
   -0.50772E+08         0.98935E+06         0.00000E+00
    0.98935E+06        -0.50082E+08         0.00000E+00
    0.00000E+00         0.00000E+00        -0.50563E+08
 
   -0.50761E+08         0.10145E+07         0.00000E+00
    0.10145E+07        -0.50087E+08         0.00000E+00
    0.00000E+00         0.00000E+00        -0.50563E+08
 
   -0.50750E+08         0.10392E+07         0.00000E+00
    0.10392E+07        -0.50092E+08         0.00000E+00
    0.00000E+00         0.00000E+00        -0.50562E+08
 
   -0.50738E+08         0.10636E+07         0.00000E+00
    0.10636E+07        -0.50097E+08         0.00000E+00
    0.00000E+00         0.00000E+00        -0.50562E+08
 
   -0.50726E+08         0.10875E+07         0.00000E+00
    0.10875E+07        -0.50102E+08         0.00000E+00
    0.00000E+00         0.00000E+00        -0.50562E+08
 
   -0.50715E+08         0.11111E+07         0.00000E+00
    0.11111E+07        -0.50107E+08         0.00000E+00
    0.00000E+00         0.00000E+00        -0.50561E+08
 
   -0.50703E+08         0.11343E+07         0.00000E+00
    0.11343E+07        -0.50112E+08         0.00000E+00
    0.00000E+00         0.00000E+00        -0.50561E+08
 
   -0.50691E+08         0.11572E+07         0.00000E+00
    0.11572E+07        -0.50118E+08         0.00000E+00
    0.00000E+00         0.00000E+00        -0.50561E+08
 
   -0.50678E+08         0.11796E+07         0.00000E+00
    0.11796E+07        -0.50123E+08         0.00000E+00
    0.00000E+00         0.00000E+00        -0.50560E+08
 
   -0.50666E+08         0.12016E+07         0.00000E+00
    0.12016E+07        -0.50129E+08         0.00000E+00
    0.00000E+00         0.00000E+00        -0.50560E+08
 
   -0.50654E+08         0.12232E+07         0.00000E+00
    0.12232E+07        -0.50135E+08         0.00000E+00
    0.00000E+00         0.00000E+00        -0.50560E+08
 
   -0.50642E+08         0.12445E+07         0.00000E+00
    0.12445E+07        -0.50141E+08         0.00000E+00
    0.00000E+00         0.00000E+00        -0.50560E+08
 
   -0.50629E+08         0.12653E+07         0.00000E+00
    0.12653E+07        -0.50146E+08         0.00000E+00
    0.00000E+00         0.00000E+00        -0.50559E+08
 
   -0.50616E+08         0.12857E+07         0.00000E+00
    0.12857E+07        -0.50152E+08         0.00000E+00
    0.00000E+00         0.00000E+00        -0.50559E+08
 
   -0.50604E+08         0.13057E+07         0.00000E+00
    0.13057E+07        -0.50159E+08         0.00000E+00
    0.00000E+00         0.00000E+00        -0.50559E+08
 
   -0.50591E+08         0.13253E+07         0.00000E+00
    0.13253E+07        -0.50165E+08         0.00000E+00
    0.00000E+00         0.00000E+00        -0.50559E+08
 
   -0.50578E+08         0.13445E+07         0.00000E+00
    0.13445E+07        -0.50171E+08         0.00000E+00
    0.00000E+00         0.00000E+00        -0.50559E+08
 
   -0.50565E+08         0.13633E+07         0.00000E+00
    0.13633E+07        -0.50177E+08         0.00000E+00
    0.00000E+00         0.00000E+00        -0.50559E+08
 
   -0.50871E+08         0.16936E+05         0.00000E+00
    0.16936E+05        -0.50000E+08         0.00000E+00
    0.00000E+00         0.00000E+00        -0.50481E+08
 
   -0.50867E+08         0.50395E+05         0.00000E+00
    0.50395E+05        -0.50000E+08         0.00000E+00
    0.00000E+00         0.00000E+00        -0.50481E+08
 
   -0.50863E+08         0.83690E+05         0.00000E+00
    0.83690E+05        -0.50000E+08         0.00000E+00
    0.00000E+00         0.00000E+00        -0.50481E+08
 
   -0.50859E+08         0.11681E+06         0.00000E+00
    0.11681E+06        -0.50001E+08         0.00000E+00
    0.00000E+00         0.00000E+00        -0.50481E+08
 
   -0.50854E+08         0.14975E+06         0.00000E+00
    0.14975E+06        -0.50002E+08         0.00000E+00
    0.00000E+00         0.00000E+00        -0.50481E+08
 
   -0.50849E+08         0.18251E+06         0.00000E+00
    0.18251E+06        -0.50002E+08         0.00000E+00
    0.00000E+00         0.00000E+00        -0.50481E+08
 
   -0.50844E+08         0.21506E+06         0.00000E+00
    0.21506E+06        -0.50003E+08         0.00000E+00
    0.00000E+00         0.00000E+00        -0.50481E+08
 
   -0.50839E+08         0.24740E+06         0.00000E+00
    0.24740E+06        -0.50004E+08         0.00000E+00
    0.00000E+00         0.00000E+00        -0.50481E+08
 
   -0.50833E+08         0.27953E+06         0.00000E+00
    0.27953E+06        -0.50005E+08         0.00000E+00
    0.00000E+00         0.00000E+00        -0.50480E+08
 
   -0.50828E+08         0.31144E+06         0.00000E+00
    0.31144E+06        -0.50007E+08         0.00000E+00
    0.00000E+00         0.00000E+00        -0.50480E+08
 
   -0.50822E+08         0.34311E+06         0.00000E+00
    0.34311E+06        -0.50008E+08         0.00000E+00
    0.00000E+00         0.00000E+00        -0.50480E+08
 
   -0.50815E+08         0.37454E+06         0.00000E+00
    0.37454E+06        -0.50010E+08         0.00000E+00
    0.00000E+00         0.00000E+00        -0.50480E+08
 
   -0.50809E+08         0.40573E+06         0.00000E+00
    0.40573E+06        -0.50011E+08         0.00000E+00
    0.00000E+00         0.00000E+00        -0.50479E+08
 
   -0.50803E+08         0.43667E+06         0.00000E+00
    0.43667E+06        -0.50013E+08         0.00000E+00
    0.00000E+00         0.00000E+00        -0.50479E+08
 
   -0.50796E+08         0.46734E+06         0.00000E+00
    0.46734E+06        -0.50015E+08         0.00000E+00
    0.00000E+00         0.00000E+00        -0.50479E+08
 
   -0.50789E+08         0.49774E+06         0.00000E+00
    0.49774E+06        -0.50017E+08         0.00000E+00
    0.00000E+00         0.00000E+00        -0.50478E+08
 
   -0.50782E+08         0.52787E+06         0.00000E+00
    0.52787E+06        -0.50019E+08         0.00000E+00
    0.00000E+00         0.00000E+00        -0.50478E+08
 
   -0.50775E+08         0.55772E+06         0.00000E+00
    0.55772E+06        -0.50021E+08         0.00000E+00
    0.00000E+00         0.00000E+00        -0.50478E+08
 
   -0.50767E+08         0.58728E+06         0.00000E+00
    0.58728E+06        -0.50024E+08         0.00000E+00
    0.00000E+00         0.00000E+00        -0.50477E+08
 
   -0.50759E+08         0.61654E+06         0.00000E+00
    0.61654E+06        -0.50026E+08         0.00000E+00
    0.00000E+00         0.00000E+00        -0.50477E+08
 
   -0.50752E+08         0.64551E+06         0.00000E+00
    0.64551E+06        -0.50029E+08         0.00000E+00
    0.00000E+00         0.00000E+00        -0.50476E+08
 
   -0.50744E+08         0.67417E+06         0.00000E+00
    0.67417E+06        -0.50032E+08         0.00000E+00
    0.00000E+00         0.00000E+00        -0.50476E+08
 
   -0.50736E+08         0.70252E+06         0.00000E+00
    0.70252E+06        -0.50035E+08         0.00000E+00
    0.00000E+00         0.00000E+00        -0.50476E+08
 
   -0.50727E+08         0.73055E+06         0.00000E+00
    0.73055E+06        -0.50038E+08         0.00000E+00
    0.00000E+00         0.00000E+00        -0.50475E+08
 
   -0.50719E+08         0.75826E+06         0.00000E+00
    0.75826E+06        -0.50041E+08         0.00000E+00
    0.00000E+00         0.00000E+00        -0.50475E+08
 
   -0.50711E+08         0.78564E+06         0.00000E+00
    0.78564E+06        -0.50044E+08         0.00000E+00
    0.00000E+00         0.00000E+00        -0.50475E+08
 
   -0.50702E+08         0.81269E+06         0.00000E+00
    0.81269E+06        -0.50047E+08         0.00000E+00
    0.00000E+00         0.00000E+00        -0.50474E+08
 
   -0.50693E+08         0.83940E+06         0.00000E+00
    0.83940E+06        -0.50051E+08         0.00000E+00
    0.00000E+00         0.00000E+00        -0.50474E+08
 
   -0.50684E+08         0.86577E+06         0.00000E+00
    0.86577E+06        -0.50054E+08         0.00000E+00
    0.00000E+00         0.00000E+00        -0.50473E+08
 
   -0.50675E+08         0.89179E+06         0.00000E+00
    0.89179E+06        -0.50058E+08         0.00000E+00
    0.00000E+00         0.00000E+00        -0.50473E+08
 
   -0.50666E+08         0.91747E+06         0.00000E+00
    0.91747E+06        -0.50061E+08         0.00000E+00
    0.00000E+00         0.00000E+00        -0.50473E+08
 
   -0.50657E+08         0.94278E+06         0.00000E+00
    0.94278E+06        -0.50065E+08         0.00000E+00
    0.00000E+00         0.00000E+00        -0.50472E+08
 
   -0.50647E+08         0.96774E+06         0.00000E+00
    0.96774E+06        -0.50069E+08         0.00000E+00
    0.00000E+00         0.00000E+00        -0.50472E+08
 
   -0.50638E+08         0.99234E+06         0.00000E+00
    0.99234E+06        -0.50073E+08         0.00000E+00
    0.00000E+00         0.00000E+00        -0.50472E+08
 
   -0.50628E+08         0.10166E+07         0.00000E+00
    0.10166E+07        -0.50077E+08         0.00000E+00
    0.00000E+00         0.00000E+00        -0.50471E+08
 
   -0.50618E+08         0.10404E+07         0.00000E+00
    0.10404E+07        -0.50081E+08         0.00000E+00
    0.00000E+00         0.00000E+00        -0.50471E+08
 
   -0.50609E+08         0.10639E+07         0.00000E+00
    0.10639E+07        -0.50086E+08         0.00000E+00
    0.00000E+00         0.00000E+00        -0.50471E+08
 
   -0.50599E+08         0.10870E+07         0.00000E+00
    0.10870E+07        -0.50090E+08         0.00000E+00
    0.00000E+00         0.00000E+00        -0.50470E+08
 
   -0.50589E+08         0.11097E+07         0.00000E+00
    0.11097E+07        -0.50094E+08         0.00000E+00
    0.00000E+00         0.00000E+00        -0.50470E+08
 
   -0.50579E+08         0.11321E+07         0.00000E+00
    0.11321E+07        -0.50099E+08         0.00000E+00
    0.00000E+00         0.00000E+00        -0.50470E+08
 
   -0.50569E+08         0.11540E+07         0.00000E+00
    0.11540E+07        -0.50104E+08         0.00000E+00
    0.00000E+00         0.00000E+00        -0.50469E+08
 
   -0.50558E+08         0.11756E+07         0.00000E+00
    0.11756E+07        -0.50108E+08         0.00000E+00
    0.00000E+00         0.00000E+00        -0.50469E+08
 
   -0.50548E+08         0.11968E+07         0.00000E+00
    0.11968E+07        -0.50113E+08         0.00000E+00
    0.00000E+00         0.00000E+00        -0.50469E+08
 
   -0.50538E+08         0.12175E+07         0.00000E+00
    0.12175E+07        -0.50118E+08         0.00000E+00
    0.00000E+00         0.00000E+00        -0.50469E+08
 
   -0.50527E+08         0.12379E+07         0.00000E+00
    0.12379E+07        -0.50123E+08         0.00000E+00
    0.00000E+00         0.00000E+00        -0.50469E+08
 
   -0.50517E+08         0.12579E+07         0.00000E+00
    0.12579E+07        -0.50128E+08         0.00000E+00
    0.00000E+00         0.00000E+00        -0.50469E+08
 
   -0.50506E+08         0.12774E+07         0.00000E+00
    0.12774E+07        -0.50133E+08         0.00000E+00
    0.00000E+00         0.00000E+00        -0.50468E+08
 
   -0.50495E+08         0.12966E+07         0.00000E+00
    0.12966E+07        -0.50138E+08         0.00000E+00
    0.00000E+00         0.00000E+00        -0.50468E+08
 
   -0.50484E+08         0.13154E+07         0.00000E+00
    0.13154E+07        -0.50144E+08         0.00000E+00
    0.00000E+00         0.00000E+00        -0.50468E+08
 
   -0.50474E+08         0.13337E+07         0.00000E+00
    0.13337E+07        -0.50149E+08         0.00000E+00
    0.00000E+00         0.00000E+00        -0.50468E+08
 
   -0.50705E+08         0.16591E+05         0.00000E+00
    0.16591E+05        -0.50000E+08         0.00000E+00
    0.00000E+00         0.00000E+00        -0.50390E+08
 
   -0.50702E+08         0.49379E+05         0.00000E+00
    0.49379E+05        -0.50000E+08         0.00000E+00
    0.00000E+00         0.00000E+00        -0.50390E+08
 
   -0.50699E+08         0.82011E+05         0.00000E+00
    0.82011E+05        -0.50000E+08         0.00000E+00
    0.00000E+00         0.00000E+00        -0.50390E+08
 
   -0.50695E+08         0.11448E+06         0.00000E+00
    0.11448E+06        -0.50001E+08         0.00000E+00
    0.00000E+00         0.00000E+00        -0.50390E+08
 
   -0.50692E+08         0.14677E+06         0.00000E+00
    0.14677E+06        -0.50001E+08         0.00000E+00
    0.00000E+00         0.00000E+00        -0.50390E+08
 
   -0.50688E+08         0.17888E+06         0.00000E+00
    0.17888E+06        -0.50002E+08         0.00000E+00
    0.00000E+00         0.00000E+00        -0.50390E+08
 
   -0.50684E+08         0.21080E+06         0.00000E+00
    0.21080E+06        -0.50003E+08         0.00000E+00
    0.00000E+00         0.00000E+00        -0.50389E+08
 
   -0.50679E+08         0.24252E+06         0.00000E+00
    0.24252E+06        -0.50003E+08         0.00000E+00
    0.00000E+00         0.00000E+00        -0.50389E+08
 
   -0.50675E+08         0.27404E+06         0.00000E+00
    0.27404E+06        -0.50004E+08         0.00000E+00
    0.00000E+00         0.00000E+00        -0.50389E+08
 
   -0.50670E+08         0.30534E+06         0.00000E+00
    0.30534E+06        -0.50005E+08         0.00000E+00
    0.00000E+00         0.00000E+00        -0.50389E+08
 
   -0.50665E+08         0.33641E+06         0.00000E+00
    0.33641E+06        -0.50006E+08         0.00000E+00
    0.00000E+00         0.00000E+00        -0.50389E+08
 
   -0.50660E+08         0.36725E+06         0.00000E+00
    0.36725E+06        -0.50008E+08         0.00000E+00
    0.00000E+00         0.00000E+00        -0.50389E+08
 
   -0.50655E+08         0.39786E+06         0.00000E+00
    0.39786E+06        -0.50009E+08         0.00000E+00
    0.00000E+00         0.00000E+00        -0.50388E+08
 
   -0.50650E+08         0.42822E+06         0.00000E+00
    0.42822E+06        -0.50011E+08         0.00000E+00
    0.00000E+00         0.00000E+00        -0.50388E+08
 
   -0.50645E+08         0.45833E+06         0.00000E+00
    0.45833E+06        -0.50012E+08         0.00000E+00
    0.00000E+00         0.00000E+00        -0.50388E+08
 
   -0.50639E+08         0.48817E+06         0.00000E+00
    0.48817E+06        -0.50014E+08         0.00000E+00
    0.00000E+00         0.00000E+00        -0.50388E+08
 
   -0.50633E+08         0.51775E+06         0.00000E+00
    0.51775E+06        -0.50016E+08         0.00000E+00
    0.00000E+00         0.00000E+00        -0.50387E+08
 
   -0.50627E+08         0.54706E+06         0.00000E+00
    0.54706E+06        -0.50017E+08         0.00000E+00
    0.00000E+00         0.00000E+00        -0.50387E+08
 
   -0.50621E+08         0.57608E+06         0.00000E+00
    0.57608E+06        -0.50019E+08         0.00000E+00
    0.00000E+00         0.00000E+00        -0.50387E+08
 
   -0.50615E+08         0.60482E+06         0.00000E+00
    0.60482E+06        -0.50021E+08         0.00000E+00
    0.00000E+00         0.00000E+00        -0.50386E+08
 
   -0.50609E+08         0.63327E+06         0.00000E+00
    0.63327E+06        -0.50024E+08         0.00000E+00
    0.00000E+00         0.00000E+00        -0.50386E+08
 
   -0.50603E+08         0.66142E+06         0.00000E+00
    0.66142E+06        -0.50026E+08         0.00000E+00
    0.00000E+00         0.00000E+00        -0.50386E+08
 
   -0.50596E+08         0.68927E+06         0.00000E+00
    0.68927E+06        -0.50028E+08         0.00000E+00
    0.00000E+00         0.00000E+00        -0.50385E+08
 
   -0.50589E+08         0.71681E+06         0.00000E+00
    0.71681E+06        -0.50031E+08         0.00000E+00
    0.00000E+00         0.00000E+00        -0.50385E+08
 
   -0.50583E+08         0.74403E+06         0.00000E+00
    0.74403E+06        -0.50033E+08         0.00000E+00
    0.00000E+00         0.00000E+00        -0.50385E+08
 
   -0.50576E+08         0.77093E+06         0.00000E+00
    0.77093E+06        -0.50036E+08         0.00000E+00
    0.00000E+00         0.00000E+00        -0.50384E+08
 
   -0.50569E+08         0.79751E+06         0.00000E+00
    0.79751E+06        -0.50038E+08         0.00000E+00
    0.00000E+00         0.00000E+00        -0.50384E+08
 
   -0.50562E+08         0.82375E+06         0.00000E+00
    0.82375E+06        -0.50041E+08         0.00000E+00
    0.00000E+00         0.00000E+00        -0.50384E+08
 
   -0.50554E+08         0.84966E+06         0.00000E+00
    0.84966E+06        -0.50044E+08         0.00000E+00
    0.00000E+00         0.00000E+00        -0.50384E+08
 
   -0.50547E+08         0.87524E+06         0.00000E+00
    0.87524E+06        -0.50047E+08         0.00000E+00
    0.00000E+00         0.00000E+00        -0.50383E+08
 
   -0.50540E+08         0.90046E+06         0.00000E+00
    0.90046E+06        -0.50050E+08         0.00000E+00
    0.00000E+00         0.00000E+00        -0.50383E+08
 
   -0.50532E+08         0.92534E+06         0.00000E+00
    0.92534E+06        -0.50053E+08         0.00000E+00
    0.00000E+00         0.00000E+00        -0.50383E+08
 
   -0.50524E+08         0.94987E+06         0.00000E+00
    0.94987E+06        -0.50056E+08         0.00000E+00
    0.00000E+00         0.00000E+00        -0.50382E+08
 
   -0.50517E+08         0.97403E+06         0.00000E+00
    0.97403E+06        -0.50059E+08         0.00000E+00
    0.00000E+00         0.00000E+00        -0.50382E+08
 
   -0.50509E+08         0.99784E+06         0.00000E+00
    0.99784E+06        -0.50063E+08         0.00000E+00
    0.00000E+00         0.00000E+00        -0.50382E+08
 
   -0.50501E+08         0.10213E+07         0.00000E+00
    0.10213E+07        -0.50066E+08         0.00000E+00
    0.00000E+00         0.00000E+00        -0.50382E+08
 
   -0.50493E+08         0.10444E+07         0.00000E+00
    0.10444E+07        -0.50070E+08         0.00000E+00
    0.00000E+00         0.00000E+00        -0.50381E+08
 
   -0.50485E+08         0.10671E+07         0.00000E+00
    0.10671E+07        -0.50073E+08         0.00000E+00
    0.00000E+00         0.00000E+00        -0.50381E+08
 
   -0.50477E+08         0.10894E+07         0.00000E+00
    0.10894E+07        -0.50077E+08         0.00000E+00
    0.00000E+00         0.00000E+00        -0.50381E+08
 
   -0.50469E+08         0.11113E+07         0.00000E+00
    0.11113E+07        -0.50080E+08         0.00000E+00
    0.00000E+00         0.00000E+00        -0.50381E+08
 
   -0.50461E+08         0.11329E+07         0.00000E+00
    0.11329E+07        -0.50084E+08         0.00000E+00
    0.00000E+00         0.00000E+00        -0.50380E+08
 
   -0.50452E+08         0.11541E+07         0.00000E+00
    0.11541E+07        -0.50088E+08         0.00000E+00
    0.00000E+00         0.00000E+00        -0.50380E+08
 
   -0.50444E+08         0.11749E+07         0.00000E+00
    0.11749E+07        -0.50092E+08         0.00000E+00
    0.00000E+00         0.00000E+00        -0.50380E+08
 
   -0.50436E+08         0.11953E+07         0.00000E+00
    0.11953E+07        -0.50096E+08         0.00000E+00
    0.00000E+00         0.00000E+00        -0.50380E+08
 
   -0.50427E+08         0.12153E+07         0.00000E+00
    0.12153E+07        -0.50100E+08         0.00000E+00
    0.00000E+00         0.00000E+00        -0.50380E+08
 
   -0.50419E+08         0.12349E+07         0.00000E+00
    0.12349E+07        -0.50104E+08         0.00000E+00
    0.00000E+00         0.00000E+00        -0.50380E+08
 
   -0.50410E+08         0.12541E+07         0.00000E+00
    0.12541E+07        -0.50108E+08         0.00000E+00
    0.00000E+00         0.00000E+00        -0.50380E+08
 
   -0.50401E+08         0.12729E+07         0.00000E+00
    0.12729E+07        -0.50112E+08         0.00000E+00
    0.00000E+00         0.00000E+00        -0.50380E+08
 
   -0.50393E+08         0.12913E+07         0.00000E+00
    0.12913E+07        -0.50117E+08         0.00000E+00
    0.00000E+00         0.00000E+00        -0.50379E+08
 
   -0.50384E+08         0.13093E+07         0.00000E+00
    0.13093E+07        -0.50121E+08         0.00000E+00
    0.00000E+00         0.00000E+00        -0.50379E+08
 
   -0.50542E+08         0.16317E+05         0.00000E+00
    0.16317E+05        -0.50000E+08         0.00000E+00
    0.00000E+00         0.00000E+00        -0.50300E+08
 
   -0.50540E+08         0.48573E+05         0.00000E+00
    0.48573E+05        -0.50000E+08         0.00000E+00
    0.00000E+00         0.00000E+00        -0.50300E+08
 
   -0.50537E+08         0.80680E+05         0.00000E+00
    0.80680E+05        -0.50000E+08         0.00000E+00
    0.00000E+00         0.00000E+00        -0.50300E+08
 
   -0.50535E+08         0.11263E+06         0.00000E+00
    0.11263E+06        -0.50001E+08         0.00000E+00
    0.00000E+00         0.00000E+00        -0.50300E+08
 
   -0.50532E+08         0.14441E+06         0.00000E+00
    0.14441E+06        -0.50001E+08         0.00000E+00
    0.00000E+00         0.00000E+00        -0.50300E+08
 
   -0.50529E+08         0.17601E+06         0.00000E+00
    0.17601E+06        -0.50001E+08         0.00000E+00
    0.00000E+00         0.00000E+00        -0.50300E+08
 
   -0.50526E+08         0.20743E+06         0.00000E+00
    0.20743E+06        -0.50002E+08         0.00000E+00
    0.00000E+00         0.00000E+00        -0.50300E+08
 
   -0.50522E+08         0.23866E+06         0.00000E+00
    0.23866E+06        -0.50003E+08         0.00000E+00
    0.00000E+00         0.00000E+00        -0.50300E+08
 
   -0.50519E+08         0.26968E+06         0.00000E+00
    0.26968E+06        -0.50003E+08         0.00000E+00
    0.00000E+00         0.00000E+00        -0.50300E+08
 
   -0.50515E+08         0.30050E+06         0.00000E+00
    0.30050E+06        -0.50004E+08         0.00000E+00
    0.00000E+00         0.00000E+00        -0.50299E+08
 
   -0.50512E+08         0.33110E+06         0.00000E+00
    0.33110E+06        -0.50005E+08         0.00000E+00
    0.00000E+00         0.00000E+00        -0.50299E+08
 
   -0.50508E+08         0.36147E+06         0.00000E+00
    0.36147E+06        -0.50006E+08         0.00000E+00
    0.00000E+00         0.00000E+00        -0.50299E+08
 
   -0.50504E+08         0.39161E+06         0.00000E+00
    0.39161E+06        -0.50007E+08         0.00000E+00
    0.00000E+00         0.00000E+00        -0.50299E+08
 
   -0.50500E+08         0.42152E+06         0.00000E+00
    0.42152E+06        -0.50008E+08         0.00000E+00
    0.00000E+00         0.00000E+00        -0.50299E+08
 
   -0.50496E+08         0.45118E+06         0.00000E+00
    0.45118E+06        -0.50009E+08         0.00000E+00
    0.00000E+00         0.00000E+00        -0.50299E+08
 
   -0.50492E+08         0.48058E+06         0.00000E+00
    0.48058E+06        -0.50011E+08         0.00000E+00
    0.00000E+00         0.00000E+00        -0.50298E+08
 
   -0.50487E+08         0.50972E+06         0.00000E+00
    0.50972E+06        -0.50012E+08         0.00000E+00
    0.00000E+00         0.00000E+00        -0.50298E+08
 
   -0.50483E+08         0.53860E+06         0.00000E+00
    0.53860E+06        -0.50013E+08         0.00000E+00
    0.00000E+00         0.00000E+00        -0.50298E+08
 
   -0.50478E+08         0.56720E+06         0.00000E+00
    0.56720E+06        -0.50015E+08         0.00000E+00
    0.00000E+00         0.00000E+00        -0.50298E+08
 
   -0.50473E+08         0.59553E+06         0.00000E+00
    0.59553E+06        -0.50016E+08         0.00000E+00
    0.00000E+00         0.00000E+00        -0.50297E+08
 
   -0.50468E+08         0.62357E+06         0.00000E+00
    0.62357E+06        -0.50018E+08         0.00000E+00
    0.00000E+00         0.00000E+00        -0.50297E+08
 
   -0.50464E+08         0.65131E+06         0.00000E+00
    0.65131E+06        -0.50020E+08         0.00000E+00
    0.00000E+00         0.00000E+00        -0.50297E+08
 
   -0.50459E+08         0.67876E+06         0.00000E+00
    0.67876E+06        -0.50022E+08         0.00000E+00
    0.00000E+00         0.00000E+00        -0.50297E+08
 
   -0.50453E+08         0.70591E+06         0.00000E+00
    0.70591E+06        -0.50024E+08         0.00000E+00
    0.00000E+00         0.00000E+00        -0.50296E+08
 
   -0.50448E+08         0.73274E+06         0.00000E+00
    0.73274E+06        -0.50025E+08         0.00000E+00
    0.00000E+00         0.00000E+00        -0.50296E+08
 
   -0.50443E+08         0.75927E+06         0.00000E+00
    0.75927E+06        -0.50027E+08         0.00000E+00
    0.00000E+00         0.00000E+00        -0.50296E+08
 
   -0.50438E+08         0.78547E+06         0.00000E+00
    0.78547E+06        -0.50030E+08         0.00000E+00
    0.00000E+00         0.00000E+00        -0.50296E+08
 
   -0.50432E+08         0.81135E+06         0.00000E+00
    0.81135E+06        -0.50032E+08         0.00000E+00
    0.00000E+00         0.00000E+00        -0.50296E+08
 
   -0.50427E+08         0.83689E+06         0.00000E+00
    0.83689E+06        -0.50034E+08         0.00000E+00
    0.00000E+00         0.00000E+00        -0.50295E+08
 
   -0.50421E+08         0.86211E+06         0.00000E+00
    0.86211E+06        -0.50036E+08         0.00000E+00
    0.00000E+00         0.00000E+00        -0.50295E+08
 
   -0.50415E+08         0.88698E+06         0.00000E+00
    0.88698E+06        -0.50038E+08         0.00000E+00
    0.00000E+00         0.00000E+00        -0.50295E+08
 
   -0.50409E+08         0.91151E+06         0.00000E+00
    0.91151E+06        -0.50041E+08         0.00000E+00
    0.00000E+00         0.00000E+00        -0.50295E+08
 
   -0.50404E+08         0.93570E+06         0.00000E+00
    0.93570E+06        -0.50043E+08         0.00000E+00
    0.00000E+00         0.00000E+00        -0.50294E+08
 
   -0.50398E+08         0.95953E+06         0.00000E+00
    0.95953E+06        -0.50046E+08         0.00000E+00
    0.00000E+00         0.00000E+00        -0.50294E+08
 
   -0.50392E+08         0.98300E+06         0.00000E+00
    0.98300E+06        -0.50048E+08         0.00000E+00
    0.00000E+00         0.00000E+00        -0.50294E+08
 
   -0.50386E+08         0.10061E+07         0.00000E+00
    0.10061E+07        -0.50051E+08         0.00000E+00
    0.00000E+00         0.00000E+00        -0.50294E+08
 
   -0.50380E+08         0.10289E+07         0.00000E+00
    0.10289E+07        -0.50054E+08         0.00000E+00
    0.00000E+00         0.00000E+00        -0.50294E+08
 
   -0.50373E+08         0.10512E+07         0.00000E+00
    0.10512E+07        -0.50056E+08         0.00000E+00
    0.00000E+00         0.00000E+00        -0.50293E+08
 
   -0.50367E+08         0.10733E+07         0.00000E+00
    0.10733E+07        -0.50059E+08         0.00000E+00
    0.00000E+00         0.00000E+00        -0.50293E+08
 
   -0.50361E+08         0.10949E+07         0.00000E+00
    0.10949E+07        -0.50062E+08         0.00000E+00
    0.00000E+00         0.00000E+00        -0.50293E+08
 
   -0.50355E+08         0.11161E+07         0.00000E+00
    0.11161E+07        -0.50065E+08         0.00000E+00
    0.00000E+00         0.00000E+00        -0.50293E+08
 
   -0.50348E+08         0.11370E+07         0.00000E+00
    0.11370E+07        -0.50068E+08         0.00000E+00
    0.00000E+00         0.00000E+00        -0.50293E+08
 
   -0.50342E+08         0.11575E+07         0.00000E+00
    0.11575E+07        -0.50071E+08         0.00000E+00
    0.00000E+00         0.00000E+00        -0.50293E+08
 
   -0.50335E+08         0.11776E+07         0.00000E+00
    0.11776E+07        -0.50074E+08         0.00000E+00
    0.00000E+00         0.00000E+00        -0.50293E+08
 
   -0.50329E+08         0.11973E+07         0.00000E+00
    0.11973E+07        -0.50077E+08         0.00000E+00
    0.00000E+00         0.00000E+00        -0.50292E+08
 
   -0.50322E+08         0.12166E+07         0.00000E+00
    0.12166E+07        -0.50080E+08         0.00000E+00
    0.00000E+00         0.00000E+00        -0.50292E+08
 
   -0.50316E+08         0.12356E+07         0.00000E+00
    0.12356E+07        -0.50083E+08         0.00000E+00
    0.00000E+00         0.00000E+00        -0.50292E+08
 
   -0.50309E+08         0.12541E+07         0.00000E+00
    0.12541E+07        -0.50086E+08         0.00000E+00
    0.00000E+00         0.00000E+00        -0.50292E+08
 
   -0.50302E+08         0.12722E+07         0.00000E+00
    0.12722E+07        -0.50090E+08         0.00000E+00
    0.00000E+00         0.00000E+00        -0.50292E+08
 
   -0.50296E+08         0.12899E+07         0.00000E+00
    0.12899E+07        -0.50093E+08         0.00000E+00
    0.00000E+00         0.00000E+00        -0.50292E+08
 
   -0.50382E+08         0.16114E+05         0.00000E+00
    0.16114E+05        -0.50000E+08         0.00000E+00
    0.00000E+00         0.00000E+00        -0.50212E+08
 
   -0.50380E+08         0.47974E+05         0.00000E+00
    0.47974E+05        -0.50000E+08         0.00000E+00
    0.00000E+00         0.00000E+00        -0.50212E+08
 
   -0.50378E+08         0.79689E+05         0.00000E+00
    0.79689E+05        -0.50000E+08         0.00000E+00
    0.00000E+00         0.00000E+00        -0.50212E+08
 
   -0.50376E+08         0.11125E+06         0.00000E+00
    0.11125E+06        -0.50000E+08         0.00000E+00
    0.00000E+00         0.00000E+00        -0.50212E+08
 
   -0.50374E+08         0.14265E+06         0.00000E+00
    0.14265E+06        -0.50001E+08         0.00000E+00
    0.00000E+00         0.00000E+00        -0.50211E+08
 
   -0.50372E+08         0.17387E+06         0.00000E+00
    0.17387E+06        -0.50001E+08         0.00000E+00
    0.00000E+00         0.00000E+00        -0.50211E+08
 
   -0.50370E+08         0.20492E+06         0.00000E+00
    0.20492E+06        -0.50001E+08         0.00000E+00
    0.00000E+00         0.00000E+00        -0.50211E+08
 
   -0.50368E+08         0.23578E+06         0.00000E+00
    0.23578E+06        -0.50002E+08         0.00000E+00
    0.00000E+00         0.00000E+00        -0.50211E+08
 
   -0.50365E+08         0.26644E+06         0.00000E+00
    0.26644E+06        -0.50002E+08         0.00000E+00
    0.00000E+00         0.00000E+00        -0.50211E+08
 
   -0.50363E+08         0.29690E+06         0.00000E+00
    0.29690E+06        -0.50003E+08         0.00000E+00
    0.00000E+00         0.00000E+00        -0.50211E+08
 
   -0.50360E+08         0.32715E+06         0.00000E+00
    0.32715E+06        -0.50004E+08         0.00000E+00
    0.00000E+00         0.00000E+00        -0.50211E+08
 
   -0.50358E+08         0.35718E+06         0.00000E+00
    0.35718E+06        -0.50004E+08         0.00000E+00
    0.00000E+00         0.00000E+00        -0.50211E+08
 
   -0.50355E+08         0.38698E+06         0.00000E+00
    0.38698E+06        -0.50005E+08         0.00000E+00
    0.00000E+00         0.00000E+00        -0.50211E+08
 
   -0.50352E+08         0.41654E+06         0.00000E+00
    0.41654E+06        -0.50006E+08         0.00000E+00
    0.00000E+00         0.00000E+00        -0.50211E+08
 
   -0.50349E+08         0.44587E+06         0.00000E+00
    0.44587E+06        -0.50007E+08         0.00000E+00
    0.00000E+00         0.00000E+00        -0.50210E+08
 
   -0.50346E+08         0.47494E+06         0.00000E+00
    0.47494E+06        -0.50007E+08         0.00000E+00
    0.00000E+00         0.00000E+00        -0.50210E+08
 
   -0.50343E+08         0.50377E+06         0.00000E+00
    0.50377E+06        -0.50008E+08         0.00000E+00
    0.00000E+00         0.00000E+00        -0.50210E+08
 
   -0.50340E+08         0.53233E+06         0.00000E+00
    0.53233E+06        -0.50009E+08         0.00000E+00
    0.00000E+00         0.00000E+00        -0.50210E+08
 
   -0.50336E+08         0.56062E+06         0.00000E+00
    0.56062E+06        -0.50011E+08         0.00000E+00
    0.00000E+00         0.00000E+00        -0.50210E+08
 
   -0.50333E+08         0.58863E+06         0.00000E+00
    0.58863E+06        -0.50012E+08         0.00000E+00
    0.00000E+00         0.00000E+00        -0.50210E+08
 
   -0.50330E+08         0.61637E+06         0.00000E+00
    0.61637E+06        -0.50013E+08         0.00000E+00
    0.00000E+00         0.00000E+00        -0.50210E+08
 
   -0.50326E+08         0.64382E+06         0.00000E+00
    0.64382E+06        -0.50014E+08         0.00000E+00
    0.00000E+00         0.00000E+00        -0.50209E+08
 
   -0.50323E+08         0.67097E+06         0.00000E+00
    0.67097E+06        -0.50015E+08         0.00000E+00
    0.00000E+00         0.00000E+00        -0.50209E+08
 
   -0.50319E+08         0.69783E+06         0.00000E+00
    0.69783E+06        -0.50017E+08         0.00000E+00
    0.00000E+00         0.00000E+00        -0.50209E+08
 
   -0.50316E+08         0.72438E+06         0.00000E+00
    0.72438E+06        -0.50018E+08         0.00000E+00
    0.00000E+00         0.00000E+00        -0.50209E+08
 
   -0.50312E+08         0.75062E+06         0.00000E+00
    0.75062E+06        -0.50019E+08         0.00000E+00
    0.00000E+00         0.00000E+00        -0.50209E+08
 
   -0.50308E+08         0.77655E+06         0.00000E+00
    0.77655E+06        -0.50021E+08         0.00000E+00
    0.00000E+00         0.00000E+00        -0.50209E+08
 
   -0.50304E+08         0.80216E+06         0.00000E+00
    0.80216E+06        -0.50022E+08         0.00000E+00
    0.00000E+00         0.00000E+00        -0.50208E+08
 
   -0.50300E+08         0.82744E+06         0.00000E+00
    0.82744E+06        -0.50024E+08         0.00000E+00
    0.00000E+00         0.00000E+00        -0.50208E+08
 
   -0.50296E+08         0.85239E+06         0.00000E+00
    0.85239E+06        -0.50025E+08         0.00000E+00
    0.00000E+00         0.00000E+00        -0.50208E+08
 
   -0.50292E+08         0.87700E+06         0.00000E+00
    0.87700E+06        -0.50027E+08         0.00000E+00
    0.00000E+00         0.00000E+00        -0.50208E+08
 
   -0.50288E+08         0.90128E+06         0.00000E+00
    0.90128E+06        -0.50029E+08         0.00000E+00
    0.00000E+00         0.00000E+00        -0.50208E+08
 
   -0.50284E+08         0.92521E+06         0.00000E+00
    0.92521E+06        -0.50030E+08         0.00000E+00
    0.00000E+00         0.00000E+00        -0.50208E+08
 
   -0.50280E+08         0.94879E+06         0.00000E+00
    0.94879E+06        -0.50032E+08         0.00000E+00
    0.00000E+00         0.00000E+00        -0.50208E+08
 
   -0.50276E+08         0.97202E+06         0.00000E+00
    0.97202E+06        -0.50034E+08         0.00000E+00
    0.00000E+00         0.00000E+00        -0.50207E+08
 
   -0.50272E+08         0.99489E+06         0.00000E+00
    0.99489E+06        -0.50036E+08         0.00000E+00
    0.00000E+00         0.00000E+00        -0.50207E+08
 
   -0.50267E+08         0.10174E+07         0.00000E+00
    0.10174E+07        -0.50038E+08         0.00000E+00
    0.00000E+00         0.00000E+00        -0.50207E+08
 
   -0.50263E+08         0.10396E+07         0.00000E+00
    0.10396E+07        -0.50040E+08         0.00000E+00
    0.00000E+00         0.00000E+00        -0.50207E+08
 
   -0.50259E+08         0.10613E+07         0.00000E+00
    0.10613E+07        -0.50042E+08         0.00000E+00
    0.00000E+00         0.00000E+00        -0.50207E+08
 
   -0.50254E+08         0.10827E+07         0.00000E+00
    0.10827E+07        -0.50044E+08         0.00000E+00
    0.00000E+00         0.00000E+00        -0.50207E+08
 
   -0.50250E+08         0.11038E+07         0.00000E+00
    0.11038E+07        -0.50046E+08         0.00000E+00
    0.00000E+00         0.00000E+00        -0.50207E+08
 
   -0.50245E+08         0.11244E+07         0.00000E+00
    0.11244E+07        -0.50048E+08         0.00000E+00
    0.00000E+00         0.00000E+00        -0.50207E+08
 
   -0.50241E+08         0.11447E+07         0.00000E+00
    0.11447E+07        -0.50050E+08         0.00000E+00
    0.00000E+00         0.00000E+00        -0.50206E+08
 
   -0.50236E+08         0.11646E+07         0.00000E+00
    0.11646E+07        -0.50052E+08         0.00000E+00
    0.00000E+00         0.00000E+00        -0.50206E+08
 
   -0.50232E+08         0.11841E+07         0.00000E+00
    0.11841E+07        -0.50054E+08         0.00000E+00
    0.00000E+00         0.00000E+00        -0.50206E+08
 
   -0.50227E+08         0.12032E+07         0.00000E+00
    0.12032E+07        -0.50056E+08         0.00000E+00
    0.00000E+00         0.00000E+00        -0.50206E+08
 
   -0.50223E+08         0.12219E+07         0.00000E+00
    0.12219E+07        -0.50058E+08         0.00000E+00
    0.00000E+00         0.00000E+00        -0.50206E+08
 
   -0.50218E+08         0.12402E+07         0.00000E+00
    0.12402E+07        -0.50061E+08         0.00000E+00
    0.00000E+00         0.00000E+00        -0.50206E+08
 
   -0.50213E+08         0.12581E+07         0.00000E+00
    0.12581E+07        -0.50063E+08         0.00000E+00
    0.00000E+00         0.00000E+00        -0.50206E+08
 
   -0.50209E+08         0.12756E+07         0.00000E+00
    0.12756E+07        -0.50065E+08         0.00000E+00
    0.00000E+00         0.00000E+00        -0.50206E+08
 
   -0.50223E+08         0.15979E+05         0.00000E+00
    0.15979E+05        -0.50000E+08         0.00000E+00
    0.00000E+00         0.00000E+00        -0.50124E+08
 
   -0.50222E+08         0.47579E+05         0.00000E+00
    0.47579E+05        -0.50000E+08         0.00000E+00
    0.00000E+00         0.00000E+00        -0.50124E+08
 
   -0.50221E+08         0.79036E+05         0.00000E+00
    0.79036E+05        -0.50000E+08         0.00000E+00
    0.00000E+00         0.00000E+00        -0.50124E+08
 
   -0.50220E+08         0.11034E+06         0.00000E+00
    0.11034E+06        -0.50000E+08         0.00000E+00
    0.00000E+00         0.00000E+00        -0.50124E+08
 
   -0.50218E+08         0.14149E+06         0.00000E+00
    0.14149E+06        -0.50000E+08         0.00000E+00
    0.00000E+00         0.00000E+00        -0.50124E+08
 
   -0.50217E+08         0.17247E+06         0.00000E+00
    0.17247E+06        -0.50001E+08         0.00000E+00
    0.00000E+00         0.00000E+00        -0.50124E+08
 
   -0.50216E+08         0.20327E+06         0.00000E+00
    0.20327E+06        -0.50001E+08         0.00000E+00
    0.00000E+00         0.00000E+00        -0.50124E+08
 
   -0.50215E+08         0.23389E+06         0.00000E+00
    0.23389E+06        -0.50001E+08         0.00000E+00
    0.00000E+00         0.00000E+00        -0.50124E+08
 
   -0.50213E+08         0.26431E+06         0.00000E+00
    0.26431E+06        -0.50001E+08         0.00000E+00
    0.00000E+00         0.00000E+00        -0.50124E+08
 
   -0.50212E+08         0.29454E+06         0.00000E+00
    0.29454E+06        -0.50002E+08         0.00000E+00
    0.00000E+00         0.00000E+00        -0.50124E+08
 
   -0.50210E+08         0.32455E+06         0.00000E+00
    0.32455E+06        -0.50002E+08         0.00000E+00
    0.00000E+00         0.00000E+00        -0.50124E+08
 
   -0.50209E+08         0.35435E+06         0.00000E+00
    0.35435E+06        -0.50002E+08         0.00000E+00
    0.00000E+00         0.00000E+00        -0.50124E+08
 
   -0.50207E+08         0.38393E+06         0.00000E+00
    0.38393E+06        -0.50003E+08         0.00000E+00
    0.00000E+00         0.00000E+00        -0.50123E+08
 
   -0.50205E+08         0.41328E+06         0.00000E+00
    0.41328E+06        -0.50003E+08         0.00000E+00
    0.00000E+00         0.00000E+00        -0.50123E+08
 
   -0.50204E+08         0.44238E+06         0.00000E+00
    0.44238E+06        -0.50004E+08         0.00000E+00
    0.00000E+00         0.00000E+00        -0.50123E+08
 
   -0.50202E+08         0.47125E+06         0.00000E+00
    0.47125E+06        -0.50004E+08         0.00000E+00
    0.00000E+00         0.00000E+00        -0.50123E+08
 
   -0.50200E+08         0.49986E+06         0.00000E+00
    0.49986E+06        -0.50005E+08         0.00000E+00
    0.00000E+00         0.00000E+00        -0.50123E+08
 
   -0.50198E+08         0.52822E+06         0.00000E+00
    0.52822E+06        -0.50006E+08         0.00000E+00
    0.00000E+00         0.00000E+00        -0.50123E+08
 
   -0.50196E+08         0.55630E+06         0.00000E+00
    0.55630E+06        -0.50006E+08         0.00000E+00
    0.00000E+00         0.00000E+00        -0.50123E+08
 
   -0.50194E+08         0.58412E+06         0.00000E+00
    0.58412E+06        -0.50007E+08         0.00000E+00
    0.00000E+00         0.00000E+00        -0.50123E+08
 
   -0.50192E+08         0.61166E+06         0.00000E+00
    0.61166E+06        -0.50008E+08         0.00000E+00
    0.00000E+00         0.00000E+00        -0.50123E+08
 
   -0.50190E+08         0.63892E+06         0.00000E+00
    0.63892E+06        -0.50008E+08         0.00000E+00
    0.00000E+00         0.00000E+00        -0.50123E+08
 
   -0.50188E+08         0.66588E+06         0.00000E+00
    0.66588E+06        -0.50009E+08         0.00000E+00
    0.00000E+00         0.00000E+00        -0.50123E+08
 
   -0.50186E+08         0.69255E+06         0.00000E+00
    0.69255E+06        -0.50010E+08         0.00000E+00
    0.00000E+00         0.00000E+00        -0.50123E+08
 
   -0.50184E+08         0.71892E+06         0.00000E+00
    0.71892E+06        -0.50011E+08         0.00000E+00
    0.00000E+00         0.00000E+00        -0.50122E+08
 
   -0.50182E+08         0.74498E+06         0.00000E+00
    0.74498E+06        -0.50011E+08         0.00000E+00
    0.00000E+00         0.00000E+00        -0.50122E+08
 
   -0.50180E+08         0.77073E+06         0.00000E+00
    0.77073E+06        -0.50012E+08         0.00000E+00
    0.00000E+00         0.00000E+00        -0.50122E+08
 
   -0.50177E+08         0.79617E+06         0.00000E+00
    0.79617E+06        -0.50013E+08         0.00000E+00
    0.00000E+00         0.00000E+00        -0.50122E+08
 
   -0.50175E+08         0.82128E+06         0.00000E+00
    0.82128E+06        -0.50014E+08         0.00000E+00
    0.00000E+00         0.00000E+00        -0.50122E+08
 
   -0.50173E+08         0.84606E+06         0.00000E+00
    0.84606E+06        -0.50015E+08         0.00000E+00
    0.00000E+00         0.00000E+00        -0.50122E+08
 
   -0.50171E+08         0.87051E+06         0.00000E+00
    0.87051E+06        -0.50016E+08         0.00000E+00
    0.00000E+00         0.00000E+00        -0.50122E+08
 
   -0.50168E+08         0.89462E+06         0.00000E+00
    0.89462E+06        -0.50017E+08         0.00000E+00
    0.00000E+00         0.00000E+00        -0.50122E+08
 
   -0.50166E+08         0.91839E+06         0.00000E+00
    0.91839E+06        -0.50018E+08         0.00000E+00
    0.00000E+00         0.00000E+00        -0.50122E+08
 
   -0.50163E+08         0.94181E+06         0.00000E+00
    0.94181E+06        -0.50019E+08         0.00000E+00
    0.00000E+00         0.00000E+00        -0.50122E+08
 
   -0.50161E+08         0.96488E+06         0.00000E+00
    0.96488E+06        -0.50020E+08         0.00000E+00
    0.00000E+00         0.00000E+00        -0.50122E+08
 
   -0.50159E+08         0.98760E+06         0.00000E+00
    0.98760E+06        -0.50021E+08         0.00000E+00
    0.00000E+00         0.00000E+00        -0.50122E+08
 
   -0.50156E+08         0.10100E+07         0.00000E+00
    0.10100E+07        -0.50022E+08         0.00000E+00
    0.00000E+00         0.00000E+00        -0.50121E+08
 
   -0.50154E+08         0.10320E+07         0.00000E+00
    0.10320E+07        -0.50023E+08         0.00000E+00
    0.00000E+00         0.00000E+00        -0.50121E+08
 
   -0.50151E+08         0.10536E+07         0.00000E+00
    0.10536E+07        -0.50024E+08         0.00000E+00
    0.00000E+00         0.00000E+00        -0.50121E+08
 
   -0.50149E+08         0.10748E+07         0.00000E+00
    0.10748E+07        -0.50025E+08         0.00000E+00
    0.00000E+00         0.00000E+00        -0.50121E+08
 
   -0.50146E+08         0.10957E+07         0.00000E+00
    0.10957E+07        -0.50026E+08         0.00000E+00
    0.00000E+00         0.00000E+00        -0.50121E+08
 
   -0.50143E+08         0.11162E+07         0.00000E+00
    0.11162E+07        -0.50028E+08         0.00000E+00
    0.00000E+00         0.00000E+00        -0.50121E+08
 
   -0.50141E+08         0.11364E+07         0.00000E+00
    0.11364E+07        -0.50029E+08         0.00000E+00
    0.00000E+00         0.00000E+00        -0.50121E+08
 
   -0.50138E+08         0.11561E+07         0.00000E+00
    0.11561E+07        -0.50030E+08         0.00000E+00
    0.00000E+00         0.00000E+00        -0.50121E+08
 
   -0.50136E+08         0.11755E+07         0.00000E+00
    0.11755E+07        -0.50031E+08         0.00000E+00
    0.00000E+00         0.00000E+00        -0.50121E+08
 
   -0.50133E+08         0.11944E+07         0.00000E+00
    0.11944E+07        -0.50033E+08         0.00000E+00
    0.00000E+00         0.00000E+00        -0.50121E+08
 
   -0.50130E+08         0.12130E+07         0.00000E+00
    0.12130E+07        -0.50034E+08         0.00000E+00
    0.00000E+00         0.00000E+00        -0.50121E+08
 
   -0.50128E+08         0.12312E+07         0.00000E+00
    0.12312E+07        -0.50035E+08         0.00000E+00
    0.00000E+00         0.00000E+00        -0.50121E+08
 
   -0.50125E+08         0.12490E+07         0.00000E+00
    0.12490E+07        -0.50036E+08         0.00000E+00
    0.00000E+00         0.00000E+00        -0.50121E+08
 
   -0.50122E+08         0.12664E+07         0.00000E+00
    0.12664E+07        -0.50038E+08         0.00000E+00
    0.00000E+00         0.00000E+00        -0.50121E+08
 
   -0.50065E+08         0.15913E+05         0.00000E+00
    0.15913E+05        -0.50000E+08         0.00000E+00
    0.00000E+00         0.00000E+00        -0.50037E+08
 
   -0.50065E+08         0.47384E+05         0.00000E+00
    0.47384E+05        -0.50000E+08         0.00000E+00
    0.00000E+00         0.00000E+00        -0.50037E+08
 
   -0.50064E+08         0.78715E+05         0.00000E+00
    0.78715E+05        -0.50000E+08         0.00000E+00
    0.00000E+00         0.00000E+00        -0.50037E+08
 
   -0.50064E+08         0.10990E+06         0.00000E+00
    0.10990E+06        -0.50000E+08         0.00000E+00
    0.00000E+00         0.00000E+00        -0.50037E+08
 
   -0.50064E+08         0.14092E+06         0.00000E+00
    0.14092E+06        -0.50000E+08         0.00000E+00
    0.00000E+00         0.00000E+00        -0.50037E+08
 
   -0.50063E+08         0.17178E+06         0.00000E+00
    0.17178E+06        -0.50000E+08         0.00000E+00
    0.00000E+00         0.00000E+00        -0.50037E+08
 
   -0.50063E+08         0.20246E+06         0.00000E+00
    0.20246E+06        -0.50000E+08         0.00000E+00
    0.00000E+00         0.00000E+00        -0.50037E+08
 
   -0.50062E+08         0.23297E+06         0.00000E+00
    0.23297E+06        -0.50000E+08         0.00000E+00
    0.00000E+00         0.00000E+00        -0.50037E+08
 
   -0.50062E+08         0.26328E+06         0.00000E+00
    0.26328E+06        -0.50000E+08         0.00000E+00
    0.00000E+00         0.00000E+00        -0.50037E+08
 
   -0.50061E+08         0.29339E+06         0.00000E+00
    0.29339E+06        -0.50001E+08         0.00000E+00
    0.00000E+00         0.00000E+00        -0.50037E+08
 
   -0.50061E+08         0.32330E+06         0.00000E+00
    0.32330E+06        -0.50001E+08         0.00000E+00
    0.00000E+00         0.00000E+00        -0.50037E+08
 
   -0.50060E+08         0.35299E+06         0.00000E+00
    0.35299E+06        -0.50001E+08         0.00000E+00
    0.00000E+00         0.00000E+00        -0.50037E+08
 
   -0.50060E+08         0.38246E+06         0.00000E+00
    0.38246E+06        -0.50001E+08         0.00000E+00
    0.00000E+00         0.00000E+00        -0.50037E+08
 
   -0.50059E+08         0.41171E+06         0.00000E+00
    0.41171E+06        -0.50001E+08         0.00000E+00
    0.00000E+00         0.00000E+00        -0.50037E+08
 
   -0.50059E+08         0.44072E+06         0.00000E+00
    0.44072E+06        -0.50001E+08         0.00000E+00
    0.00000E+00         0.00000E+00        -0.50037E+08
 
   -0.50058E+08         0.46948E+06         0.00000E+00
    0.46948E+06        -0.50001E+08         0.00000E+00
    0.00000E+00         0.00000E+00        -0.50037E+08
 
   -0.50058E+08         0.49800E+06         0.00000E+00
    0.49800E+06        -0.50002E+08         0.00000E+00
    0.00000E+00         0.00000E+00        -0.50037E+08
 
   -0.50057E+08         0.52626E+06         0.00000E+00
    0.52626E+06        -0.50002E+08         0.00000E+00
    0.00000E+00         0.00000E+00        -0.50037E+08
 
   -0.50057E+08         0.55426E+06         0.00000E+00
    0.55426E+06        -0.50002E+08         0.00000E+00
    0.00000E+00         0.00000E+00        -0.50037E+08
 
   -0.50056E+08         0.58198E+06         0.00000E+00
    0.58198E+06        -0.50002E+08         0.00000E+00
    0.00000E+00         0.00000E+00        -0.50037E+08
 
   -0.50056E+08         0.60943E+06         0.00000E+00
    0.60943E+06        -0.50002E+08         0.00000E+00
    0.00000E+00         0.00000E+00        -0.50037E+08
 
   -0.50055E+08         0.63660E+06         0.00000E+00
    0.63660E+06        -0.50002E+08         0.00000E+00
    0.00000E+00         0.00000E+00        -0.50036E+08
 
   -0.50054E+08         0.66348E+06         0.00000E+00
    0.66348E+06        -0.50003E+08         0.00000E+00
    0.00000E+00         0.00000E+00        -0.50036E+08
 
   -0.50054E+08         0.69007E+06         0.00000E+00
    0.69007E+06        -0.50003E+08         0.00000E+00
    0.00000E+00         0.00000E+00        -0.50036E+08
 
   -0.50053E+08         0.71636E+06         0.00000E+00
    0.71636E+06        -0.50003E+08         0.00000E+00
    0.00000E+00         0.00000E+00        -0.50036E+08
 
   -0.50053E+08         0.74234E+06         0.00000E+00
    0.74234E+06        -0.50003E+08         0.00000E+00
    0.00000E+00         0.00000E+00        -0.50036E+08
 
   -0.50052E+08         0.76801E+06         0.00000E+00
    0.76801E+06        -0.50004E+08         0.00000E+00
    0.00000E+00         0.00000E+00        -0.50036E+08
 
   -0.50051E+08         0.79337E+06         0.00000E+00
    0.79337E+06        -0.50004E+08         0.00000E+00
    0.00000E+00         0.00000E+00        -0.50036E+08
 
   -0.50051E+08         0.81840E+06         0.00000E+00
    0.81840E+06        -0.50004E+08         0.00000E+00
    0.00000E+00         0.00000E+00        -0.50036E+08
 
   -0.50050E+08         0.84311E+06         0.00000E+00
    0.84311E+06        -0.50004E+08         0.00000E+00
    0.00000E+00         0.00000E+00        -0.50036E+08
 
   -0.50049E+08         0.86749E+06         0.00000E+00
    0.86749E+06        -0.50005E+08         0.00000E+00
    0.00000E+00         0.00000E+00        -0.50036E+08
 
   -0.50049E+08         0.89153E+06         0.00000E+00
    0.89153E+06        -0.50005E+08         0.00000E+00
    0.00000E+00         0.00000E+00        -0.50036E+08
 
   -0.50048E+08         0.91523E+06         0.00000E+00
    0.91523E+06        -0.50005E+08         0.00000E+00
    0.00000E+00         0.00000E+00        -0.50036E+08
 
   -0.50047E+08         0.93858E+06         0.00000E+00
    0.93858E+06        -0.50005E+08         0.00000E+00
    0.00000E+00         0.00000E+00        -0.50036E+08
 
   -0.50047E+08         0.96158E+06         0.00000E+00
    0.96158E+06        -0.50006E+08         0.00000E+00
    0.00000E+00         0.00000E+00        -0.50036E+08
 
   -0.50046E+08         0.98423E+06         0.00000E+00
    0.98423E+06        -0.50006E+08         0.00000E+00
    0.00000E+00         0.00000E+00        -0.50036E+08
 
   -0.50045E+08         0.10065E+07         0.00000E+00
    0.10065E+07        -0.50006E+08         0.00000E+00
    0.00000E+00         0.00000E+00        -0.50036E+08
 
   -0.50045E+08         0.10285E+07         0.00000E+00
    0.10285E+07        -0.50006E+08         0.00000E+00
    0.00000E+00         0.00000E+00        -0.50036E+08
 
   -0.50044E+08         0.10500E+07         0.00000E+00
    0.10500E+07        -0.50007E+08         0.00000E+00
    0.00000E+00         0.00000E+00        -0.50036E+08
 
   -0.50043E+08         0.10712E+07         0.00000E+00
    0.10712E+07        -0.50007E+08         0.00000E+00
    0.00000E+00         0.00000E+00        -0.50036E+08
 
   -0.50043E+08         0.10920E+07         0.00000E+00
    0.10920E+07        -0.50007E+08         0.00000E+00
    0.00000E+00         0.00000E+00        -0.50036E+08
 
   -0.50042E+08         0.11125E+07         0.00000E+00
    0.11125E+07        -0.50008E+08         0.00000E+00
    0.00000E+00         0.00000E+00        -0.50036E+08
 
   -0.50041E+08         0.11326E+07         0.00000E+00
    0.11326E+07        -0.50008E+08         0.00000E+00
    0.00000E+00         0.00000E+00        -0.50036E+08
 
   -0.50041E+08         0.11522E+07         0.00000E+00
    0.11522E+07        -0.50008E+08         0.00000E+00
    0.00000E+00         0.00000E+00        -0.50036E+08
 
   -0.50040E+08         0.11715E+07         0.00000E+00
    0.11715E+07        -0.50009E+08         0.00000E+00
    0.00000E+00         0.00000E+00        -0.50036E+08
 
   -0.50039E+08         0.11904E+07         0.00000E+00
    0.11904E+07        -0.50009E+08         0.00000E+00
    0.00000E+00         0.00000E+00        -0.50036E+08
 
   -0.50039E+08         0.12090E+07         0.00000E+00
    0.12090E+07        -0.50009E+08         0.00000E+00
    0.00000E+00         0.00000E+00        -0.50036E+08
 
   -0.50038E+08         0.12271E+07         0.00000E+00
    0.12271E+07        -0.50010E+08         0.00000E+00
    0.00000E+00         0.00000E+00        -0.50036E+08
 
   -0.50037E+08         0.12448E+07         0.00000E+00
    0.12448E+07        -0.50010E+08         0.00000E+00
    0.00000E+00         0.00000E+00        -0.50036E+08
 
   -0.50037E+08         0.12621E+07         0.00000E+00
    0.12621E+07        -0.50010E+08         0.00000E+00
    0.00000E+00         0.00000E+00        -0.50036E+08
 
   -0.49907E+08         0.15913E+05         0.00000E+00
    0.15913E+05        -0.50000E+08         0.00000E+00
    0.00000E+00         0.00000E+00        -0.49950E+08
 
   -0.49908E+08         0.47389E+05         0.00000E+00
    0.47389E+05        -0.50000E+08         0.00000E+00
    0.00000E+00         0.00000E+00        -0.49950E+08
 
   -0.49908E+08         0.78725E+05         0.00000E+00
    0.78725E+05        -0.50000E+08         0.00000E+00
    0.00000E+00         0.00000E+00        -0.49950E+08
 
   -0.49908E+08         0.10991E+06         0.00000E+00
    0.10991E+06        -0.50000E+08         0.00000E+00
    0.00000E+00         0.00000E+00        -0.49950E+08
 
   -0.49909E+08         0.14094E+06         0.00000E+00
    0.14094E+06        -0.50000E+08         0.00000E+00
    0.00000E+00         0.00000E+00        -0.49950E+08
 
   -0.49909E+08         0.17181E+06         0.00000E+00
    0.17181E+06        -0.50000E+08         0.00000E+00
    0.00000E+00         0.00000E+00        -0.49950E+08
 
   -0.49910E+08         0.20250E+06         0.00000E+00
    0.20250E+06        -0.50000E+08         0.00000E+00
    0.00000E+00         0.00000E+00        -0.49950E+08
 
   -0.49910E+08         0.23302E+06         0.00000E+00
    0.23302E+06        -0.50000E+08         0.00000E+00
    0.00000E+00         0.00000E+00        -0.49950E+08
 
   -0.49911E+08         0.26334E+06         0.00000E+00
    0.26334E+06        -0.49999E+08         0.00000E+00
    0.00000E+00         0.00000E+00        -0.49950E+08
 
   -0.49911E+08         0.29346E+06         0.00000E+00
    0.29346E+06        -0.49999E+08         0.00000E+00
    0.00000E+00         0.00000E+00        -0.49950E+08
 
   -0.49912E+08         0.32338E+06         0.00000E+00
    0.32338E+06        -0.49999E+08         0.00000E+00
    0.00000E+00         0.00000E+00        -0.49950E+08
 
   -0.49913E+08         0.35309E+06         0.00000E+00
    0.35309E+06        -0.49999E+08         0.00000E+00
    0.00000E+00         0.00000E+00        -0.49950E+08
 
   -0.49913E+08         0.38258E+06         0.00000E+00
    0.38258E+06        -0.49999E+08         0.00000E+00
    0.00000E+00         0.00000E+00        -0.49950E+08
 
   -0.49914E+08         0.41184E+06         0.00000E+00
    0.41184E+06        -0.49999E+08         0.00000E+00
    0.00000E+00         0.00000E+00        -0.49950E+08
 
   -0.49914E+08         0.44086E+06         0.00000E+00
    0.44086E+06        -0.49998E+08         0.00000E+00
    0.00000E+00         0.00000E+00        -0.49950E+08
 
   -0.49915E+08         0.46964E+06         0.00000E+00
    0.46964E+06        -0.49998E+08         0.00000E+00
    0.00000E+00         0.00000E+00        -0.49950E+08
 
   -0.49916E+08         0.49817E+06         0.00000E+00
    0.49817E+06        -0.49998E+08         0.00000E+00
    0.00000E+00         0.00000E+00        -0.49950E+08
 
   -0.49917E+08         0.52645E+06         0.00000E+00
    0.52645E+06        -0.49998E+08         0.00000E+00
    0.00000E+00         0.00000E+00        -0.49950E+08
 
   -0.49917E+08         0.55447E+06         0.00000E+00
    0.55447E+06        -0.49998E+08         0.00000E+00
    0.00000E+00         0.00000E+00        -0.49950E+08
 
   -0.49918E+08         0.58221E+06         0.00000E+00
    0.58221E+06        -0.49997E+08         0.00000E+00
    0.00000E+00         0.00000E+00        -0.49950E+08
 
   -0.49919E+08         0.60968E+06         0.00000E+00
    0.60968E+06        -0.49997E+08         0.00000E+00
    0.00000E+00         0.00000E+00        -0.49950E+08
 
   -0.49920E+08         0.63687E+06         0.00000E+00
    0.63687E+06        -0.49997E+08         0.00000E+00
    0.00000E+00         0.00000E+00        -0.49950E+08
 
   -0.49921E+08         0.66377E+06         0.00000E+00
    0.66377E+06        -0.49996E+08         0.00000E+00
    0.00000E+00         0.00000E+00        -0.49950E+08
 
   -0.49922E+08         0.69038E+06         0.00000E+00
    0.69038E+06        -0.49996E+08         0.00000E+00
    0.00000E+00         0.00000E+00        -0.49951E+08
 
   -0.49922E+08         0.71669E+06         0.00000E+00
    0.71669E+06        -0.49996E+08         0.00000E+00
    0.00000E+00         0.00000E+00        -0.49951E+08
 
   -0.49923E+08         0.74269E+06         0.00000E+00
    0.74269E+06        -0.49995E+08         0.00000E+00
    0.00000E+00         0.00000E+00        -0.49951E+08
 
   -0.49924E+08         0.76838E+06         0.00000E+00
    0.76838E+06        -0.49995E+08         0.00000E+00
    0.00000E+00         0.00000E+00        -0.49951E+08
 
   -0.49925E+08         0.79376E+06         0.00000E+00
    0.79376E+06        -0.49995E+08         0.00000E+00
    0.00000E+00         0.00000E+00        -0.49951E+08
 
   -0.49926E+08         0.81882E+06         0.00000E+00
    0.81882E+06        -0.49994E+08         0.00000E+00
    0.00000E+00         0.00000E+00        -0.49951E+08
 
   -0.49927E+08         0.84354E+06         0.00000E+00
    0.84354E+06        -0.49994E+08         0.00000E+00
    0.00000E+00         0.00000E+00        -0.49951E+08
 
   -0.49928E+08         0.86794E+06         0.00000E+00
    0.86794E+06        -0.49993E+08         0.00000E+00
    0.00000E+00         0.00000E+00        -0.49951E+08
 
   -0.49929E+08         0.89200E+06         0.00000E+00
    0.89200E+06        -0.49993E+08         0.00000E+00
    0.00000E+00         0.00000E+00        -0.49951E+08
 
   -0.49930E+08         0.91572E+06         0.00000E+00
    0.91572E+06        -0.49992E+08         0.00000E+00
    0.00000E+00         0.00000E+00        -0.49951E+08
 
   -0.49932E+08         0.93910E+06         0.00000E+00
    0.93910E+06        -0.49992E+08         0.00000E+00
    0.00000E+00         0.00000E+00        -0.49951E+08
 
   -0.49933E+08         0.96212E+06         0.00000E+00
    0.96212E+06        -0.49991E+08         0.00000E+00
    0.00000E+00         0.00000E+00        -0.49951E+08
 
   -0.49934E+08         0.98479E+06         0.00000E+00
    0.98479E+06        -0.49991E+08         0.00000E+00
    0.00000E+00         0.00000E+00        -0.49951E+08
 
   -0.49935E+08         0.10071E+07         0.00000E+00
    0.10071E+07        -0.49990E+08         0.00000E+00
    0.00000E+00         0.00000E+00        -0.49951E+08
 
   -0.49936E+08         0.10291E+07         0.00000E+00
    0.10291E+07        -0.49990E+08         0.00000E+00
    0.00000E+00         0.00000E+00        -0.49951E+08
 
   -0.49937E+08         0.10506E+07         0.00000E+00
    0.10506E+07        -0.49989E+08         0.00000E+00
    0.00000E+00         0.00000E+00        -0.49951E+08
 
   -0.49938E+08         0.10718E+07         0.00000E+00
    0.10718E+07        -0.49989E+08         0.00000E+00
    0.00000E+00         0.00000E+00        -0.49951E+08
 
   -0.49940E+08         0.10927E+07         0.00000E+00
    0.10927E+07        -0.49988E+08         0.00000E+00
    0.00000E+00         0.00000E+00        -0.49951E+08
 
   -0.49941E+08         0.11131E+07         0.00000E+00
    0.11131E+07        -0.49988E+08         0.00000E+00
    0.00000E+00         0.00000E+00        -0.49951E+08
 
   -0.49942E+08         0.11332E+07         0.00000E+00
    0.11332E+07        -0.49987E+08         0.00000E+00
    0.00000E+00         0.00000E+00        -0.49951E+08
 
   -0.49943E+08         0.11529E+07         0.00000E+00
    0.11529E+07        -0.49987E+08         0.00000E+00
    0.00000E+00         0.00000E+00        -0.49951E+08
 
   -0.49944E+08         0.11722E+07         0.00000E+00
    0.11722E+07        -0.49986E+08         0.00000E+00
    0.00000E+00         0.00000E+00        -0.49952E+08
 
   -0.49946E+08         0.11912E+07         0.00000E+00
    0.11912E+07        -0.49985E+08         0.00000E+00
    0.00000E+00         0.00000E+00        -0.49952E+08
 
   -0.49947E+08         0.12097E+07         0.00000E+00
    0.12097E+07        -0.49985E+08         0.00000E+00
    0.00000E+00         0.00000E+00        -0.49952E+08
 
   -0.49948E+08         0.12278E+07         0.00000E+00
    0.12278E+07        -0.49984E+08         0.00000E+00
    0.00000E+00         0.00000E+00        -0.49952E+08
 
   -0.49950E+08         0.12455E+07         0.00000E+00
    0.12455E+07        -0.49983E+08         0.00000E+00
    0.00000E+00         0.00000E+00        -0.49952E+08
 
   -0.49951E+08         0.12629E+07         0.00000E+00
    0.12629E+07        -0.49983E+08         0.00000E+00
    0.00000E+00         0.00000E+00        -0.49952E+08
 
   -0.49749E+08         0.15982E+05         0.00000E+00
    0.15982E+05        -0.50000E+08         0.00000E+00
    0.00000E+00         0.00000E+00        -0.49863E+08
 
   -0.49750E+08         0.47593E+05         0.00000E+00
    0.47593E+05        -0.50000E+08         0.00000E+00
    0.00000E+00         0.00000E+00        -0.49863E+08
 
   -0.49751E+08         0.79066E+05         0.00000E+00
    0.79066E+05        -0.50000E+08         0.00000E+00
    0.00000E+00         0.00000E+00        -0.49863E+08
 
   -0.49753E+08         0.11039E+06         0.00000E+00
    0.11039E+06        -0.50000E+08         0.00000E+00
    0.00000E+00         0.00000E+00        -0.49863E+08
 
   -0.49754E+08         0.14156E+06         0.00000E+00
    0.14156E+06        -0.50000E+08         0.00000E+00
    0.00000E+00         0.00000E+00        -0.49863E+08
 
   -0.49755E+08         0.17256E+06         0.00000E+00
    0.17256E+06        -0.49999E+08         0.00000E+00
    0.00000E+00         0.00000E+00        -0.49863E+08
 
   -0.49756E+08         0.20339E+06         0.00000E+00
    0.20339E+06        -0.49999E+08         0.00000E+00
    0.00000E+00         0.00000E+00        -0.49863E+08
 
   -0.49758E+08         0.23404E+06         0.00000E+00
    0.23404E+06        -0.49999E+08         0.00000E+00
    0.00000E+00         0.00000E+00        -0.49863E+08
 
   -0.49759E+08         0.26449E+06         0.00000E+00
    0.26449E+06        -0.49999E+08         0.00000E+00
    0.00000E+00         0.00000E+00        -0.49863E+08
 
   -0.49761E+08         0.29475E+06         0.00000E+00
    0.29475E+06        -0.49998E+08         0.00000E+00
    0.00000E+00         0.00000E+00        -0.49863E+08
 
   -0.49763E+08         0.32481E+06         0.00000E+00
    0.32481E+06        -0.49998E+08         0.00000E+00
    0.00000E+00         0.00000E+00        -0.49863E+08
 
   -0.49764E+08         0.35465E+06         0.00000E+00
    0.35465E+06        -0.49997E+08         0.00000E+00
    0.00000E+00         0.00000E+00        -0.49863E+08
 
   -0.49766E+08         0.38427E+06         0.00000E+00
    0.38427E+06        -0.49997E+08         0.00000E+00
    0.00000E+00         0.00000E+00        -0.49863E+08
 
   -0.49768E+08         0.41366E+06         0.00000E+00
    0.41366E+06        -0.49996E+08         0.00000E+00
    0.00000E+00         0.00000E+00        -0.49863E+08
 
   -0.49770E+08         0.44281E+06         0.00000E+00
    0.44281E+06        -0.49996E+08         0.00000E+00
    0.00000E+00         0.00000E+00        -0.49863E+08
 
   -0.49772E+08         0.47173E+06         0.00000E+00
    0.47173E+06        -0.49995E+08         0.00000E+00
    0.00000E+00         0.00000E+00        -0.49863E+08
 
   -0.49774E+08         0.50039E+06         0.00000E+00
    0.50039E+06        -0.49995E+08         0.00000E+00
    0.00000E+00         0.00000E+00        -0.49864E+08
 
   -0.49776E+08         0.52880E+06         0.00000E+00
    0.52880E+06        -0.49994E+08         0.00000E+00
    0.00000E+00         0.00000E+00        -0.49864E+08
 
   -0.49778E+08         0.55694E+06         0.00000E+00
    0.55694E+06        -0.49993E+08         0.00000E+00
    0.00000E+00         0.00000E+00        -0.49864E+08
 
   -0.49780E+08         0.58482E+06         0.00000E+00
    0.58482E+06        -0.49992E+08         0.00000E+00
    0.00000E+00         0.00000E+00        -0.49864E+08
 
   -0.49782E+08         0.61242E+06         0.00000E+00
    0.61242E+06        -0.49992E+08         0.00000E+00
    0.00000E+00         0.00000E+00        -0.49864E+08
 
   -0.49784E+08         0.63973E+06         0.00000E+00
    0.63973E+06        -0.49991E+08         0.00000E+00
    0.00000E+00         0.00000E+00        -0.49864E+08
 
   -0.49787E+08         0.66676E+06         0.00000E+00
    0.66676E+06        -0.49990E+08         0.00000E+00
    0.00000E+00         0.00000E+00        -0.49864E+08
 
   -0.49789E+08         0.69349E+06         0.00000E+00
    0.69349E+06        -0.49989E+08         0.00000E+00
    0.00000E+00         0.00000E+00        -0.49864E+08
 
   -0.49791E+08         0.71992E+06         0.00000E+00
    0.71992E+06        -0.49988E+08         0.00000E+00
    0.00000E+00         0.00000E+00        -0.49865E+08
 
   -0.49794E+08         0.74604E+06         0.00000E+00
    0.74604E+06        -0.49987E+08         0.00000E+00
    0.00000E+00         0.00000E+00        -0.49865E+08
 
   -0.49796E+08         0.77186E+06         0.00000E+00
    0.77186E+06        -0.49986E+08         0.00000E+00
    0.00000E+00         0.00000E+00        -0.49865E+08
 
   -0.49799E+08         0.79735E+06         0.00000E+00
    0.79735E+06        -0.49985E+08         0.00000E+00
    0.00000E+00         0.00000E+00        -0.49865E+08
 
   -0.49802E+08         0.82253E+06         0.00000E+00
    0.82253E+06        -0.49984E+08         0.00000E+00
    0.00000E+00         0.00000E+00        -0.49865E+08
 
   -0.49804E+08         0.84737E+06         0.00000E+00
    0.84737E+06        -0.49983E+08         0.00000E+00
    0.00000E+00         0.00000E+00        -0.49865E+08
 
   -0.49807E+08         0.87188E+06         0.00000E+00
    0.87188E+06        -0.49982E+08         0.00000E+00
    0.00000E+00         0.00000E+00        -0.49865E+08
 
   -0.49810E+08         0.89606E+06         0.00000E+00
    0.89606E+06        -0.49981E+08         0.00000E+00
    0.00000E+00         0.00000E+00        -0.49865E+08
 
   -0.49812E+08         0.91989E+06         0.00000E+00
    0.91989E+06        -0.49980E+08         0.00000E+00
    0.00000E+00         0.00000E+00        -0.49866E+08
 
   -0.49815E+08         0.94337E+06         0.00000E+00
    0.94337E+06        -0.49978E+08         0.00000E+00
    0.00000E+00         0.00000E+00        -0.49866E+08
 
   -0.49818E+08         0.96650E+06         0.00000E+00
    0.96650E+06        -0.49977E+08         0.00000E+00
    0.00000E+00         0.00000E+00        -0.49866E+08
 
   -0.49821E+08         0.98928E+06         0.00000E+00
    0.98928E+06        -0.49976E+08         0.00000E+00
    0.00000E+00         0.00000E+00        -0.49866E+08
 
   -0.49824E+08         0.10117E+07         0.00000E+00
    0.10117E+07        -0.49975E+08         0.00000E+00
    0.00000E+00         0.00000E+00        -0.49866E+08
 
   -0.49827E+08         0.10337E+07         0.00000E+00
    0.10337E+07        -0.49973E+08         0.00000E+00
    0.00000E+00         0.00000E+00        -0.49866E+08
 
   -0.49830E+08         0.10554E+07         0.00000E+00
    0.10554E+07        -0.49972E+08         0.00000E+00
    0.00000E+00         0.00000E+00        -0.49866E+08
 
   -0.49833E+08         0.10767E+07         0.00000E+00
    0.10767E+07        -0.49970E+08         0.00000E+00
    0.00000E+00         0.00000E+00        -0.49866E+08
 
   -0.49836E+08         0.10977E+07         0.00000E+00
    0.10977E+07        -0.49969E+08         0.00000E+00
    0.00000E+00         0.00000E+00        -0.49866E+08
 
   -0.49839E+08         0.11182E+07         0.00000E+00
    0.11182E+07        -0.49968E+08         0.00000E+00
    0.00000E+00         0.00000E+00        -0.49866E+08
 
   -0.49842E+08         0.11384E+07         0.00000E+00
    0.11384E+07        -0.49966E+08         0.00000E+00
    0.00000E+00         0.00000E+00        -0.49866E+08
 
   -0.49846E+08         0.11582E+07         0.00000E+00
    0.11582E+07        -0.49965E+08         0.00000E+00
    0.00000E+00         0.00000E+00        -0.49867E+08
 
   -0.49849E+08         0.11776E+07         0.00000E+00
    0.11776E+07        -0.49963E+08         0.00000E+00
    0.00000E+00         0.00000E+00        -0.49867E+08
 
   -0.49852E+08         0.11966E+07         0.00000E+00
    0.11966E+07        -0.49962E+08         0.00000E+00
    0.00000E+00         0.00000E+00        -0.49867E+08
 
   -0.49855E+08         0.12152E+07         0.00000E+00
    0.12152E+07        -0.49960E+08         0.00000E+00
    0.00000E+00         0.00000E+00        -0.49867E+08
 
   -0.49858E+08         0.12334E+07         0.00000E+00
    0.12334E+07        -0.49958E+08         0.00000E+00
    0.00000E+00         0.00000E+00        -0.49867E+08
 
   -0.49862E+08         0.12512E+07         0.00000E+00
    0.12512E+07        -0.49957E+08         0.00000E+00
    0.00000E+00         0.00000E+00        -0.49867E+08
 
   -0.49865E+08         0.12687E+07         0.00000E+00
    0.12687E+07        -0.49955E+08         0.00000E+00
    0.00000E+00         0.00000E+00        -0.49867E+08
 
   -0.49590E+08         0.16117E+05         0.00000E+00
    0.16117E+05        -0.50000E+08         0.00000E+00
    0.00000E+00         0.00000E+00        -0.49775E+08
 
   -0.49592E+08         0.47998E+05         0.00000E+00
    0.47998E+05        -0.50000E+08         0.00000E+00
    0.00000E+00         0.00000E+00        -0.49775E+08
 
   -0.49594E+08         0.79738E+05         0.00000E+00
    0.79738E+05        -0.50000E+08         0.00000E+00
    0.00000E+00         0.00000E+00        -0.49775E+08
 
   -0.49596E+08         0.11133E+06         0.00000E+00
    0.11133E+06        -0.50000E+08         0.00000E+00
    0.00000E+00         0.00000E+00        -0.49775E+08
 
   -0.49598E+08         0.14276E+06         0.00000E+00
    0.14276E+06        -0.49999E+08         0.00000E+00
    0.00000E+00         0.00000E+00        -0.49775E+08
 
   -0.49600E+08         0.17403E+06         0.00000E+00
    0.17403E+06        -0.49999E+08         0.00000E+00
    0.00000E+00         0.00000E+00        -0.49775E+08
 
   -0.49602E+08         0.20512E+06         0.00000E+00
    0.20512E+06        -0.49999E+08         0.00000E+00
    0.00000E+00         0.00000E+00        -0.49775E+08
 
   -0.49605E+08         0.23603E+06         0.00000E+00
    0.23603E+06        -0.49998E+08         0.00000E+00
    0.00000E+00         0.00000E+00        -0.49775E+08
 
   -0.49607E+08         0.26675E+06         0.00000E+00
    0.26675E+06        -0.49998E+08         0.00000E+00
    0.00000E+00         0.00000E+00        -0.49775E+08
 
   -0.49610E+08         0.29726E+06         0.00000E+00
    0.29726E+06        -0.49997E+08         0.00000E+00
    0.00000E+00         0.00000E+00        -0.49775E+08
 
   -0.49612E+08         0.32757E+06         0.00000E+00
    0.32757E+06        -0.49996E+08         0.00000E+00
    0.00000E+00         0.00000E+00        -0.49775E+08
 
   -0.49615E+08         0.35767E+06         0.00000E+00
    0.35767E+06        -0.49996E+08         0.00000E+00
    0.00000E+00         0.00000E+00        -0.49776E+08
 
   -0.49618E+08         0.38754E+06         0.00000E+00
    0.38754E+06        -0.49995E+08         0.00000E+00
    0.00000E+00         0.00000E+00        -0.49776E+08
 
   -0.49621E+08         0.41719E+06         0.00000E+00
    0.41719E+06        -0.49994E+08         0.00000E+00
    0.00000E+00         0.00000E+00        -0.49776E+08
 
   -0.49624E+08         0.44659E+06         0.00000E+00
    0.44659E+06        -0.49993E+08         0.00000E+00
    0.00000E+00         0.00000E+00        -0.49776E+08
 
   -0.49627E+08         0.47575E+06         0.00000E+00
    0.47575E+06        -0.49992E+08         0.00000E+00
    0.00000E+00         0.00000E+00        -0.49776E+08
 
   -0.49630E+08         0.50466E+06         0.00000E+00
    0.50466E+06        -0.49991E+08         0.00000E+00
    0.00000E+00         0.00000E+00        -0.49776E+08
 
   -0.49634E+08         0.53331E+06         0.00000E+00
    0.53331E+06        -0.49990E+08         0.00000E+00
    0.00000E+00         0.00000E+00        -0.49777E+08
 
   -0.49637E+08         0.56170E+06         0.00000E+00
    0.56170E+06        -0.49989E+08         0.00000E+00
    0.00000E+00         0.00000E+00        -0.49777E+08
 
   -0.49641E+08         0.58981E+06         0.00000E+00
    0.58981E+06        -0.49988E+08         0.00000E+00
    0.00000E+00         0.00000E+00        -0.49777E+08
 
   -0.49644E+08         0.61764E+06         0.00000E+00
    0.61764E+06        -0.49986E+08         0.00000E+00
    0.00000E+00         0.00000E+00        -0.49777E+08
 
   -0.49648E+08         0.64519E+06         0.00000E+00
    0.64519E+06        -0.49985E+08         0.00000E+00
    0.00000E+00         0.00000E+00        -0.49777E+08
 
   -0.49652E+08         0.67245E+06         0.00000E+00
    0.67245E+06        -0.49984E+08         0.00000E+00
    0.00000E+00         0.00000E+00        -0.49778E+08
 
   -0.49656E+08         0.69941E+06         0.00000E+00
    0.69941E+06        -0.49982E+08         0.00000E+00
    0.00000E+00         0.00000E+00        -0.49778E+08
 
   -0.49659E+08         0.72607E+06         0.00000E+00
    0.72607E+06        -0.49981E+08         0.00000E+00
    0.00000E+00         0.00000E+00        -0.49778E+08
 
   -0.49664E+08         0.75242E+06         0.00000E+00
    0.75242E+06        -0.49979E+08         0.00000E+00
    0.00000E+00         0.00000E+00        -0.49778E+08
 
   -0.49668E+08         0.77845E+06         0.00000E+00
    0.77845E+06        -0.49978E+08         0.00000E+00
    0.00000E+00         0.00000E+00        -0.49778E+08
 
   -0.49672E+08         0.80416E+06         0.00000E+00
    0.80416E+06        -0.49976E+08         0.00000E+00
    0.00000E+00         0.00000E+00        -0.49779E+08
 
   -0.49676E+08         0.82955E+06         0.00000E+00
    0.82955E+06        -0.49974E+08         0.00000E+00
    0.00000E+00         0.00000E+00        -0.49779E+08
 
   -0.49680E+08         0.85461E+06         0.00000E+00
    0.85461E+06        -0.49972E+08         0.00000E+00
    0.00000E+00         0.00000E+00        -0.49779E+08
 
   -0.49685E+08         0.87933E+06         0.00000E+00
    0.87933E+06        -0.49971E+08         0.00000E+00
    0.00000E+00         0.00000E+00        -0.49779E+08
 
   -0.49689E+08         0.90371E+06         0.00000E+00
    0.90371E+06        -0.49969E+08         0.00000E+00
    0.00000E+00         0.00000E+00        -0.49779E+08
 
   -0.49694E+08         0.92774E+06         0.00000E+00
    0.92774E+06        -0.49967E+08         0.00000E+00
    0.00000E+00         0.00000E+00        -0.49779E+08
 
   -0.49698E+08         0.95143E+06         0.00000E+00
    0.95143E+06        -0.49965E+08         0.00000E+00
    0.00000E+00         0.00000E+00        -0.49780E+08
 
   -0.49703E+08         0.97476E+06         0.00000E+00
    0.97476E+06        -0.49963E+08         0.00000E+00
    0.00000E+00         0.00000E+00        -0.49780E+08
 
   -0.49708E+08         0.99773E+06         0.00000E+00
    0.99773E+06        -0.49961E+08         0.00000E+00
    0.00000E+00         0.00000E+00        -0.49780E+08
 
   -0.49712E+08         0.10203E+07         0.00000E+00
    0.10203E+07        -0.49959E+08         0.00000E+00
    0.00000E+00         0.00000E+00        -0.49780E+08
 
   -0.49717E+08         0.10426E+07         0.00000E+00
    0.10426E+07        -0.49957E+08         0.00000E+00
    0.00000E+00         0.00000E+00        -0.49780E+08
 
   -0.49722E+08         0.10644E+07         0.00000E+00
    0.10644E+07        -0.49954E+08         0.00000E+00
    0.00000E+00         0.00000E+00        -0.49780E+08
 
   -0.49727E+08         0.10859E+07         0.00000E+00
    0.10859E+07        -0.49952E+08         0.00000E+00
    0.00000E+00         0.00000E+00        -0.49781E+08
 
   -0.49732E+08         0.11071E+07         0.00000E+00
    0.11071E+07        -0.49950E+08         0.00000E+00
    0.00000E+00         0.00000E+00        -0.49781E+08
 
   -0.49737E+08         0.11278E+07         0.00000E+00
    0.11278E+07        -0.49947E+08         0.00000E+00
    0.00000E+00         0.00000E+00        -0.49781E+08
 
   -0.49742E+08         0.11481E+07         0.00000E+00
    0.11481E+07        -0.49945E+08         0.00000E+00
    0.00000E+00         0.00000E+00        -0.49781E+08
 
   -0.49747E+08         0.11681E+07         0.00000E+00
    0.11681E+07        -0.49943E+08         0.00000E+00
    0.00000E+00         0.00000E+00        -0.49781E+08
 
   -0.49752E+08         0.11877E+07         0.00000E+00
    0.11877E+07        -0.49940E+08         0.00000E+00
    0.00000E+00         0.00000E+00        -0.49781E+08
 
   -0.49758E+08         0.12068E+07         0.00000E+00
    0.12068E+07        -0.49938E+08         0.00000E+00
    0.00000E+00         0.00000E+00        -0.49781E+08
 
   -0.49763E+08         0.12256E+07         0.00000E+00
    0.12256E+07        -0.49935E+08         0.00000E+00
    0.00000E+00         0.00000E+00        -0.49781E+08
 
   -0.49768E+08         0.12440E+07         0.00000E+00
    0.12440E+07        -0.49933E+08         0.00000E+00
    0.00000E+00         0.00000E+00        -0.49781E+08
 
   -0.49773E+08         0.12619E+07         0.00000E+00
    0.12619E+07        -0.49930E+08         0.00000E+00
    0.00000E+00         0.00000E+00        -0.49781E+08
 
   -0.49779E+08         0.12795E+07         0.00000E+00
    0.12795E+07        -0.49927E+08         0.00000E+00
    0.00000E+00         0.00000E+00        -0.49781E+08
 
   -0.49429E+08         0.16321E+05         0.00000E+00
    0.16321E+05        -0.50000E+08         0.00000E+00
    0.00000E+00         0.00000E+00        -0.49686E+08
 
   -0.49432E+08         0.48605E+05         0.00000E+00
    0.48605E+05        -0.50000E+08         0.00000E+00
    0.00000E+00         0.00000E+00        -0.49686E+08
 
   -0.49434E+08         0.80746E+05         0.00000E+00
    0.80746E+05        -0.50000E+08         0.00000E+00
    0.00000E+00         0.00000E+00        -0.49686E+08
 
   -0.49437E+08         0.11274E+06         0.00000E+00
    0.11274E+06        -0.49999E+08         0.00000E+00
    0.00000E+00         0.00000E+00        -0.49686E+08
 
   -0.49440E+08         0.14456E+06         0.00000E+00
    0.14456E+06        -0.49999E+08         0.00000E+00
    0.00000E+00         0.00000E+00        -0.49686E+08
 
   -0.49443E+08         0.17623E+06         0.00000E+00
    0.17623E+06        -0.49999E+08         0.00000E+00
    0.00000E+00         0.00000E+00        -0.49686E+08
 
   -0.49446E+08         0.20771E+06         0.00000E+00
    0.20771E+06        -0.49998E+08         0.00000E+00
    0.00000E+00         0.00000E+00        -0.49686E+08
 
   -0.49450E+08         0.23901E+06         0.00000E+00
    0.23901E+06        -0.49997E+08         0.00000E+00
    0.00000E+00         0.00000E+00        -0.49687E+08
 
   -0.49453E+08         0.27011E+06         0.00000E+00
    0.27011E+06        -0.49997E+08         0.00000E+00
    0.00000E+00         0.00000E+00        -0.49687E+08
 
   -0.49457E+08         0.30101E+06         0.00000E+00
    0.30101E+06        -0.49996E+08         0.00000E+00
    0.00000E+00         0.00000E+00        -0.49687E+08
 
   -0.49460E+08         0.33170E+06         0.00000E+00
    0.33170E+06        -0.49995E+08         0.00000E+00
    0.00000E+00         0.00000E+00        -0.49687E+08
 
   -0.49464E+08         0.36217E+06         0.00000E+00
    0.36217E+06        -0.49994E+08         0.00000E+00
    0.00000E+00         0.00000E+00        -0.49687E+08
 
   -0.49468E+08         0.39242E+06         0.00000E+00
    0.39242E+06        -0.49993E+08         0.00000E+00
    0.00000E+00         0.00000E+00        -0.49687E+08
 
   -0.49472E+08         0.42243E+06         0.00000E+00
    0.42243E+06        -0.49992E+08         0.00000E+00
    0.00000E+00         0.00000E+00        -0.49688E+08
 
   -0.49477E+08         0.45221E+06         0.00000E+00
    0.45221E+06        -0.49990E+08         0.00000E+00
    0.00000E+00         0.00000E+00        -0.49688E+08
 
   -0.49481E+08         0.48173E+06         0.00000E+00
    0.48173E+06        -0.49989E+08         0.00000E+00
    0.00000E+00         0.00000E+00        -0.49688E+08
 
   -0.49486E+08         0.51100E+06         0.00000E+00
    0.51100E+06        -0.49988E+08         0.00000E+00
    0.00000E+00         0.00000E+00        -0.49688E+08
 
   -0.49490E+08         0.54001E+06         0.00000E+00
    0.54001E+06        -0.49986E+08         0.00000E+00
    0.00000E+00         0.00000E+00        -0.49689E+08
 
   -0.49495E+08         0.56875E+06         0.00000E+00
    0.56875E+06        -0.49984E+08         0.00000E+00
    0.00000E+00         0.00000E+00        -0.49689E+08
 
   -0.49500E+08         0.59721E+06         0.00000E+00
    0.59721E+06        -0.49983E+08         0.00000E+00
    0.00000E+00         0.00000E+00        -0.49689E+08
 
   -0.49505E+08         0.62539E+06         0.00000E+00
    0.62539E+06        -0.49981E+08         0.00000E+00
    0.00000E+00         0.00000E+00        -0.49689E+08
 
   -0.49510E+08         0.65328E+06         0.00000E+00
    0.65328E+06        -0.49979E+08         0.00000E+00
    0.00000E+00         0.00000E+00        -0.49690E+08
 
   -0.49515E+08         0.68088E+06         0.00000E+00
    0.68088E+06        -0.49977E+08         0.00000E+00
    0.00000E+00         0.00000E+00        -0.49690E+08
 
   -0.49521E+08         0.70817E+06         0.00000E+00
    0.70817E+06        -0.49975E+08         0.00000E+00
    0.00000E+00         0.00000E+00        -0.49690E+08
 
   -0.49526E+08         0.73516E+06         0.00000E+00
    0.73516E+06        -0.49973E+08         0.00000E+00
    0.00000E+00         0.00000E+00        -0.49690E+08
 
   -0.49532E+08         0.76183E+06         0.00000E+00
    0.76183E+06        -0.49971E+08         0.00000E+00
    0.00000E+00         0.00000E+00        -0.49691E+08
 
   -0.49537E+08         0.78819E+06         0.00000E+00
    0.78819E+06        -0.49969E+08         0.00000E+00
    0.00000E+00         0.00000E+00        -0.49691E+08
 
   -0.49543E+08         0.81422E+06         0.00000E+00
    0.81422E+06        -0.49966E+08         0.00000E+00
    0.00000E+00         0.00000E+00        -0.49691E+08
 
   -0.49549E+08         0.83992E+06         0.00000E+00
    0.83992E+06        -0.49964E+08         0.00000E+00
    0.00000E+00         0.00000E+00        -0.49691E+08
 
   -0.49555E+08         0.86529E+06         0.00000E+00
    0.86529E+06        -0.49962E+08         0.00000E+00
    0.00000E+00         0.00000E+00        -0.49692E+08
 
   -0.49561E+08         0.89031E+06         0.00000E+00
    0.89031E+06        -0.49959E+08         0.00000E+00
    0.00000E+00         0.00000E+00        -0.49692E+08
 
   -0.49567E+08         0.91500E+06         0.00000E+00
    0.91500E+06        -0.49957E+08         0.00000E+00
    0.00000E+00         0.00000E+00        -0.49692E+08
 
   -0.49574E+08         0.93933E+06         0.00000E+00
    0.93933E+06        -0.49954E+08         0.00000E+00
    0.00000E+00         0.00000E+00        -0.49693E+08
 
   -0.49580E+08         0.96330E+06         0.00000E+00
    0.96330E+06        -0.49951E+08         0.00000E+00
    0.00000E+00         0.00000E+00        -0.49693E+08
 
   -0.49586E+08         0.98692E+06         0.00000E+00
    0.98692E+06        -0.49948E+08         0.00000E+00
    0.00000E+00         0.00000E+00        -0.49693E+08
 
   -0.49593E+08         0.10102E+07         0.00000E+00
    0.10102E+07        -0.49945E+08         0.00000E+00
    0.00000E+00         0.00000E+00        -0.49693E+08
 
   -0.49600E+08         0.10331E+07         0.00000E+00
    0.10331E+07        -0.49943E+08         0.00000E+00
    0.00000E+00         0.00000E+00        -0.49693E+08
 
   -0.49606E+08         0.10556E+07         0.00000E+00
    0.10556E+07        -0.49940E+08         0.00000E+00
    0.00000E+00         0.00000E+00        -0.49694E+08
 
   -0.49613E+08         0.10777E+07         0.00000E+00
    0.10777E+07        -0.49937E+08         0.00000E+00
    0.00000E+00         0.00000E+00        -0.49694E+08
 
   -0.49620E+08         0.10995E+07         0.00000E+00
    0.10995E+07        -0.49933E+08         0.00000E+00
    0.00000E+00         0.00000E+00        -0.49694E+08
 
   -0.49627E+08         0.11209E+07         0.00000E+00
    0.11209E+07        -0.49930E+08         0.00000E+00
    0.00000E+00         0.00000E+00        -0.49694E+08
 
   -0.49634E+08         0.11418E+07         0.00000E+00
    0.11418E+07        -0.49927E+08         0.00000E+00
    0.00000E+00         0.00000E+00        -0.49694E+08
 
   -0.49641E+08         0.11624E+07         0.00000E+00
    0.11624E+07        -0.49924E+08         0.00000E+00
    0.00000E+00         0.00000E+00        -0.49695E+08
 
   -0.49648E+08         0.11826E+07         0.00000E+00
    0.11826E+07        -0.49920E+08         0.00000E+00
    0.00000E+00         0.00000E+00        -0.49695E+08
 
   -0.49655E+08         0.12025E+07         0.00000E+00
    0.12025E+07        -0.49917E+08         0.00000E+00
    0.00000E+00         0.00000E+00        -0.49695E+08
 
   -0.49662E+08         0.12219E+07         0.00000E+00
    0.12219E+07        -0.49914E+08         0.00000E+00
    0.00000E+00         0.00000E+00        -0.49695E+08
 
   -0.49669E+08         0.12409E+07         0.00000E+00
    0.12409E+07        -0.49910E+08         0.00000E+00
    0.00000E+00         0.00000E+00        -0.49695E+08
 
   -0.49677E+08         0.12595E+07         0.00000E+00
    0.12595E+07        -0.49906E+08         0.00000E+00
    0.00000E+00         0.00000E+00        -0.49695E+08
 
   -0.49684E+08         0.12776E+07         0.00000E+00
    0.12776E+07        -0.49903E+08         0.00000E+00
    0.00000E+00         0.00000E+00        -0.49695E+08
 
   -0.49691E+08         0.12954E+07         0.00000E+00
    0.12954E+07        -0.49899E+08         0.00000E+00
    0.00000E+00         0.00000E+00        -0.49695E+08
 
   -0.49266E+08         0.16595E+05         0.00000E+00
    0.16595E+05        -0.50000E+08         0.00000E+00
    0.00000E+00         0.00000E+00        -0.49596E+08
 
   -0.49270E+08         0.49417E+05         0.00000E+00
    0.49417E+05        -0.50000E+08         0.00000E+00
    0.00000E+00         0.00000E+00        -0.49596E+08
 
   -0.49273E+08         0.82093E+05         0.00000E+00
    0.82093E+05        -0.50000E+08         0.00000E+00
    0.00000E+00         0.00000E+00        -0.49596E+08
 
   -0.49276E+08         0.11462E+06         0.00000E+00
    0.11462E+06        -0.49999E+08         0.00000E+00
    0.00000E+00         0.00000E+00        -0.49596E+08
 
   -0.49280E+08         0.14697E+06         0.00000E+00
    0.14697E+06        -0.49999E+08         0.00000E+00
    0.00000E+00         0.00000E+00        -0.49596E+08
 
   -0.49284E+08         0.17916E+06         0.00000E+00
    0.17916E+06        -0.49998E+08         0.00000E+00
    0.00000E+00         0.00000E+00        -0.49596E+08
 
   -0.49288E+08         0.21116E+06         0.00000E+00
    0.21116E+06        -0.49997E+08         0.00000E+00
    0.00000E+00         0.00000E+00        -0.49597E+08
 
   -0.49292E+08         0.24298E+06         0.00000E+00
    0.24298E+06        -0.49997E+08         0.00000E+00
    0.00000E+00         0.00000E+00        -0.49597E+08
 
   -0.49297E+08         0.27460E+06         0.00000E+00
    0.27460E+06        -0.49996E+08         0.00000E+00
    0.00000E+00         0.00000E+00        -0.49597E+08
 
   -0.49301E+08         0.30601E+06         0.00000E+00
    0.30601E+06        -0.49995E+08         0.00000E+00
    0.00000E+00         0.00000E+00        -0.49597E+08
 
   -0.49306E+08         0.33720E+06         0.00000E+00
    0.33720E+06        -0.49993E+08         0.00000E+00
    0.00000E+00         0.00000E+00        -0.49597E+08
 
   -0.49311E+08         0.36818E+06         0.00000E+00
    0.36818E+06        -0.49992E+08         0.00000E+00
    0.00000E+00         0.00000E+00        -0.49598E+08
 
   -0.49316E+08         0.39892E+06         0.00000E+00
    0.39892E+06        -0.49991E+08         0.00000E+00
    0.00000E+00         0.00000E+00        -0.49598E+08
 
   -0.49322E+08         0.42942E+06         0.00000E+00
    0.42942E+06        -0.49989E+08         0.00000E+00
    0.00000E+00         0.00000E+00        -0.49598E+08
 
   -0.49327E+08         0.45968E+06         0.00000E+00
    0.45968E+06        -0.49988E+08         0.00000E+00
    0.00000E+00         0.00000E+00        -0.49598E+08
 
   -0.49333E+08         0.48969E+06         0.00000E+00
    0.48969E+06        -0.49986E+08         0.00000E+00
    0.00000E+00         0.00000E+00        -0.49599E+08
 
   -0.49339E+08         0.51944E+06         0.00000E+00
    0.51944E+06        -0.49984E+08         0.00000E+00
    0.00000E+00         0.00000E+00        -0.49599E+08
 
   -0.49345E+08         0.54892E+06         0.00000E+00
    0.54892E+06        -0.49982E+08         0.00000E+00
    0.00000E+00         0.00000E+00        -0.49599E+08
 
   -0.49351E+08         0.57812E+06         0.00000E+00
    0.57812E+06        -0.49980E+08         0.00000E+00
    0.00000E+00         0.00000E+00        -0.49600E+08
 
   -0.49357E+08         0.60705E+06         0.00000E+00
    0.60705E+06        -0.49978E+08         0.00000E+00
    0.00000E+00         0.00000E+00        -0.49600E+08
 
   -0.49364E+08         0.63568E+06         0.00000E+00
    0.63568E+06        -0.49976E+08         0.00000E+00
    0.00000E+00         0.00000E+00        -0.49600E+08
 
   -0.49370E+08         0.66403E+06         0.00000E+00
    0.66403E+06        -0.49973E+08         0.00000E+00
    0.00000E+00         0.00000E+00        -0.49601E+08
 
   -0.49377E+08         0.69207E+06         0.00000E+00
    0.69207E+06        -0.49971E+08         0.00000E+00
    0.00000E+00         0.00000E+00        -0.49601E+08
 
   -0.49384E+08         0.71980E+06         0.00000E+00
    0.71980E+06        -0.49968E+08         0.00000E+00
    0.00000E+00         0.00000E+00        -0.49601E+08
 
   -0.49391E+08         0.74723E+06         0.00000E+00
    0.74723E+06        -0.49965E+08         0.00000E+00
    0.00000E+00         0.00000E+00        -0.49602E+08
 
   -0.49398E+08         0.77433E+06         0.00000E+00
    0.77433E+06        -0.49963E+08         0.00000E+00
    0.00000E+00         0.00000E+00        -0.49602E+08
 
   -0.49405E+08         0.80111E+06         0.00000E+00
    0.80111E+06        -0.49960E+08         0.00000E+00
    0.00000E+00         0.00000E+00        -0.49602E+08
 
   -0.49413E+08         0.82756E+06         0.00000E+00
    0.82756E+06        -0.49957E+08         0.00000E+00
    0.00000E+00         0.00000E+00        -0.49603E+08
 
   -0.49420E+08         0.85368E+06         0.00000E+00
    0.85368E+06        -0.49954E+08         0.00000E+00
    0.00000E+00         0.00000E+00        -0.49603E+08
 
   -0.49428E+08         0.87945E+06         0.00000E+00
    0.87945E+06        -0.49951E+08         0.00000E+00
    0.00000E+00         0.00000E+00        -0.49603E+08
 
   -0.49436E+08         0.90488E+06         0.00000E+00
    0.90488E+06        -0.49947E+08         0.00000E+00
    0.00000E+00         0.00000E+00        -0.49604E+08
 
   -0.49444E+08         0.92996E+06         0.00000E+00
    0.92996E+06        -0.49944E+08         0.00000E+00
    0.00000E+00         0.00000E+00        -0.49604E+08
 
   -0.49452E+08         0.95468E+06         0.00000E+00
    0.95468E+06        -0.49941E+08         0.00000E+00
    0.00000E+00         0.00000E+00        -0.49604E+08
 
   -0.49460E+08         0.97904E+06         0.00000E+00
    0.97904E+06        -0.49937E+08         0.00000E+00
    0.00000E+00         0.00000E+00        -0.49605E+08
 
   -0.49468E+08         0.10030E+07         0.00000E+00
    0.10030E+07        -0.49934E+08         0.00000E+00
    0.00000E+00         0.00000E+00        -0.49605E+08
 
   -0.49477E+08         0.10267E+07         0.00000E+00
    0.10267E+07        -0.49930E+08         0.00000E+00
    0.00000E+00         0.00000E+00        -0.49605E+08
 
   -0.49485E+08         0.10499E+07         0.00000E+00
    0.10499E+07        -0.49926E+08         0.00000E+00
    0.00000E+00         0.00000E+00        -0.49606E+08
 
   -0.49494E+08         0.10728E+07         0.00000E+00
    0.10728E+07        -0.49922E+08         0.00000E+00
    0.00000E+00         0.00000E+00        -0.49606E+08
 
   -0.49502E+08         0.10953E+07         0.00000E+00
    0.10953E+07        -0.49919E+08         0.00000E+00
    0.00000E+00         0.00000E+00        -0.49606E+08
 
   -0.49511E+08         0.11174E+07         0.00000E+00
    0.11174E+07        -0.49915E+08         0.00000E+00
    0.00000E+00         0.00000E+00        -0.49606E+08
 
   -0.49520E+08         0.11391E+07         0.00000E+00
    0.11391E+07        -0.49910E+08         0.00000E+00
    0.00000E+00         0.00000E+00        -0.49607E+08
 
   -0.49529E+08         0.11604E+07         0.00000E+00
    0.11604E+07        -0.49906E+08         0.00000E+00
    0.00000E+00         0.00000E+00        -0.49607E+08
 
   -0.49538E+08         0.11814E+07         0.00000E+00
    0.11814E+07        -0.49902E+08         0.00000E+00
    0.00000E+00         0.00000E+00        -0.49607E+08
 
   -0.49547E+08         0.12019E+07         0.00000E+00
    0.12019E+07        -0.49898E+08         0.00000E+00
    0.00000E+00         0.00000E+00        -0.49607E+08
 
   -0.49556E+08         0.12220E+07         0.00000E+00
    0.12220E+07        -0.49893E+08         0.00000E+00
    0.00000E+00         0.00000E+00        -0.49607E+08
 
   -0.49565E+08         0.12417E+07         0.00000E+00
    0.12417E+07        -0.49889E+08         0.00000E+00
    0.00000E+00         0.00000E+00        -0.49607E+08
 
   -0.49575E+08         0.12611E+07         0.00000E+00
    0.12611E+07        -0.49885E+08         0.00000E+00
    0.00000E+00         0.00000E+00        -0.49607E+08
 
   -0.49584E+08         0.12800E+07         0.00000E+00
    0.12800E+07        -0.49880E+08         0.00000E+00
    0.00000E+00         0.00000E+00        -0.49608E+08
 
   -0.49593E+08         0.12984E+07         0.00000E+00
    0.12984E+07        -0.49875E+08         0.00000E+00
    0.00000E+00         0.00000E+00        -0.49608E+08
 
   -0.49603E+08         0.13165E+07         0.00000E+00
    0.13165E+07        -0.49871E+08         0.00000E+00
    0.00000E+00         0.00000E+00        -0.49608E+08
 
   -0.49100E+08         0.16938E+05         0.00000E+00
    0.16938E+05        -0.50000E+08         0.00000E+00
    0.00000E+00         0.00000E+00        -0.49504E+08
 
   -0.49104E+08         0.50438E+05         0.00000E+00
    0.50438E+05        -0.50000E+08         0.00000E+00
    0.00000E+00         0.00000E+00        -0.49504E+08
 
   -0.49108E+08         0.83787E+05         0.00000E+00
    0.83787E+05        -0.50000E+08         0.00000E+00
    0.00000E+00         0.00000E+00        -0.49505E+08
 
   -0.49112E+08         0.11698E+06         0.00000E+00
    0.11698E+06        -0.49999E+08         0.00000E+00
    0.00000E+00         0.00000E+00        -0.49505E+08
 
   -0.49117E+08         0.15000E+06         0.00000E+00
    0.15000E+06        -0.49998E+08         0.00000E+00
    0.00000E+00         0.00000E+00        -0.49505E+08
 
   -0.49122E+08         0.18284E+06         0.00000E+00
    0.18284E+06        -0.49998E+08         0.00000E+00
    0.00000E+00         0.00000E+00        -0.49505E+08
 
   -0.49127E+08         0.21550E+06         0.00000E+00
    0.21550E+06        -0.49997E+08         0.00000E+00
    0.00000E+00         0.00000E+00        -0.49505E+08
 
   -0.49132E+08         0.24797E+06         0.00000E+00
    0.24797E+06        -0.49996E+08         0.00000E+00
    0.00000E+00         0.00000E+00        -0.49505E+08
 
   -0.49138E+08         0.28023E+06         0.00000E+00
    0.28023E+06        -0.49995E+08         0.00000E+00
    0.00000E+00         0.00000E+00        -0.49505E+08
 
   -0.49143E+08         0.31228E+06         0.00000E+00
    0.31228E+06        -0.49993E+08         0.00000E+00
    0.00000E+00         0.00000E+00        -0.49506E+08
 
   -0.49149E+08         0.34410E+06         0.00000E+00
    0.34410E+06        -0.49992E+08         0.00000E+00
    0.00000E+00         0.00000E+00        -0.49506E+08
 
   -0.49155E+08         0.37570E+06         0.00000E+00
    0.37570E+06        -0.49990E+08         0.00000E+00
    0.00000E+00         0.00000E+00        -0.49506E+08
 
   -0.49162E+08         0.40707E+06         0.00000E+00
    0.40707E+06        -0.49989E+08         0.00000E+00
    0.00000E+00         0.00000E+00        -0.49507E+08
 
   -0.49168E+08         0.43819E+06         0.00000E+00
    0.43819E+06        -0.49987E+08         0.00000E+00
    0.00000E+00         0.00000E+00        -0.49507E+08
 
   -0.49175E+08         0.46906E+06         0.00000E+00
    0.46906E+06        -0.49985E+08         0.00000E+00
    0.00000E+00         0.00000E+00        -0.49507E+08
 
   -0.49182E+08         0.49967E+06         0.00000E+00
    0.49967E+06        -0.49983E+08         0.00000E+00
    0.00000E+00         0.00000E+00        -0.49508E+08
 
   -0.49189E+08         0.53001E+06         0.00000E+00
    0.53001E+06        -0.49980E+08         0.00000E+00
    0.00000E+00         0.00000E+00        -0.49508E+08
 
   -0.49197E+08         0.56008E+06         0.00000E+00
    0.56008E+06        -0.49978E+08         0.00000E+00
    0.00000E+00         0.00000E+00        -0.49508E+08
 
   -0.49204E+08         0.58987E+06         0.00000E+00
    0.58987E+06        -0.49975E+08         0.00000E+00
    0.00000E+00         0.00000E+00        -0.49509E+08
 
   -0.49212E+08         0.61937E+06         0.00000E+00
    0.61937E+06        -0.49973E+08         0.00000E+00
    0.00000E+00         0.00000E+00        -0.49509E+08
 
   -0.49220E+08         0.64857E+06         0.00000E+00
    0.64857E+06        -0.49970E+08         0.00000E+00
    0.00000E+00         0.00000E+00        -0.49509E+08
 
   -0.49228E+08         0.67748E+06         0.00000E+00
    0.67748E+06        -0.49967E+08         0.00000E+00
    0.00000E+00         0.00000E+00        -0.49510E+08
 
   -0.49236E+08         0.70607E+06         0.00000E+00
    0.70607E+06        -0.49964E+08         0.00000E+00
    0.00000E+00         0.00000E+00        -0.49510E+08
 
   -0.49245E+08         0.73436E+06         0.00000E+00
    0.73436E+06        -0.49961E+08         0.00000E+00
    0.00000E+00         0.00000E+00        -0.49511E+08
 
   -0.49253E+08         0.76232E+06         0.00000E+00
    0.76232E+06        -0.49958E+08         0.00000E+00
    0.00000E+00         0.00000E+00        -0.49511E+08
 
   -0.49262E+08         0.78996E+06         0.00000E+00
    0.78996E+06        -0.49954E+08         0.00000E+00
    0.00000E+00         0.00000E+00        -0.49512E+08
 
   -0.49271E+08         0.81727E+06         0.00000E+00
    0.81727E+06        -0.49951E+08         0.00000E+00
    0.00000E+00         0.00000E+00        -0.49512E+08
 
   -0.49280E+08         0.84424E+06         0.00000E+00
    0.84424E+06        -0.49947E+08         0.00000E+00
    0.00000E+00         0.00000E+00        -0.49512E+08
 
   -0.49289E+08         0.87087E+06         0.00000E+00
    0.87087E+06        -0.49943E+08         0.00000E+00
    0.00000E+00         0.00000E+00        -0.49513E+08
 
   -0.49299E+08         0.89715E+06         0.00000E+00
    0.89715E+06        -0.49940E+08         0.00000E+00
    0.00000E+00         0.00000E+00        -0.49513E+08
 
   -0.49308E+08         0.92308E+06         0.00000E+00
    0.92308E+06        -0.49936E+08         0.00000E+00
    0.00000E+00         0.00000E+00        -0.49514E+08
 
   -0.49318E+08         0.94865E+06         0.00000E+00
    0.94865E+06        -0.49932E+08         0.00000E+00
    0.00000E+00         0.00000E+00        -0.49514E+08
 
   -0.49328E+08         0.97385E+06         0.00000E+00
    0.97385E+06        -0.49927E+08         0.00000E+00
    0.00000E+00         0.00000E+00        -0.49514E+08
 
   -0.49338E+08         0.99869E+06         0.00000E+00
    0.99869E+06        -0.49923E+08         0.00000E+00
    0.00000E+00         0.00000E+00        -0.49515E+08
 
   -0.49348E+08         0.10232E+07         0.00000E+00
    0.10232E+07        -0.49919E+08         0.00000E+00
    0.00000E+00         0.00000E+00        -0.49515E+08
 
   -0.49358E+08         0.10473E+07         0.00000E+00
    0.10473E+07        -0.49914E+08         0.00000E+00
    0.00000E+00         0.00000E+00        -0.49516E+08
 
   -0.49369E+08         0.10710E+07         0.00000E+00
    0.10710E+07        -0.49910E+08         0.00000E+00
    0.00000E+00         0.00000E+00        -0.49516E+08
 
   -0.49379E+08         0.10943E+07         0.00000E+00
    0.10943E+07        -0.49905E+08         0.00000E+00
    0.00000E+00         0.00000E+00        -0.49516E+08
 
   -0.49390E+08         0.11172E+07         0.00000E+00
    0.11172E+07        -0.49900E+08         0.00000E+00
    0.00000E+00         0.00000E+00        -0.49517E+08
 
   -0.49400E+08         0.11398E+07         0.00000E+00
    0.11398E+07        -0.49895E+08         0.00000E+00
    0.00000E+00         0.00000E+00        -0.49517E+08
 
   -0.49411E+08         0.11619E+07         0.00000E+00
    0.11619E+07        -0.49890E+08         0.00000E+00
    0.00000E+00         0.00000E+00        -0.49517E+08
 
   -0.49422E+08         0.11837E+07         0.00000E+00
    0.11837E+07        -0.49885E+08         0.00000E+00
    0.00000E+00         0.00000E+00        -0.49517E+08
 
   -0.49433E+08         0.12050E+07         0.00000E+00
    0.12050E+07        -0.49880E+08         0.00000E+00
    0.00000E+00         0.00000E+00        -0.49518E+08
 
   -0.49444E+08         0.12259E+07         0.00000E+00
    0.12259E+07        -0.49875E+08         0.00000E+00
    0.00000E+00         0.00000E+00        -0.49518E+08
 
   -0.49455E+08         0.12465E+07         0.00000E+00
    0.12465E+07        -0.49870E+08         0.00000E+00
    0.00000E+00         0.00000E+00        -0.49518E+08
 
   -0.49467E+08         0.12666E+07         0.00000E+00
    0.12666E+07        -0.49864E+08         0.00000E+00
    0.00000E+00         0.00000E+00        -0.49518E+08
 
   -0.49478E+08         0.12863E+07         0.00000E+00
    0.12863E+07        -0.49859E+08         0.00000E+00
    0.00000E+00         0.00000E+00        -0.49518E+08
 
   -0.49490E+08         0.13055E+07         0.00000E+00
    0.13055E+07        -0.49853E+08         0.00000E+00
    0.00000E+00         0.00000E+00        -0.49518E+08
 
   -0.49501E+08         0.13244E+07         0.00000E+00
    0.13244E+07        -0.49847E+08         0.00000E+00
    0.00000E+00         0.00000E+00        -0.49518E+08
 
   -0.49513E+08         0.13428E+07         0.00000E+00
    0.13428E+07        -0.49842E+08         0.00000E+00
    0.00000E+00         0.00000E+00        -0.49518E+08
 
   -0.48930E+08         0.17355E+05         0.00000E+00
    0.17355E+05        -0.50000E+08         0.00000E+00
    0.00000E+00         0.00000E+00        -0.49411E+08
 
   -0.48935E+08         0.51672E+05         0.00000E+00
    0.51672E+05        -0.50000E+08         0.00000E+00
    0.00000E+00         0.00000E+00        -0.49411E+08
 
   -0.48940E+08         0.85835E+05         0.00000E+00
    0.85835E+05        -0.49999E+08         0.00000E+00
    0.00000E+00         0.00000E+00        -0.49411E+08
 
   -0.48945E+08         0.11983E+06         0.00000E+00
    0.11983E+06        -0.49999E+08         0.00000E+00
    0.00000E+00         0.00000E+00        -0.49411E+08
 
   -0.48950E+08         0.15366E+06         0.00000E+00
    0.15366E+06        -0.49998E+08         0.00000E+00
    0.00000E+00         0.00000E+00        -0.49411E+08
 
   -0.48956E+08         0.18730E+06         0.00000E+00
    0.18730E+06        -0.49997E+08         0.00000E+00
    0.00000E+00         0.00000E+00        -0.49411E+08
 
   -0.48962E+08         0.22075E+06         0.00000E+00
    0.22075E+06        -0.49996E+08         0.00000E+00
    0.00000E+00         0.00000E+00        -0.49411E+08
 
   -0.48968E+08         0.25399E+06         0.00000E+00
    0.25399E+06        -0.49995E+08         0.00000E+00
    0.00000E+00         0.00000E+00        -0.49412E+08
 
   -0.48975E+08         0.28703E+06         0.00000E+00
    0.28703E+06        -0.49994E+08         0.00000E+00
    0.00000E+00         0.00000E+00        -0.49412E+08
 
   -0.48982E+08         0.31985E+06         0.00000E+00
    0.31985E+06        -0.49992E+08         0.00000E+00
    0.00000E+00         0.00000E+00        -0.49412E+08
 
   -0.48989E+08         0.35244E+06         0.00000E+00
    0.35244E+06        -0.49990E+08         0.00000E+00
    0.00000E+00         0.00000E+00        -0.49413E+08
 
   -0.48996E+08         0.38479E+06         0.00000E+00
    0.38479E+06        -0.49988E+08         0.00000E+00
    0.00000E+00         0.00000E+00        -0.49413E+08
 
   -0.49004E+08         0.41690E+06         0.00000E+00
    0.41690E+06        -0.49986E+08         0.00000E+00
    0.00000E+00         0.00000E+00        -0.49413E+08
 
   -0.49011E+08         0.44876E+06         0.00000E+00
    0.44876E+06        -0.49984E+08         0.00000E+00
    0.00000E+00         0.00000E+00        -0.49414E+08
 
   -0.49020E+08         0.48036E+06         0.00000E+00
    0.48036E+06        -0.49982E+08         0.00000E+00
    0.00000E+00         0.00000E+00        -0.49414E+08
 
   -0.49028E+08         0.51169E+06         0.00000E+00
    0.51169E+06        -0.49979E+08         0.00000E+00
    0.00000E+00         0.00000E+00        -0.49414E+08
 
   -0.49036E+08         0.54275E+06         0.00000E+00
    0.54275E+06        -0.49977E+08         0.00000E+00
    0.00000E+00         0.00000E+00        -0.49415E+08
 
   -0.49045E+08         0.57353E+06         0.00000E+00
    0.57353E+06        -0.49974E+08         0.00000E+00
    0.00000E+00         0.00000E+00        -0.49415E+08
 
   -0.49054E+08         0.60402E+06         0.00000E+00
    0.60402E+06        -0.49971E+08         0.00000E+00
    0.00000E+00         0.00000E+00        -0.49416E+08
 
   -0.49063E+08         0.63421E+06         0.00000E+00
    0.63421E+06        -0.49968E+08         0.00000E+00
    0.00000E+00         0.00000E+00        -0.49416E+08
 
   -0.49073E+08         0.66410E+06         0.00000E+00
    0.66410E+06        -0.49964E+08         0.00000E+00
    0.00000E+00         0.00000E+00        -0.49417E+08
 
   -0.49083E+08         0.69368E+06         0.00000E+00
    0.69368E+06        -0.49961E+08         0.00000E+00
    0.00000E+00         0.00000E+00        -0.49417E+08
 
   -0.49092E+08         0.72294E+06         0.00000E+00
    0.72294E+06        -0.49957E+08         0.00000E+00
    0.00000E+00         0.00000E+00        -0.49418E+08
 
   -0.49102E+08         0.75189E+06         0.00000E+00
    0.75189E+06        -0.49953E+08         0.00000E+00
    0.00000E+00         0.00000E+00        -0.49418E+08
 
   -0.49113E+08         0.78050E+06         0.00000E+00
    0.78050E+06        -0.49950E+08         0.00000E+00
    0.00000E+00         0.00000E+00        -0.49419E+08
 
   -0.49123E+08         0.80878E+06         0.00000E+00
    0.80878E+06        -0.49946E+08         0.00000E+00
    0.00000E+00         0.00000E+00        -0.49419E+08
 
   -0.49134E+08         0.83672E+06         0.00000E+00
    0.83672E+06        -0.49941E+08         0.00000E+00
    0.00000E+00         0.00000E+00        -0.49420E+08
 
   -0.49145E+08         0.86431E+06         0.00000E+00
    0.86431E+06        -0.49937E+08         0.00000E+00
    0.00000E+00         0.00000E+00        -0.49420E+08
 
   -0.49156E+08         0.89156E+06         0.00000E+00
    0.89156E+06        -0.49933E+08         0.00000E+00
    0.00000E+00         0.00000E+00        -0.49421E+08
 
   -0.49167E+08         0.91845E+06         0.00000E+00
    0.91845E+06        -0.49928E+08         0.00000E+00
    0.00000E+00         0.00000E+00        -0.49421E+08
 
   -0.49178E+08         0.94497E+06         0.00000E+00
    0.94497E+06        -0.49923E+08         0.00000E+00
    0.00000E+00         0.00000E+00        -0.49422E+08
 
   -0.49190E+08         0.97113E+06         0.00000E+00
    0.97113E+06        -0.49919E+08         0.00000E+00
    0.00000E+00         0.00000E+00        -0.49422E+08
 
   -0.49202E+08         0.99692E+06         0.00000E+00
    0.99692E+06        -0.49914E+08         0.00000E+00
    0.00000E+00         0.00000E+00        -0.49423E+08
 
   -0.49213E+08         0.10223E+07         0.00000E+00
    0.10223E+07        -0.49909E+08         0.00000E+00
    0.00000E+00         0.00000E+00        -0.49423E+08
 
   -0.49225E+08         0.10474E+07         0.00000E+00
    0.10474E+07        -0.49903E+08         0.00000E+00
    0.00000E+00         0.00000E+00        -0.49424E+08
 
   -0.49238E+08         0.10720E+07         0.00000E+00
    0.10720E+07        -0.49898E+08         0.00000E+00
    0.00000E+00         0.00000E+00        -0.49424E+08
 
   -0.49250E+08         0.10963E+07         0.00000E+00
    0.10963E+07        -0.49893E+08         0.00000E+00
    0.00000E+00         0.00000E+00        -0.49424E+08
 
   -0.49262E+08         0.11201E+07         0.00000E+00
    0.11201E+07        -0.49887E+08         0.00000E+00
    0.00000E+00         0.00000E+00        -0.49425E+08
 
   -0.49275E+08         0.11436E+07         0.00000E+00
    0.11436E+07        -0.49881E+08         0.00000E+00
    0.00000E+00         0.00000E+00        -0.49425E+08
 
   -0.49287E+08         0.11667E+07         0.00000E+00
    0.11667E+07        -0.49876E+08         0.00000E+00
    0.00000E+00         0.00000E+00        -0.49426E+08
 
   -0.49300E+08         0.11893E+07         0.00000E+00
    0.11893E+07        -0.49870E+08         0.00000E+00
    0.00000E+00         0.00000E+00        -0.49426E+08
 
   -0.49313E+08         0.12116E+07         0.00000E+00
    0.12116E+07        -0.49864E+08         0.00000E+00
    0.00000E+00         0.00000E+00        -0.49426E+08
 
   -0.49326E+08         0.12334E+07         0.00000E+00
    0.12334E+07        -0.49858E+08         0.00000E+00
    0.00000E+00         0.00000E+00        -0.49426E+08
 
   -0.49339E+08         0.12548E+07         0.00000E+00
    0.12548E+07        -0.49851E+08         0.00000E+00
    0.00000E+00         0.00000E+00        -0.49427E+08
 
   -0.49353E+08         0.12758E+07         0.00000E+00
    0.12758E+07        -0.49845E+08         0.00000E+00
    0.00000E+00         0.00000E+00        -0.49427E+08
 
   -0.49366E+08         0.12964E+07         0.00000E+00
    0.12964E+07        -0.49839E+08         0.00000E+00
    0.00000E+00         0.00000E+00        -0.49427E+08
 
   -0.49380E+08         0.13166E+07         0.00000E+00
    0.13166E+07        -0.49832E+08         0.00000E+00
    0.00000E+00         0.00000E+00        -0.49427E+08
 
   -0.49393E+08         0.13363E+07         0.00000E+00
    0.13363E+07        -0.49826E+08         0.00000E+00
    0.00000E+00         0.00000E+00        -0.49427E+08
 
   -0.49407E+08         0.13556E+07         0.00000E+00
    0.13556E+07        -0.49819E+08         0.00000E+00
    0.00000E+00         0.00000E+00        -0.49427E+08
 
   -0.49421E+08         0.13745E+07         0.00000E+00
    0.13745E+07        -0.49812E+08         0.00000E+00
    0.00000E+00         0.00000E+00        -0.49427E+08
 
   -0.48756E+08         0.17845E+05         0.00000E+00
    0.17845E+05        -0.50000E+08         0.00000E+00
    0.00000E+00         0.00000E+00        -0.49315E+08
 
   -0.48761E+08         0.53128E+05         0.00000E+00
    0.53128E+05        -0.50000E+08         0.00000E+00
    0.00000E+00         0.00000E+00        -0.49315E+08
 
   -0.48767E+08         0.88248E+05         0.00000E+00
    0.88248E+05        -0.49999E+08         0.00000E+00
    0.00000E+00         0.00000E+00        -0.49315E+08
 
   -0.48773E+08         0.12320E+06         0.00000E+00
    0.12320E+06        -0.49999E+08         0.00000E+00
    0.00000E+00         0.00000E+00        -0.49315E+08
 
   -0.48779E+08         0.15796E+06         0.00000E+00
    0.15796E+06        -0.49998E+08         0.00000E+00
    0.00000E+00         0.00000E+00        -0.49315E+08
 
   -0.48786E+08         0.19254E+06         0.00000E+00
    0.19254E+06        -0.49997E+08         0.00000E+00
    0.00000E+00         0.00000E+00        -0.49315E+08
 
   -0.48793E+08         0.22692E+06         0.00000E+00
    0.22692E+06        -0.49996E+08         0.00000E+00
    0.00000E+00         0.00000E+00        -0.49316E+08
 
   -0.48800E+08         0.26108E+06         0.00000E+00
    0.26108E+06        -0.49994E+08         0.00000E+00
    0.00000E+00         0.00000E+00        -0.49316E+08
 
   -0.48808E+08         0.29503E+06         0.00000E+00
    0.29503E+06        -0.49993E+08         0.00000E+00
    0.00000E+00         0.00000E+00        -0.49316E+08
 
   -0.48816E+08         0.32875E+06         0.00000E+00
    0.32875E+06        -0.49991E+08         0.00000E+00
    0.00000E+00         0.00000E+00        -0.49316E+08
 
   -0.48824E+08         0.36223E+06         0.00000E+00
    0.36223E+06        -0.49989E+08         0.00000E+00
    0.00000E+00         0.00000E+00        -0.49317E+08
 
   -0.48833E+08         0.39547E+06         0.00000E+00
    0.39547E+06        -0.49987E+08         0.00000E+00
    0.00000E+00         0.00000E+00        -0.49317E+08
 
   -0.48842E+08         0.42846E+06         0.00000E+00
    0.42846E+06        -0.49984E+08         0.00000E+00
    0.00000E+00         0.00000E+00        -0.49318E+08
 
   -0.48851E+08         0.46119E+06         0.00000E+00
    0.46119E+06        -0.49982E+08         0.00000E+00
    0.00000E+00         0.00000E+00        -0.49318E+08
 
   -0.48860E+08         0.49365E+06         0.00000E+00
    0.49365E+06        -0.49979E+08         0.00000E+00
    0.00000E+00         0.00000E+00        -0.49319E+08
 
   -0.48870E+08         0.52583E+06         0.00000E+00
    0.52583E+06        -0.49976E+08         0.00000E+00
    0.00000E+00         0.00000E+00        -0.49319E+08
 
   -0.48880E+08         0.55772E+06         0.00000E+00
    0.55772E+06        -0.49973E+08         0.00000E+00
    0.00000E+00         0.00000E+00        -0.49319E+08
 
   -0.48890E+08         0.58933E+06         0.00000E+00
    0.58933E+06        -0.49969E+08         0.00000E+00
    0.00000E+00         0.00000E+00        -0.49320E+08
 
   -0.48900E+08         0.62064E+06         0.00000E+00
    0.62064E+06        -0.49966E+08         0.00000E+00
    0.00000E+00         0.00000E+00        -0.49321E+08
 
   -0.48911E+08         0.65164E+06         0.00000E+00
    0.65164E+06        -0.49962E+08         0.00000E+00
    0.00000E+00         0.00000E+00        -0.49321E+08
 
   -0.48922E+08         0.68232E+06         0.00000E+00
    0.68232E+06        -0.49958E+08         0.00000E+00
    0.00000E+00         0.00000E+00        -0.49322E+08
 
   -0.48933E+08         0.71269E+06         0.00000E+00
    0.71269E+06        -0.49954E+08         0.00000E+00
    0.00000E+00         0.00000E+00        -0.49322E+08
 
   -0.48945E+08         0.74274E+06         0.00000E+00
    0.74274E+06        -0.49950E+08         0.00000E+00
    0.00000E+00         0.00000E+00        -0.49323E+08
 
   -0.48957E+08         0.77245E+06         0.00000E+00
    0.77245E+06        -0.49946E+08         0.00000E+00
    0.00000E+00         0.00000E+00        -0.49323E+08
 
   -0.48969E+08         0.80182E+06         0.00000E+00
    0.80182E+06        -0.49941E+08         0.00000E+00
    0.00000E+00         0.00000E+00        -0.49324E+08
 
   -0.48981E+08         0.83085E+06         0.00000E+00
    0.83085E+06        -0.49937E+08         0.00000E+00
    0.00000E+00         0.00000E+00        -0.49325E+08
 
   -0.48993E+08         0.85953E+06         0.00000E+00
    0.85953E+06        -0.49932E+08         0.00000E+00
    0.00000E+00         0.00000E+00        -0.49325E+08
 
   -0.49006E+08         0.88785E+06         0.00000E+00
    0.88785E+06        -0.49927E+08         0.00000E+00
    0.00000E+00         0.00000E+00        -0.49326E+08
 
   -0.49019E+08         0.91582E+06         0.00000E+00
    0.91582E+06        -0.49922E+08         0.00000E+00
    0.00000E+00         0.00000E+00        -0.49326E+08
 
   -0.49032E+08         0.94341E+06         0.00000E+00
    0.94341E+06        -0.49917E+08         0.00000E+00
    0.00000E+00         0.00000E+00        -0.49327E+08
 
   -0.49045E+08         0.97064E+06         0.00000E+00
    0.97064E+06        -0.49911E+08         0.00000E+00
    0.00000E+00         0.00000E+00        -0.49327E+08
 
   -0.49058E+08         0.99748E+06         0.00000E+00
    0.99748E+06        -0.49905E+08         0.00000E+00
    0.00000E+00         0.00000E+00        -0.49328E+08
 
   -0.49072E+08         0.10240E+07         0.00000E+00
    0.10240E+07        -0.49900E+08         0.00000E+00
    0.00000E+00         0.00000E+00        -0.49329E+08
 
   -0.49086E+08         0.10500E+07         0.00000E+00
    0.10500E+07        -0.49894E+08         0.00000E+00
    0.00000E+00         0.00000E+00        -0.49329E+08
 
   -0.49100E+08         0.10757E+07         0.00000E+00
    0.10757E+07        -0.49888E+08         0.00000E+00
    0.00000E+00         0.00000E+00        -0.49330E+08
 
   -0.49114E+08         0.11010E+07         0.00000E+00
    0.11010E+07        -0.49882E+08         0.00000E+00
    0.00000E+00         0.00000E+00        -0.49330E+08
 
   -0.49128E+08         0.11259E+07         0.00000E+00
    0.11259E+07        -0.49875E+08         0.00000E+00
    0.00000E+00         0.00000E+00        -0.49331E+08
 
   -0.49142E+08         0.11504E+07         0.00000E+00
    0.11504E+07        -0.49869E+08         0.00000E+00
    0.00000E+00         0.00000E+00        -0.49331E+08
 
   -0.49157E+08         0.11745E+07         0.00000E+00
    0.11745E+07        -0.49862E+08         0.00000E+00
    0.00000E+00         0.00000E+00        -0.49331E+08
 
   -0.49172E+08         0.11982E+07         0.00000E+00
    0.11982E+07        -0.49856E+08         0.00000E+00
    0.00000E+00         0.00000E+00        -0.49332E+08
 
   -0.49187E+08         0.12214E+07         0.00000E+00
    0.12214E+07        -0.49849E+08         0.00000E+00
    0.00000E+00         0.00000E+00        -0.49332E+08
 
   -0.49202E+08         0.12443E+07         0.00000E+00
    0.12443E+07        -0.49842E+08         0.00000E+00
    0.00000E+00         0.00000E+00        -0.49333E+08
 
   -0.49217E+08         0.12667E+07         0.00000E+00
    0.12667E+07        -0.49835E+08         0.00000E+00
    0.00000E+00         0.00000E+00        -0.49333E+08
 
   -0.49232E+08         0.12887E+07         0.00000E+00
    0.12887E+07        -0.49828E+08         0.00000E+00
    0.00000E+00         0.00000E+00        -0.49333E+08
 
   -0.49247E+08         0.13102E+07         0.00000E+00
    0.13102E+07        -0.49820E+08         0.00000E+00
    0.00000E+00         0.00000E+00        -0.49333E+08
 
   -0.49263E+08         0.13314E+07         0.00000E+00
    0.13314E+07        -0.49813E+08         0.00000E+00
    0.00000E+00         0.00000E+00        -0.49334E+08
 
   -0.49279E+08         0.13521E+07         0.00000E+00
    0.13521E+07        -0.49805E+08         0.00000E+00
    0.00000E+00         0.00000E+00        -0.49334E+08
 
   -0.49294E+08         0.13723E+07         0.00000E+00
    0.13723E+07        -0.49798E+08         0.00000E+00
    0.00000E+00         0.00000E+00        -0.49334E+08
 
   -0.49310E+08         0.13922E+07         0.00000E+00
    0.13922E+07        -0.49790E+08         0.00000E+00
    0.00000E+00         0.00000E+00        -0.49334E+08
 
   -0.49326E+08         0.14115E+07         0.00000E+00
    0.14115E+07        -0.49782E+08         0.00000E+00
    0.00000E+00         0.00000E+00        -0.49334E+08
 
   -0.48577E+08         0.18413E+05         0.00000E+00
    0.18413E+05        -0.50000E+08         0.00000E+00
    0.00000E+00         0.00000E+00        -0.49216E+08
 
   -0.48583E+08         0.54810E+05         0.00000E+00
    0.54810E+05        -0.50000E+08         0.00000E+00
    0.00000E+00         0.00000E+00        -0.49216E+08
 
   -0.48589E+08         0.91037E+05         0.00000E+00
    0.91037E+05        -0.49999E+08         0.00000E+00
    0.00000E+00         0.00000E+00        -0.49216E+08
 
   -0.48596E+08         0.12708E+06         0.00000E+00
    0.12708E+06        -0.49999E+08         0.00000E+00
    0.00000E+00         0.00000E+00        -0.49216E+08
 
   -0.48603E+08         0.16294E+06         0.00000E+00
    0.16294E+06        -0.49998E+08         0.00000E+00
    0.00000E+00         0.00000E+00        -0.49216E+08
 
   -0.48611E+08         0.19859E+06         0.00000E+00
    0.19859E+06        -0.49996E+08         0.00000E+00
    0.00000E+00         0.00000E+00        -0.49216E+08
 
   -0.48619E+08         0.23404E+06         0.00000E+00
    0.23404E+06        -0.49995E+08         0.00000E+00
    0.00000E+00         0.00000E+00        -0.49217E+08
 
   -0.48628E+08         0.26927E+06         0.00000E+00
    0.26927E+06        -0.49993E+08         0.00000E+00
    0.00000E+00         0.00000E+00        -0.49217E+08
 
   -0.48636E+08         0.30427E+06         0.00000E+00
    0.30427E+06        -0.49991E+08         0.00000E+00
    0.00000E+00         0.00000E+00        -0.49217E+08
 
   -0.48645E+08         0.33903E+06         0.00000E+00
    0.33903E+06        -0.49989E+08         0.00000E+00
    0.00000E+00         0.00000E+00        -0.49218E+08
 
   -0.48655E+08         0.37354E+06         0.00000E+00
    0.37354E+06        -0.49987E+08         0.00000E+00
    0.00000E+00         0.00000E+00        -0.49218E+08
 
   -0.48665E+08         0.40780E+06         0.00000E+00
    0.40780E+06        -0.49985E+08         0.00000E+00
    0.00000E+00         0.00000E+00        -0.49219E+08
 
   -0.48675E+08         0.44179E+06         0.00000E+00
    0.44179E+06        -0.49982E+08         0.00000E+00
    0.00000E+00         0.00000E+00        -0.49219E+08
 
   -0.48685E+08         0.47552E+06         0.00000E+00
    0.47552E+06        -0.49979E+08         0.00000E+00
    0.00000E+00         0.00000E+00        -0.49220E+08
 
   -0.48696E+08         0.50896E+06         0.00000E+00
    0.50896E+06        -0.49976E+08         0.00000E+00
    0.00000E+00         0.00000E+00        -0.49220E+08
 
   -0.48707E+08         0.54211E+06         0.00000E+00
    0.54211E+06        -0.49972E+08         0.00000E+00
    0.00000E+00         0.00000E+00        -0.49221E+08
 
   -0.48719E+08         0.57498E+06         0.00000E+00
    0.57498E+06        -0.49969E+08         0.00000E+00
    0.00000E+00         0.00000E+00        -0.49221E+08
 
   -0.48730E+08         0.60753E+06         0.00000E+00
    0.60753E+06        -0.49965E+08         0.00000E+00
    0.00000E+00         0.00000E+00        -0.49222E+08
 
   -0.48742E+08         0.63978E+06         0.00000E+00
    0.63978E+06        -0.49961E+08         0.00000E+00
    0.00000E+00         0.00000E+00        -0.49222E+08
 
   -0.48755E+08         0.67171E+06         0.00000E+00
    0.67171E+06        -0.49957E+08         0.00000E+00
    0.00000E+00         0.00000E+00        -0.49223E+08
 
   -0.48767E+08         0.70331E+06         0.00000E+00
    0.70331E+06        -0.49952E+08         0.00000E+00
    0.00000E+00         0.00000E+00        -0.49224E+08
 
   -0.48780E+08         0.73459E+06         0.00000E+00
    0.73459E+06        -0.49948E+08         0.00000E+00
    0.00000E+00         0.00000E+00        -0.49224E+08
 
   -0.48793E+08         0.76553E+06         0.00000E+00
    0.76553E+06        -0.49943E+08         0.00000E+00
    0.00000E+00         0.00000E+00        -0.49225E+08
 
   -0.48807E+08         0.79612E+06         0.00000E+00
    0.79612E+06        -0.49938E+08         0.00000E+00
    0.00000E+00         0.00000E+00        -0.49226E+08
 
   -0.48820E+08         0.82636E+06         0.00000E+00
    0.82636E+06        -0.49933E+08         0.00000E+00
    0.00000E+00         0.00000E+00        -0.49226E+08
 
   -0.48834E+08         0.85625E+06         0.00000E+00
    0.85625E+06        -0.49928E+08         0.00000E+00
    0.00000E+00         0.00000E+00        -0.49227E+08
 
   -0.48849E+08         0.88578E+06         0.00000E+00
    0.88578E+06        -0.49922E+08         0.00000E+00
    0.00000E+00         0.00000E+00        -0.49228E+08
 
   -0.48863E+08         0.91494E+06         0.00000E+00
    0.91494E+06        -0.49916E+08         0.00000E+00
    0.00000E+00         0.00000E+00        -0.49228E+08
 
   -0.48878E+08         0.94372E+06         0.00000E+00
    0.94372E+06        -0.49911E+08         0.00000E+00
    0.00000E+00         0.00000E+00        -0.49229E+08
 
   -0.48893E+08         0.97213E+06         0.00000E+00
    0.97213E+06        -0.49905E+08         0.00000E+00
    0.00000E+00         0.00000E+00        -0.49230E+08
 
   -0.48908E+08         0.10002E+07         0.00000E+00
    0.10002E+07        -0.49898E+08         0.00000E+00
    0.00000E+00         0.00000E+00        -0.49230E+08
 
   -0.48923E+08         0.10278E+07         0.00000E+00
    0.10278E+07        -0.49892E+08         0.00000E+00
    0.00000E+00         0.00000E+00        -0.49231E+08
 
   -0.48939E+08         0.10550E+07         0.00000E+00
    0.10550E+07        -0.49885E+08         0.00000E+00
    0.00000E+00         0.00000E+00        -0.49232E+08
 
   -0.48954E+08         0.10819E+07         0.00000E+00
    0.10819E+07        -0.49879E+08         0.00000E+00
    0.00000E+00         0.00000E+00        -0.49232E+08
 
   -0.48970E+08         0.11083E+07         0.00000E+00
    0.11083E+07        -0.49872E+08         0.00000E+00
    0.00000E+00         0.00000E+00        -0.49233E+08
 
   -0.48986E+08         0.11344E+07         0.00000E+00
    0.11344E+07        -0.49865E+08         0.00000E+00
    0.00000E+00         0.00000E+00        -0.49233E+08
 
   -0.49003E+08         0.11600E+07         0.00000E+00
    0.11600E+07        -0.49858E+08         0.00000E+00
    0.00000E+00         0.00000E+00        -0.49234E+08
 
   -0.49019E+08         0.11852E+07         0.00000E+00
    0.11852E+07        -0.49850E+08         0.00000E+00
    0.00000E+00         0.00000E+00        -0.49234E+08
 
   -0.49036E+08         0.12100E+07         0.00000E+00
    0.12100E+07        -0.49843E+08         0.00000E+00
    0.00000E+00         0.00000E+00        -0.49235E+08
 
   -0.49053E+08         0.12344E+07         0.00000E+00
    0.12344E+07        -0.49835E+08         0.00000E+00
    0.00000E+00         0.00000E+00        -0.49235E+08
 
   -0.49070E+08         0.12583E+07         0.00000E+00
    0.12583E+07        -0.49827E+08         0.00000E+00
    0.00000E+00         0.00000E+00        -0.49236E+08
 
   -0.49087E+08         0.12818E+07         0.00000E+00
    0.12818E+07        -0.49819E+08         0.00000E+00
    0.00000E+00         0.00000E+00        -0.49236E+08
 
   -0.49104E+08         0.13049E+07         0.00000E+00
    0.13049E+07        -0.49811E+08         0.00000E+00
    0.00000E+00         0.00000E+00        -0.49237E+08
 
   -0.49122E+08         0.13276E+07         0.00000E+00
    0.13276E+07        -0.49803E+08         0.00000E+00
    0.00000E+00         0.00000E+00        -0.49237E+08
 
   -0.49139E+08         0.13498E+07         0.00000E+00
    0.13498E+07        -0.49795E+08         0.00000E+00
    0.00000E+00         0.00000E+00        -0.49237E+08
 
   -0.49157E+08         0.13715E+07         0.00000E+00
    0.13715E+07        -0.49786E+08         0.00000E+00
    0.00000E+00         0.00000E+00        -0.49237E+08
 
   -0.49175E+08         0.13929E+07         0.00000E+00
    0.13929E+07        -0.49778E+08         0.00000E+00
    0.00000E+00         0.00000E+00        -0.49238E+08
 
   -0.49193E+08         0.14137E+07         0.00000E+00
    0.14137E+07        -0.49769E+08         0.00000E+00
    0.00000E+00         0.00000E+00        -0.49238E+08
 
   -0.49211E+08         0.14342E+07         0.00000E+00
    0.14342E+07        -0.49760E+08         0.00000E+00
    0.00000E+00         0.00000E+00        -0.49238E+08
 
   -0.49229E+08         0.14541E+07         0.00000E+00
    0.14541E+07        -0.49751E+08         0.00000E+00
    0.00000E+00         0.00000E+00        -0.49238E+08
 
   -0.48391E+08         0.19062E+05         0.00000E+00
    0.19062E+05        -0.50000E+08         0.00000E+00
    0.00000E+00         0.00000E+00        -0.49114E+08
 
   -0.48398E+08         0.56729E+05         0.00000E+00
    0.56729E+05        -0.50000E+08         0.00000E+00
    0.00000E+00         0.00000E+00        -0.49114E+08
 
   -0.48405E+08         0.94216E+05         0.00000E+00
    0.94216E+05        -0.49999E+08         0.00000E+00
    0.00000E+00         0.00000E+00        -0.49114E+08
 
   -0.48413E+08         0.13151E+06         0.00000E+00
    0.13151E+06        -0.49998E+08         0.00000E+00
    0.00000E+00         0.00000E+00        -0.49114E+08
 
   -0.48422E+08         0.16861E+06         0.00000E+00
    0.16861E+06        -0.49997E+08         0.00000E+00
    0.00000E+00         0.00000E+00        -0.49114E+08
 
   -0.48430E+08         0.20549E+06         0.00000E+00
    0.20549E+06        -0.49996E+08         0.00000E+00
    0.00000E+00         0.00000E+00        -0.49114E+08
 
   -0.48439E+08         0.24215E+06         0.00000E+00
    0.24215E+06        -0.49994E+08         0.00000E+00
    0.00000E+00         0.00000E+00        -0.49115E+08
 
   -0.48449E+08         0.27858E+06         0.00000E+00
    0.27858E+06        -0.49992E+08         0.00000E+00
    0.00000E+00         0.00000E+00        -0.49115E+08
 
   -0.48459E+08         0.31477E+06         0.00000E+00
    0.31477E+06        -0.49990E+08         0.00000E+00
    0.00000E+00         0.00000E+00        -0.49115E+08
 
   -0.48469E+08         0.35072E+06         0.00000E+00
    0.35072E+06        -0.49988E+08         0.00000E+00
    0.00000E+00         0.00000E+00        -0.49116E+08
 
   -0.48480E+08         0.38640E+06         0.00000E+00
    0.38640E+06        -0.49985E+08         0.00000E+00
    0.00000E+00         0.00000E+00        -0.49116E+08
 
   -0.48491E+08         0.42181E+06         0.00000E+00
    0.42181E+06        -0.49983E+08         0.00000E+00
    0.00000E+00         0.00000E+00        -0.49117E+08
 
   -0.48503E+08         0.45695E+06         0.00000E+00
    0.45695E+06        -0.49979E+08         0.00000E+00
    0.00000E+00         0.00000E+00        -0.49117E+08
 
   -0.48515E+08         0.49180E+06         0.00000E+00
    0.49180E+06        -0.49976E+08         0.00000E+00
    0.00000E+00         0.00000E+00        -0.49118E+08
 
   -0.48527E+08         0.52636E+06         0.00000E+00
    0.52636E+06        -0.49973E+08         0.00000E+00
    0.00000E+00         0.00000E+00        -0.49119E+08
 
   -0.48539E+08         0.56062E+06         0.00000E+00
    0.56062E+06        -0.49969E+08         0.00000E+00
    0.00000E+00         0.00000E+00        -0.49119E+08
 
   -0.48552E+08         0.59457E+06         0.00000E+00
    0.59457E+06        -0.49965E+08         0.00000E+00
    0.00000E+00         0.00000E+00        -0.49120E+08
 
   -0.48566E+08         0.62821E+06         0.00000E+00
    0.62821E+06        -0.49960E+08         0.00000E+00
    0.00000E+00         0.00000E+00        -0.49121E+08
 
   -0.48579E+08         0.66152E+06         0.00000E+00
    0.66152E+06        -0.49956E+08         0.00000E+00
    0.00000E+00         0.00000E+00        -0.49121E+08
 
   -0.48593E+08         0.69450E+06         0.00000E+00
    0.69450E+06        -0.49951E+08         0.00000E+00
    0.00000E+00         0.00000E+00        -0.49122E+08
 
   -0.48608E+08         0.72714E+06         0.00000E+00
    0.72714E+06        -0.49946E+08         0.00000E+00
    0.00000E+00         0.00000E+00        -0.49123E+08
 
   -0.48622E+08         0.75944E+06         0.00000E+00
    0.75944E+06        -0.49941E+08         0.00000E+00
    0.00000E+00         0.00000E+00        -0.49123E+08
 
   -0.48637E+08         0.79138E+06         0.00000E+00
    0.79138E+06        -0.49936E+08         0.00000E+00
    0.00000E+00         0.00000E+00        -0.49124E+08
 
   -0.48652E+08         0.82298E+06         0.00000E+00
    0.82298E+06        -0.49930E+08         0.00000E+00
    0.00000E+00         0.00000E+00        -0.49125E+08
 
   -0.48668E+08         0.85420E+06         0.00000E+00
    0.85420E+06        -0.49924E+08         0.00000E+00
    0.00000E+00         0.00000E+00        -0.49126E+08
 
   -0.48684E+08         0.88506E+06         0.00000E+00
    0.88506E+06        -0.49918E+08         0.00000E+00
    0.00000E+00         0.00000E+00        -0.49126E+08
 
   -0.48700E+08         0.91554E+06         0.00000E+00
    0.91554E+06        -0.49912E+08         0.00000E+00
    0.00000E+00         0.00000E+00        -0.49127E+08
 
   -0.48716E+08         0.94564E+06         0.00000E+00
    0.94564E+06        -0.49906E+08         0.00000E+00
    0.00000E+00         0.00000E+00        -0.49128E+08
 
   -0.48732E+08         0.97536E+06         0.00000E+00
    0.97536E+06        -0.49899E+08         0.00000E+00
    0.00000E+00         0.00000E+00        -0.49129E+08
 
   -0.48749E+08         0.10047E+07         0.00000E+00
    0.10047E+07        -0.49892E+08         0.00000E+00
    0.00000E+00         0.00000E+00        -0.49129E+08
 
   -0.48766E+08         0.10336E+07         0.00000E+00
    0.10336E+07        -0.49885E+08         0.00000E+00
    0.00000E+00         0.00000E+00        -0.49130E+08
 
   -0.48784E+08         0.10621E+07         0.00000E+00
    0.10621E+07        -0.49878E+08         0.00000E+00
    0.00000E+00         0.00000E+00        -0.49131E+08
 
   -0.48801E+08         0.10903E+07         0.00000E+00
    0.10903E+07        -0.49871E+08         0.00000E+00
    0.00000E+00         0.00000E+00        -0.49132E+08
 
   -0.48819E+08         0.11180E+07         0.00000E+00
    0.11180E+07        -0.49863E+08         0.00000E+00
    0.00000E+00         0.00000E+00        -0.49132E+08
 
   -0.48837E+08         0.11453E+07         0.00000E+00
    0.11453E+07        -0.49855E+08         0.00000E+00
    0.00000E+00         0.00000E+00        -0.49133E+08
 
   -0.48855E+08         0.11721E+07         0.00000E+00
    0.11721E+07        -0.49847E+08         0.00000E+00
    0.00000E+00         0.00000E+00        -0.49134E+08
 
   -0.48874E+08         0.11986E+07         0.00000E+00
    0.11986E+07        -0.49839E+08         0.00000E+00
    0.00000E+00         0.00000E+00        -0.49134E+08
 
   -0.48892E+08         0.12246E+07         0.00000E+00
    0.12246E+07        -0.49831E+08         0.00000E+00
    0.00000E+00         0.00000E+00        -0.49135E+08
 
   -0.48911E+08         0.12502E+07         0.00000E+00
    0.12502E+07        -0.49823E+08         0.00000E+00
    0.00000E+00         0.00000E+00        -0.49135E+08
 
   -0.48930E+08         0.12754E+07         0.00000E+00
    0.12754E+07        -0.49814E+08         0.00000E+00
    0.00000E+00         0.00000E+00        -0.49136E+08
 
   -0.48949E+08         0.13001E+07         0.00000E+00
    0.13001E+07        -0.49805E+08         0.00000E+00
    0.00000E+00         0.00000E+00        -0.49136E+08
 
   -0.48968E+08         0.13244E+07         0.00000E+00
    0.13244E+07        -0.49796E+08         0.00000E+00
    0.00000E+00         0.00000E+00        -0.49137E+08
 
   -0.48988E+08         0.13482E+07         0.00000E+00
    0.13482E+07        -0.49787E+08         0.00000E+00
    0.00000E+00         0.00000E+00        -0.49137E+08
 
   -0.49008E+08         0.13716E+07         0.00000E+00
    0.13716E+07        -0.49778E+08         0.00000E+00
    0.00000E+00         0.00000E+00        -0.49138E+08
 
   -0.49027E+08         0.13946E+07         0.00000E+00
    0.13946E+07        -0.49769E+08         0.00000E+00
    0.00000E+00         0.00000E+00        -0.49138E+08
 
   -0.49047E+08         0.14171E+07         0.00000E+00
    0.14171E+07        -0.49759E+08         0.00000E+00
    0.00000E+00         0.00000E+00        -0.49138E+08
 
   -0.49067E+08         0.14391E+07         0.00000E+00
    0.14391E+07        -0.49749E+08         0.00000E+00
    0.00000E+00         0.00000E+00        -0.49138E+08
 
   -0.49088E+08         0.14607E+07         0.00000E+00
    0.14607E+07        -0.49739E+08         0.00000E+00
    0.00000E+00         0.00000E+00        -0.49139E+08
 
   -0.49108E+08         0.14818E+07         0.00000E+00
    0.14818E+07        -0.49729E+08         0.00000E+00
    0.00000E+00         0.00000E+00        -0.49139E+08
 
   -0.49128E+08         0.15024E+07         0.00000E+00
    0.15024E+07        -0.49719E+08         0.00000E+00
    0.00000E+00         0.00000E+00        -0.49139E+08
 
   -0.48199E+08         0.19793E+05         0.00000E+00
    0.19793E+05        -0.50000E+08         0.00000E+00
    0.00000E+00         0.00000E+00        -0.49008E+08
 
   -0.48207E+08         0.58892E+05         0.00000E+00
    0.58892E+05        -0.50000E+08         0.00000E+00
    0.00000E+00         0.00000E+00        -0.49008E+08
 
   -0.48215E+08         0.97799E+05         0.00000E+00
    0.97799E+05        -0.49999E+08         0.00000E+00
    0.00000E+00         0.00000E+00        -0.49008E+08
 
   -0.48224E+08         0.13650E+06         0.00000E+00
    0.13650E+06        -0.49998E+08         0.00000E+00
    0.00000E+00         0.00000E+00        -0.49008E+08
 
   -0.48233E+08         0.17499E+06         0.00000E+00
    0.17499E+06        -0.49997E+08         0.00000E+00
    0.00000E+00         0.00000E+00        -0.49008E+08
 
   -0.48243E+08         0.21326E+06         0.00000E+00
    0.21326E+06        -0.49995E+08         0.00000E+00
    0.00000E+00         0.00000E+00        -0.49009E+08
 
   -0.48253E+08         0.25129E+06         0.00000E+00
    0.25129E+06        -0.49994E+08         0.00000E+00
    0.00000E+00         0.00000E+00        -0.49009E+08
 
   -0.48264E+08         0.28907E+06         0.00000E+00
    0.28907E+06        -0.49992E+08         0.00000E+00
    0.00000E+00         0.00000E+00        -0.49009E+08
 
   -0.48275E+08         0.32660E+06         0.00000E+00
    0.32660E+06        -0.49989E+08         0.00000E+00
    0.00000E+00         0.00000E+00        -0.49010E+08
 
   -0.48287E+08         0.36387E+06         0.00000E+00
    0.36387E+06        -0.49987E+08         0.00000E+00
    0.00000E+00         0.00000E+00        -0.49010E+08
 
   -0.48299E+08         0.40086E+06         0.00000E+00
    0.40086E+06        -0.49984E+08         0.00000E+00
    0.00000E+00         0.00000E+00        -0.49011E+08
 
   -0.48312E+08         0.43757E+06         0.00000E+00
    0.43757E+06        -0.49980E+08         0.00000E+00
    0.00000E+00         0.00000E+00        -0.49012E+08
 
   -0.48325E+08         0.47399E+06         0.00000E+00
    0.47399E+06        -0.49977E+08         0.00000E+00
    0.00000E+00         0.00000E+00        -0.49012E+08
 
   -0.48338E+08         0.51011E+06         0.00000E+00
    0.51011E+06        -0.49973E+08         0.00000E+00
    0.00000E+00         0.00000E+00        -0.49013E+08
 
   -0.48352E+08         0.54592E+06         0.00000E+00
    0.54592E+06        -0.49969E+08         0.00000E+00
    0.00000E+00         0.00000E+00        -0.49013E+08
 
   -0.48366E+08         0.58141E+06         0.00000E+00
    0.58141E+06        -0.49965E+08         0.00000E+00
    0.00000E+00         0.00000E+00        -0.49014E+08
 
   -0.48380E+08         0.61658E+06         0.00000E+00
    0.61658E+06        -0.49960E+08         0.00000E+00
    0.00000E+00         0.00000E+00        -0.49015E+08
 
   -0.48395E+08         0.65142E+06         0.00000E+00
    0.65142E+06        -0.49956E+08         0.00000E+00
    0.00000E+00         0.00000E+00        -0.49016E+08
 
   -0.48411E+08         0.68592E+06         0.00000E+00
    0.68592E+06        -0.49951E+08         0.00000E+00
    0.00000E+00         0.00000E+00        -0.49016E+08
 
   -0.48426E+08         0.72008E+06         0.00000E+00
    0.72008E+06        -0.49945E+08         0.00000E+00
    0.00000E+00         0.00000E+00        -0.49017E+08
 
   -0.48442E+08         0.75388E+06         0.00000E+00
    0.75388E+06        -0.49940E+08         0.00000E+00
    0.00000E+00         0.00000E+00        -0.49018E+08
 
   -0.48459E+08         0.78732E+06         0.00000E+00
    0.78732E+06        -0.49934E+08         0.00000E+00
    0.00000E+00         0.00000E+00        -0.49019E+08
 
   -0.48475E+08         0.82040E+06         0.00000E+00
    0.82040E+06        -0.49928E+08         0.00000E+00
    0.00000E+00         0.00000E+00        -0.49020E+08
 
   -0.48492E+08         0.85310E+06         0.00000E+00
    0.85310E+06        -0.49922E+08         0.00000E+00
    0.00000E+00         0.00000E+00        -0.49021E+08
 
   -0.48510E+08         0.88542E+06         0.00000E+00
    0.88542E+06        -0.49915E+08         0.00000E+00
    0.00000E+00         0.00000E+00        -0.49021E+08
 
   -0.48528E+08         0.91736E+06         0.00000E+00
    0.91736E+06        -0.49909E+08         0.00000E+00
    0.00000E+00         0.00000E+00        -0.49022E+08
 
   -0.48545E+08         0.94892E+06         0.00000E+00
    0.94892E+06        -0.49902E+08         0.00000E+00
    0.00000E+00         0.00000E+00        -0.49023E+08
 
   -0.48564E+08         0.98007E+06         0.00000E+00
    0.98007E+06        -0.49895E+08         0.00000E+00
    0.00000E+00         0.00000E+00        -0.49024E+08
 
   -0.48582E+08         0.10108E+07         0.00000E+00
    0.10108E+07        -0.49887E+08         0.00000E+00
    0.00000E+00         0.00000E+00        -0.49025E+08
 
   -0.48601E+08         0.10412E+07         0.00000E+00
    0.10412E+07        -0.49880E+08         0.00000E+00
    0.00000E+00         0.00000E+00        -0.49026E+08
 
   -0.48620E+08         0.10711E+07         0.00000E+00
    0.10711E+07        -0.49872E+08         0.00000E+00
    0.00000E+00         0.00000E+00        -0.49026E+08
 
   -0.48640E+08         0.11006E+07         0.00000E+00
    0.11006E+07        -0.49864E+08         0.00000E+00
    0.00000E+00         0.00000E+00        -0.49027E+08
 
   -0.48659E+08         0.11297E+07         0.00000E+00
    0.11297E+07        -0.49856E+08         0.00000E+00
    0.00000E+00         0.00000E+00        -0.49028E+08
 
   -0.48679E+08         0.11584E+07         0.00000E+00
    0.11584E+07        -0.49847E+08         0.00000E+00
    0.00000E+00         0.00000E+00        -0.49029E+08
 
   -0.48699E+08         0.11867E+07         0.00000E+00
    0.11867E+07        -0.49839E+08         0.00000E+00
    0.00000E+00         0.00000E+00        -0.49030E+08
 
   -0.48719E+08         0.12145E+07         0.00000E+00
    0.12145E+07        -0.49830E+08         0.00000E+00
    0.00000E+00         0.00000E+00        -0.49030E+08
 
   -0.48740E+08         0.12419E+07         0.00000E+00
    0.12419E+07        -0.49821E+08         0.00000E+00
    0.00000E+00         0.00000E+00        -0.49031E+08
 
   -0.48761E+08         0.12688E+07         0.00000E+00
    0.12688E+07        -0.49811E+08         0.00000E+00
    0.00000E+00         0.00000E+00        -0.49032E+08
 
   -0.48782E+08         0.12953E+07         0.00000E+00
    0.12953E+07        -0.49802E+08         0.00000E+00
    0.00000E+00         0.00000E+00        -0.49032E+08
 
   -0.48803E+08         0.13213E+07         0.00000E+00
    0.13213E+07        -0.49792E+08         0.00000E+00
    0.00000E+00         0.00000E+00        -0.49033E+08
 
   -0.48824E+08         0.13469E+07         0.00000E+00
    0.13469E+07        -0.49783E+08         0.00000E+00
    0.00000E+00         0.00000E+00        -0.49033E+08
 
   -0.48846E+08         0.13721E+07         0.00000E+00
    0.13721E+07        -0.49773E+08         0.00000E+00
    0.00000E+00         0.00000E+00        -0.49034E+08
 
   -0.48868E+08         0.13968E+07         0.00000E+00
    0.13968E+07        -0.49763E+08         0.00000E+00
    0.00000E+00         0.00000E+00        -0.49034E+08
 
   -0.48890E+08         0.14210E+07         0.00000E+00
    0.14210E+07        -0.49752E+08         0.00000E+00
    0.00000E+00         0.00000E+00        -0.49035E+08
 
   -0.48912E+08         0.14447E+07         0.00000E+00
    0.14447E+07        -0.49742E+08         0.00000E+00
    0.00000E+00         0.00000E+00        -0.49035E+08
 
   -0.48934E+08         0.14680E+07         0.00000E+00
    0.14680E+07        -0.49731E+08         0.00000E+00
    0.00000E+00         0.00000E+00        -0.49035E+08
 
   -0.48956E+08         0.14909E+07         0.00000E+00
    0.14909E+07        -0.49720E+08         0.00000E+00
    0.00000E+00         0.00000E+00        -0.49036E+08
 
   -0.48979E+08         0.15132E+07         0.00000E+00
    0.15132E+07        -0.49709E+08         0.00000E+00
    0.00000E+00         0.00000E+00        -0.49036E+08
 
   -0.49002E+08         0.15351E+07         0.00000E+00
    0.15351E+07        -0.49698E+08         0.00000E+00
    0.00000E+00         0.00000E+00        -0.49036E+08
 
   -0.49025E+08         0.15565E+07         0.00000E+00
    0.15565E+07        -0.49687E+08         0.00000E+00
    0.00000E+00         0.00000E+00        -0.49036E+08
 
   -0.47999E+08         0.20612E+05         0.00000E+00
    0.20612E+05        -0.50000E+08         0.00000E+00
    0.00000E+00         0.00000E+00        -0.48898E+08
 
   -0.48008E+08         0.61311E+05         0.00000E+00
    0.61311E+05        -0.50000E+08         0.00000E+00
    0.00000E+00         0.00000E+00        -0.48898E+08
 
   -0.48017E+08         0.10180E+06         0.00000E+00
    0.10180E+06        -0.49999E+08         0.00000E+00
    0.00000E+00         0.00000E+00        -0.48898E+08
 
   -0.48027E+08         0.14208E+06         0.00000E+00
    0.14208E+06        -0.49998E+08         0.00000E+00
    0.00000E+00         0.00000E+00        -0.48898E+08
 
   -0.48037E+08         0.18212E+06         0.00000E+00
    0.18212E+06        -0.49997E+08         0.00000E+00
    0.00000E+00         0.00000E+00        -0.48899E+08
 
   -0.48048E+08         0.22192E+06         0.00000E+00
    0.22192E+06        -0.49995E+08         0.00000E+00
    0.00000E+00         0.00000E+00        -0.48899E+08
 
   -0.48060E+08         0.26148E+06         0.00000E+00
    0.26148E+06        -0.49993E+08         0.00000E+00
    0.00000E+00         0.00000E+00        -0.48899E+08
 
   -0.48072E+08         0.30077E+06         0.00000E+00
    0.30077E+06        -0.49991E+08         0.00000E+00
    0.00000E+00         0.00000E+00        -0.48900E+08
 
   -0.48085E+08         0.33979E+06         0.00000E+00
    0.33979E+06        -0.49988E+08         0.00000E+00
    0.00000E+00         0.00000E+00        -0.48900E+08
 
   -0.48098E+08         0.37853E+06         0.00000E+00
    0.37853E+06        -0.49985E+08         0.00000E+00
    0.00000E+00         0.00000E+00        -0.48901E+08
 
   -0.48111E+08         0.41698E+06         0.00000E+00
    0.41698E+06        -0.49982E+08         0.00000E+00
    0.00000E+00         0.00000E+00        -0.48901E+08
 
   -0.48125E+08         0.45513E+06         0.00000E+00
    0.45513E+06        -0.49978E+08         0.00000E+00
    0.00000E+00         0.00000E+00        -0.48902E+08
 
   -0.48140E+08         0.49297E+06         0.00000E+00
    0.49297E+06        -0.49974E+08         0.00000E+00
    0.00000E+00         0.00000E+00        -0.48903E+08
 
   -0.48155E+08         0.53049E+06         0.00000E+00
    0.53049E+06        -0.49970E+08         0.00000E+00
    0.00000E+00         0.00000E+00        -0.48903E+08
 
   -0.48170E+08         0.56769E+06         0.00000E+00
    0.56769E+06        -0.49966E+08         0.00000E+00
    0.00000E+00         0.00000E+00        -0.48904E+08
 
   -0.48186E+08         0.60455E+06         0.00000E+00
    0.60455E+06        -0.49961E+08         0.00000E+00
    0.00000E+00         0.00000E+00        -0.48905E+08
 
   -0.48202E+08         0.64108E+06         0.00000E+00
    0.64108E+06        -0.49956E+08         0.00000E+00
    0.00000E+00         0.00000E+00        -0.48906E+08
 
   -0.48219E+08         0.67725E+06         0.00000E+00
    0.67725E+06        -0.49951E+08         0.00000E+00
    0.00000E+00         0.00000E+00        -0.48907E+08
 
   -0.48236E+08         0.71307E+06         0.00000E+00
    0.71307E+06        -0.49945E+08         0.00000E+00
    0.00000E+00         0.00000E+00        -0.48908E+08
 
   -0.48253E+08         0.74852E+06         0.00000E+00
    0.74852E+06        -0.49939E+08         0.00000E+00
    0.00000E+00         0.00000E+00        -0.48908E+08
 
   -0.48271E+08         0.78361E+06         0.00000E+00
    0.78361E+06        -0.49933E+08         0.00000E+00
    0.00000E+00         0.00000E+00        -0.48909E+08
 
   -0.48289E+08         0.81832E+06         0.00000E+00
    0.81832E+06        -0.49927E+08         0.00000E+00
    0.00000E+00         0.00000E+00        -0.48910E+08
 
   -0.48308E+08         0.85264E+06         0.00000E+00
    0.85264E+06        -0.49920E+08         0.00000E+00
    0.00000E+00         0.00000E+00        -0.48911E+08
 
   -0.48327E+08         0.88658E+06         0.00000E+00
    0.88658E+06        -0.49913E+08         0.00000E+00
    0.00000E+00         0.00000E+00        -0.48912E+08
 
   -0.48346E+08         0.92012E+06         0.00000E+00
    0.92012E+06        -0.49906E+08         0.00000E+00
    0.00000E+00         0.00000E+00        -0.48913E+08
 
   -0.48366E+08         0.95326E+06         0.00000E+00
    0.95326E+06        -0.49899E+08         0.00000E+00
    0.00000E+00         0.00000E+00        -0.48914E+08
 
   -0.48386E+08         0.98599E+06         0.00000E+00
    0.98599E+06        -0.49891E+08         0.00000E+00
    0.00000E+00         0.00000E+00        -0.48915E+08
 
   -0.48406E+08         0.10183E+07         0.00000E+00
    0.10183E+07        -0.49883E+08         0.00000E+00
    0.00000E+00         0.00000E+00        -0.48916E+08
 
   -0.48427E+08         0.10502E+07         0.00000E+00
    0.10502E+07        -0.49875E+08         0.00000E+00
    0.00000E+00         0.00000E+00        -0.48917E+08
 
   -0.48448E+08         0.10817E+07         0.00000E+00
    0.10817E+07        -0.49867E+08         0.00000E+00
    0.00000E+00         0.00000E+00        -0.48918E+08
 
   -0.48469E+08         0.11127E+07         0.00000E+00
    0.11127E+07        -0.49858E+08         0.00000E+00
    0.00000E+00         0.00000E+00        -0.48919E+08
 
   -0.48490E+08         0.11434E+07         0.00000E+00
    0.11434E+07        -0.49849E+08         0.00000E+00
    0.00000E+00         0.00000E+00        -0.48920E+08
 
   -0.48512E+08         0.11736E+07         0.00000E+00
    0.11736E+07        -0.49840E+08         0.00000E+00
    0.00000E+00         0.00000E+00        -0.48920E+08
 
   -0.48534E+08         0.12033E+07         0.00000E+00
    0.12033E+07        -0.49831E+08         0.00000E+00
    0.00000E+00         0.00000E+00        -0.48921E+08
 
   -0.48556E+08         0.12326E+07         0.00000E+00
    0.12326E+07        -0.49821E+08         0.00000E+00
    0.00000E+00         0.00000E+00        -0.48922E+08
 
   -0.48579E+08         0.12615E+07         0.00000E+00
    0.12615E+07        -0.49811E+08         0.00000E+00
    0.00000E+00         0.00000E+00        -0.48923E+08
 
   -0.48602E+08         0.12899E+07         0.00000E+00
    0.12899E+07        -0.49801E+08         0.00000E+00
    0.00000E+00         0.00000E+00        -0.48924E+08
 
   -0.48625E+08         0.13178E+07         0.00000E+00
    0.13178E+07        -0.49791E+08         0.00000E+00
    0.00000E+00         0.00000E+00        -0.48924E+08
 
   -0.48648E+08         0.13453E+07         0.00000E+00
    0.13453E+07        -0.49781E+08         0.00000E+00
    0.00000E+00         0.00000E+00        -0.48925E+08
 
   -0.48671E+08         0.13723E+07         0.00000E+00
    0.13723E+07        -0.49770E+08         0.00000E+00
    0.00000E+00         0.00000E+00        -0.48926E+08
 
   -0.48695E+08         0.13989E+07         0.00000E+00
    0.13989E+07        -0.49759E+08         0.00000E+00
    0.00000E+00         0.00000E+00        -0.48926E+08
 
   -0.48719E+08         0.14250E+07         0.00000E+00
    0.14250E+07        -0.49748E+08         0.00000E+00
    0.00000E+00         0.00000E+00        -0.48927E+08
 
   -0.48743E+08         0.14506E+07         0.00000E+00
    0.14506E+07        -0.49737E+08         0.00000E+00
    0.00000E+00         0.00000E+00        -0.48927E+08
 
   -0.48767E+08         0.14758E+07         0.00000E+00
    0.14758E+07        -0.49726E+08         0.00000E+00
    0.00000E+00         0.00000E+00        -0.48928E+08
 
   -0.48792E+08         0.15004E+07         0.00000E+00
    0.15004E+07        -0.49714E+08         0.00000E+00
    0.00000E+00         0.00000E+00        -0.48928E+08
 
   -0.48817E+08         0.15246E+07         0.00000E+00
    0.15246E+07        -0.49702E+08         0.00000E+00
    0.00000E+00         0.00000E+00        -0.48929E+08
 
   -0.48841E+08         0.15483E+07         0.00000E+00
    0.15483E+07        -0.49690E+08         0.00000E+00
    0.00000E+00         0.00000E+00        -0.48929E+08
 
   -0.48866E+08         0.15715E+07         0.00000E+00
    0.15715E+07        -0.49678E+08         0.00000E+00
    0.00000E+00         0.00000E+00        -0.48929E+08
 
   -0.48891E+08         0.15943E+07         0.00000E+00
    0.15943E+07        -0.49666E+08         0.00000E+00
    0.00000E+00         0.00000E+00        -0.48929E+08
 
   -0.48917E+08         0.16165E+07         0.00000E+00
    0.16165E+07        -0.49653E+08         0.00000E+00
    0.00000E+00         0.00000E+00        -0.48929E+08
 
   -0.47790E+08         0.21523E+05         0.00000E+00
    0.21523E+05        -0.50000E+08         0.00000E+00
    0.00000E+00         0.00000E+00        -0.48783E+08
 
   -0.47800E+08         0.63996E+05         0.00000E+00
    0.63996E+05        -0.50000E+08         0.00000E+00
    0.00000E+00         0.00000E+00        -0.48784E+08
 
   -0.47811E+08         0.10624E+06         0.00000E+00
    0.10624E+06        -0.49999E+08         0.00000E+00
    0.00000E+00         0.00000E+00        -0.48784E+08
 
   -0.47822E+08         0.14826E+06         0.00000E+00
    0.14826E+06        -0.49998E+08         0.00000E+00
    0.00000E+00         0.00000E+00        -0.48784E+08
 
   -0.47834E+08         0.19002E+06         0.00000E+00
    0.19002E+06        -0.49996E+08         0.00000E+00
    0.00000E+00         0.00000E+00        -0.48784E+08
 
   -0.47846E+08         0.23153E+06         0.00000E+00
    0.23153E+06        -0.49994E+08         0.00000E+00
    0.00000E+00         0.00000E+00        -0.48785E+08
 
   -0.47859E+08         0.27276E+06         0.00000E+00
    0.27276E+06        -0.49992E+08         0.00000E+00
    0.00000E+00         0.00000E+00        -0.48785E+08
 
   -0.47872E+08         0.31372E+06         0.00000E+00
    0.31372E+06        -0.49990E+08         0.00000E+00
    0.00000E+00         0.00000E+00        -0.48785E+08
 
   -0.47886E+08         0.35439E+06         0.00000E+00
    0.35439E+06        -0.49987E+08         0.00000E+00
    0.00000E+00         0.00000E+00        -0.48786E+08
 
   -0.47901E+08         0.39475E+06         0.00000E+00
    0.39475E+06        -0.49983E+08         0.00000E+00
    0.00000E+00         0.00000E+00        -0.48787E+08
 
   -0.47916E+08         0.43481E+06         0.00000E+00
    0.43481E+06        -0.49980E+08         0.00000E+00
    0.00000E+00         0.00000E+00        -0.48787E+08
 
   -0.47931E+08         0.47454E+06         0.00000E+00
    0.47454E+06        -0.49976E+08         0.00000E+00
    0.00000E+00         0.00000E+00        -0.48788E+08
 
   -0.47947E+08         0.51395E+06         0.00000E+00
    0.51395E+06        -0.49972E+08         0.00000E+00
    0.00000E+00         0.00000E+00        -0.48789E+08
 
   -0.47964E+08         0.55302E+06         0.00000E+00
    0.55302E+06        -0.49967E+08         0.00000E+00
    0.00000E+00         0.00000E+00        -0.48790E+08
 
   -0.47981E+08         0.59175E+06         0.00000E+00
    0.59175E+06        -0.49962E+08         0.00000E+00
    0.00000E+00         0.00000E+00        -0.48790E+08
 
   -0.47999E+08         0.63012E+06         0.00000E+00
    0.63012E+06        -0.49957E+08         0.00000E+00
    0.00000E+00         0.00000E+00        -0.48791E+08
 
   -0.48017E+08         0.66813E+06         0.00000E+00
    0.66813E+06        -0.49952E+08         0.00000E+00
    0.00000E+00         0.00000E+00        -0.48792E+08
 
   -0.48035E+08         0.70577E+06         0.00000E+00
    0.70577E+06        -0.49946E+08         0.00000E+00
    0.00000E+00         0.00000E+00        -0.48793E+08
 
   -0.48054E+08         0.74304E+06         0.00000E+00
    0.74304E+06        -0.49940E+08         0.00000E+00
    0.00000E+00         0.00000E+00        -0.48794E+08
 
   -0.48073E+08         0.77992E+06         0.00000E+00
    0.77992E+06        -0.49933E+08         0.00000E+00
    0.00000E+00         0.00000E+00        -0.48795E+08
 
   -0.48093E+08         0.81642E+06         0.00000E+00
    0.81642E+06        -0.49926E+08         0.00000E+00
    0.00000E+00         0.00000E+00        -0.48796E+08
 
   -0.48113E+08         0.85251E+06         0.00000E+00
    0.85251E+06        -0.49919E+08         0.00000E+00
    0.00000E+00         0.00000E+00        -0.48797E+08
 
   -0.48134E+08         0.88821E+06         0.00000E+00
    0.88821E+06        -0.49912E+08         0.00000E+00
    0.00000E+00         0.00000E+00        -0.48798E+08
 
   -0.48155E+08         0.92350E+06         0.00000E+00
    0.92350E+06        -0.49905E+08         0.00000E+00
    0.00000E+00         0.00000E+00        -0.48799E+08
 
   -0.48176E+08         0.95837E+06         0.00000E+00
    0.95837E+06        -0.49897E+08         0.00000E+00
    0.00000E+00         0.00000E+00        -0.48800E+08
 
   -0.48198E+08         0.99282E+06         0.00000E+00
    0.99282E+06        -0.49889E+08         0.00000E+00
    0.00000E+00         0.00000E+00        -0.48801E+08
 
   -0.48220E+08         0.10269E+07         0.00000E+00
    0.10269E+07        -0.49880E+08         0.00000E+00
    0.00000E+00         0.00000E+00        -0.48802E+08
 
   -0.48242E+08         0.10605E+07         0.00000E+00
    0.10605E+07        -0.49871E+08         0.00000E+00
    0.00000E+00         0.00000E+00        -0.48803E+08
 
   -0.48265E+08         0.10936E+07         0.00000E+00
    0.10936E+07        -0.49862E+08         0.00000E+00
    0.00000E+00         0.00000E+00        -0.48804E+08
 
   -0.48288E+08         0.11263E+07         0.00000E+00
    0.11263E+07        -0.49853E+08         0.00000E+00
    0.00000E+00         0.00000E+00        -0.48806E+08
 
   -0.48312E+08         0.11586E+07         0.00000E+00
    0.11586E+07        -0.49844E+08         0.00000E+00
    0.00000E+00         0.00000E+00        -0.48807E+08
 
   -0.48335E+08         0.11904E+07         0.00000E+00
    0.11904E+07        -0.49834E+08         0.00000E+00
    0.00000E+00         0.00000E+00        -0.48808E+08
 
   -0.48359E+08         0.12218E+07         0.00000E+00
    0.12218E+07        -0.49824E+08         0.00000E+00
    0.00000E+00         0.00000E+00        -0.48808E+08
 
   -0.48384E+08         0.12527E+07         0.00000E+00
    0.12527E+07        -0.49814E+08         0.00000E+00
    0.00000E+00         0.00000E+00        -0.48809E+08
 
   -0.48408E+08         0.12832E+07         0.00000E+00
    0.12832E+07        -0.49803E+08         0.00000E+00
    0.00000E+00         0.00000E+00        -0.48810E+08
 
   -0.48433E+08         0.13132E+07         0.00000E+00
    0.13132E+07        -0.49793E+08         0.00000E+00
    0.00000E+00         0.00000E+00        -0.48811E+08
 
   -0.48458E+08         0.13427E+07         0.00000E+00
    0.13427E+07        -0.49782E+08         0.00000E+00
    0.00000E+00         0.00000E+00        -0.48812E+08
 
   -0.48483E+08         0.13718E+07         0.00000E+00
    0.13718E+07        -0.49771E+08         0.00000E+00
    0.00000E+00         0.00000E+00        -0.48813E+08
 
   -0.48509E+08         0.14004E+07         0.00000E+00
    0.14004E+07        -0.49759E+08         0.00000E+00
    0.00000E+00         0.00000E+00        -0.48814E+08
 
   -0.48535E+08         0.14285E+07         0.00000E+00
    0.14285E+07        -0.49747E+08         0.00000E+00
    0.00000E+00         0.00000E+00        -0.48814E+08
 
   -0.48561E+08         0.14561E+07         0.00000E+00
    0.14561E+07        -0.49736E+08         0.00000E+00
    0.00000E+00         0.00000E+00        -0.48815E+08
 
   -0.48587E+08         0.14833E+07         0.00000E+00
    0.14833E+07        -0.49724E+08         0.00000E+00
    0.00000E+00         0.00000E+00        -0.48816E+08
 
   -0.48614E+08         0.15099E+07         0.00000E+00
    0.15099E+07        -0.49711E+08         0.00000E+00
    0.00000E+00         0.00000E+00        -0.48816E+08
 
   -0.48640E+08         0.15361E+07         0.00000E+00
    0.15361E+07        -0.49699E+08         0.00000E+00
    0.00000E+00         0.00000E+00        -0.48817E+08
 
   -0.48667E+08         0.15618E+07         0.00000E+00
    0.15618E+07        -0.49686E+08         0.00000E+00
    0.00000E+00         0.00000E+00        -0.48817E+08
 
   -0.48694E+08         0.15869E+07         0.00000E+00
    0.15869E+07        -0.49673E+08         0.00000E+00
    0.00000E+00         0.00000E+00        -0.48817E+08
 
   -0.48722E+08         0.16116E+07         0.00000E+00
    0.16116E+07        -0.49660E+08         0.00000E+00
    0.00000E+00         0.00000E+00        -0.48818E+08
 
   -0.48749E+08         0.16358E+07         0.00000E+00
    0.16358E+07        -0.49646E+08         0.00000E+00
    0.00000E+00         0.00000E+00        -0.48818E+08
 
   -0.48777E+08         0.16595E+07         0.00000E+00
    0.16595E+07        -0.49633E+08         0.00000E+00
    0.00000E+00         0.00000E+00        -0.48818E+08
 
   -0.48804E+08         0.16827E+07         0.00000E+00
    0.16827E+07        -0.49619E+08         0.00000E+00
    0.00000E+00         0.00000E+00        -0.48818E+08
 
   -0.47573E+08         0.22528E+05         0.00000E+00
    0.22528E+05        -0.50000E+08         0.00000E+00
    0.00000E+00         0.00000E+00        -0.48664E+08
 
   -0.47584E+08         0.66958E+05         0.00000E+00
    0.66958E+05        -0.49999E+08         0.00000E+00
    0.00000E+00         0.00000E+00        -0.48664E+08
 
   -0.47595E+08         0.11114E+06         0.00000E+00
    0.11114E+06        -0.49999E+08         0.00000E+00
    0.00000E+00         0.00000E+00        -0.48664E+08
 
   -0.47608E+08         0.15507E+06         0.00000E+00
    0.15507E+06        -0.49997E+08         0.00000E+00
    0.00000E+00         0.00000E+00        -0.48664E+08
 
   -0.47621E+08         0.19873E+06         0.00000E+00
    0.19873E+06        -0.49996E+08         0.00000E+00
    0.00000E+00         0.00000E+00        -0.48665E+08
 
   -0.47634E+08         0.24210E+06         0.00000E+00
    0.24210E+06        -0.49994E+08         0.00000E+00
    0.00000E+00         0.00000E+00        -0.48665E+08
 
   -0.47649E+08         0.28519E+06         0.00000E+00
    0.28519E+06        -0.49991E+08         0.00000E+00
    0.00000E+00         0.00000E+00        -0.48666E+08
 
   -0.47664E+08         0.32797E+06         0.00000E+00
    0.32797E+06        -0.49989E+08         0.00000E+00
    0.00000E+00         0.00000E+00        -0.48666E+08
 
   -0.47679E+08         0.37044E+06         0.00000E+00
    0.37044E+06        -0.49985E+08         0.00000E+00
    0.00000E+00         0.00000E+00        -0.48667E+08
 
   -0.47695E+08         0.41259E+06         0.00000E+00
    0.41259E+06        -0.49982E+08         0.00000E+00
    0.00000E+00         0.00000E+00        -0.48667E+08
 
   -0.47712E+08         0.45441E+06         0.00000E+00
    0.45441E+06        -0.49978E+08         0.00000E+00
    0.00000E+00         0.00000E+00        -0.48668E+08
 
   -0.47729E+08         0.49588E+06         0.00000E+00
    0.49588E+06        -0.49974E+08         0.00000E+00
    0.00000E+00         0.00000E+00        -0.48669E+08
 
   -0.47747E+08         0.53700E+06         0.00000E+00
    0.53700E+06        -0.49969E+08         0.00000E+00
    0.00000E+00         0.00000E+00        -0.48670E+08
 
   -0.47765E+08         0.57776E+06         0.00000E+00
    0.57776E+06        -0.49964E+08         0.00000E+00
    0.00000E+00         0.00000E+00        -0.48671E+08
 
   -0.47784E+08         0.61816E+06         0.00000E+00
    0.61816E+06        -0.49959E+08         0.00000E+00
    0.00000E+00         0.00000E+00        -0.48672E+08
 
   -0.47804E+08         0.65818E+06         0.00000E+00
    0.65818E+06        -0.49953E+08         0.00000E+00
    0.00000E+00         0.00000E+00        -0.48673E+08
 
   -0.47824E+08         0.69781E+06         0.00000E+00
    0.69781E+06        -0.49947E+08         0.00000E+00
    0.00000E+00         0.00000E+00        -0.48674E+08
 
   -0.47844E+08         0.73706E+06         0.00000E+00
    0.73706E+06        -0.49941E+08         0.00000E+00
    0.00000E+00         0.00000E+00        -0.48675E+08
 
   -0.47865E+08         0.77590E+06         0.00000E+00
    0.77590E+06        -0.49934E+08         0.00000E+00
    0.00000E+00         0.00000E+00        -0.48676E+08
 
   -0.47886E+08         0.81435E+06         0.00000E+00
    0.81435E+06        -0.49927E+08         0.00000E+00
    0.00000E+00         0.00000E+00        -0.48677E+08
 
   -0.47908E+08         0.85238E+06         0.00000E+00
    0.85238E+06        -0.49920E+08         0.00000E+00
    0.00000E+00         0.00000E+00        -0.48678E+08
 
   -0.47930E+08         0.88999E+06         0.00000E+00
    0.88999E+06        -0.49912E+08         0.00000E+00
    0.00000E+00         0.00000E+00        -0.48679E+08
 
   -0.47953E+08         0.92718E+06         0.00000E+00
    0.92718E+06        -0.49904E+08         0.00000E+00
    0.00000E+00         0.00000E+00        -0.48680E+08
 
   -0.47976E+08         0.96394E+06         0.00000E+00
    0.96394E+06        -0.49896E+08         0.00000E+00
    0.00000E+00         0.00000E+00        -0.48681E+08
 
   -0.47999E+08         0.10003E+07         0.00000E+00
    0.10003E+07        -0.49887E+08         0.00000E+00
    0.00000E+00         0.00000E+00        -0.48683E+08
 
   -0.48023E+08         0.10362E+07         0.00000E+00
    0.10362E+07        -0.49878E+08         0.00000E+00
    0.00000E+00         0.00000E+00        -0.48684E+08
 
   -0.48047E+08         0.10716E+07         0.00000E+00
    0.10716E+07        -0.49869E+08         0.00000E+00
    0.00000E+00         0.00000E+00        -0.48685E+08
 
   -0.48072E+08         0.11066E+07         0.00000E+00
    0.11066E+07        -0.49859E+08         0.00000E+00
    0.00000E+00         0.00000E+00        -0.48686E+08
 
   -0.48097E+08         0.11411E+07         0.00000E+00
    0.11411E+07        -0.49850E+08         0.00000E+00
    0.00000E+00         0.00000E+00        -0.48687E+08
 
   -0.48122E+08         0.11752E+07         0.00000E+00
    0.11752E+07        -0.49840E+08         0.00000E+00
    0.00000E+00         0.00000E+00        -0.48688E+08
 
   -0.48148E+08         0.12088E+07         0.00000E+00
    0.12088E+07        -0.49829E+08         0.00000E+00
    0.00000E+00         0.00000E+00        -0.48689E+08
 
   -0.48174E+08         0.12420E+07         0.00000E+00
    0.12420E+07        -0.49819E+08         0.00000E+00
    0.00000E+00         0.00000E+00        -0.48691E+08
 
   -0.48200E+08         0.12746E+07         0.00000E+00
    0.12746E+07        -0.49808E+08         0.00000E+00
    0.00000E+00         0.00000E+00        -0.48692E+08
 
   -0.48227E+08         0.13069E+07         0.00000E+00
    0.13069E+07        -0.49797E+08         0.00000E+00
    0.00000E+00         0.00000E+00        -0.48693E+08
 
   -0.48254E+08         0.13386E+07         0.00000E+00
    0.13386E+07        -0.49785E+08         0.00000E+00
    0.00000E+00         0.00000E+00        -0.48694E+08
 
   -0.48281E+08         0.13698E+07         0.00000E+00
    0.13698E+07        -0.49773E+08         0.00000E+00
    0.00000E+00         0.00000E+00        -0.48695E+08
 
   -0.48309E+08         0.14006E+07         0.00000E+00
    0.14006E+07        -0.49761E+08         0.00000E+00
    0.00000E+00         0.00000E+00        -0.48696E+08
 
   -0.48336E+08         0.14309E+07         0.00000E+00
    0.14309E+07        -0.49749E+08         0.00000E+00
    0.00000E+00         0.00000E+00        -0.48696E+08
 
   -0.48364E+08         0.14606E+07         0.00000E+00
    0.14606E+07        -0.49737E+08         0.00000E+00
    0.00000E+00         0.00000E+00        -0.48697E+08
 
   -0.48393E+08         0.14899E+07         0.00000E+00
    0.14899E+07        -0.49724E+08         0.00000E+00
    0.00000E+00         0.00000E+00        -0.48698E+08
 
   -0.48421E+08         0.15187E+07         0.00000E+00
    0.15187E+07        -0.49711E+08         0.00000E+00
    0.00000E+00         0.00000E+00        -0.48699E+08
 
   -0.48450E+08         0.15470E+07         0.00000E+00
    0.15470E+07        -0.49698E+08         0.00000E+00
    0.00000E+00         0.00000E+00        -0.48699E+08
 
   -0.48479E+08         0.15748E+07         0.00000E+00
    0.15748E+07        -0.49685E+08         0.00000E+00
    0.00000E+00         0.00000E+00        -0.48700E+08
 
   -0.48508E+08         0.16021E+07         0.00000E+00
    0.16021E+07        -0.49671E+08         0.00000E+00
    0.00000E+00         0.00000E+00        -0.48701E+08
 
   -0.48537E+08         0.16289E+07         0.00000E+00
    0.16289E+07        -0.49657E+08         0.00000E+00
    0.00000E+00         0.00000E+00        -0.48701E+08
 
   -0.48567E+08         0.16551E+07         0.00000E+00
    0.16551E+07        -0.49643E+08         0.00000E+00
    0.00000E+00         0.00000E+00        -0.48701E+08
 
   -0.48597E+08         0.16809E+07         0.00000E+00
    0.16809E+07        -0.49629E+08         0.00000E+00
    0.00000E+00         0.00000E+00        -0.48702E+08
 
   -0.48627E+08         0.17062E+07         0.00000E+00
    0.17062E+07        -0.49614E+08         0.00000E+00
    0.00000E+00         0.00000E+00        -0.48702E+08
 
   -0.48657E+08         0.17309E+07         0.00000E+00
    0.17309E+07        -0.49599E+08         0.00000E+00
    0.00000E+00         0.00000E+00        -0.48702E+08
 
   -0.48687E+08         0.17551E+07         0.00000E+00
    0.17551E+07        -0.49584E+08         0.00000E+00
    0.00000E+00         0.00000E+00        -0.48702E+08
 
   -0.47345E+08         0.23634E+05         0.00000E+00
    0.23634E+05        -0.50000E+08         0.00000E+00
    0.00000E+00         0.00000E+00        -0.48539E+08
 
   -0.47357E+08         0.70209E+05         0.00000E+00
    0.70209E+05        -0.49999E+08         0.00000E+00
    0.00000E+00         0.00000E+00        -0.48539E+08
 
   -0.47370E+08         0.11651E+06         0.00000E+00
    0.11651E+06        -0.49999E+08         0.00000E+00
    0.00000E+00         0.00000E+00        -0.48539E+08
 
   -0.47384E+08         0.16254E+06         0.00000E+00
    0.16254E+06        -0.49997E+08         0.00000E+00
    0.00000E+00         0.00000E+00        -0.48539E+08
 
   -0.47398E+08         0.20827E+06         0.00000E+00
    0.20827E+06        -0.49995E+08         0.00000E+00
    0.00000E+00         0.00000E+00        -0.48540E+08
 
   -0.47413E+08         0.25369E+06         0.00000E+00
    0.25369E+06        -0.49993E+08         0.00000E+00
    0.00000E+00         0.00000E+00        -0.48540E+08
 
   -0.47429E+08         0.29879E+06         0.00000E+00
    0.29879E+06        -0.49991E+08         0.00000E+00
    0.00000E+00         0.00000E+00        -0.48541E+08
 
   -0.47446E+08         0.34357E+06         0.00000E+00
    0.34357E+06        -0.49988E+08         0.00000E+00
    0.00000E+00         0.00000E+00        -0.48541E+08
 
   -0.47463E+08         0.38801E+06         0.00000E+00
    0.38801E+06        -0.49984E+08         0.00000E+00
    0.00000E+00         0.00000E+00        -0.48542E+08
 
   -0.47481E+08         0.43210E+06         0.00000E+00
    0.43210E+06        -0.49980E+08         0.00000E+00
    0.00000E+00         0.00000E+00        -0.48543E+08
 
   -0.47499E+08         0.47583E+06         0.00000E+00
    0.47583E+06        -0.49976E+08         0.00000E+00
    0.00000E+00         0.00000E+00        -0.48544E+08
 
   -0.47518E+08         0.51919E+06         0.00000E+00
    0.51919E+06        -0.49971E+08         0.00000E+00
    0.00000E+00         0.00000E+00        -0.48544E+08
 
   -0.47538E+08         0.56218E+06         0.00000E+00
    0.56218E+06        -0.49966E+08         0.00000E+00
    0.00000E+00         0.00000E+00        -0.48545E+08
 
   -0.47558E+08         0.60478E+06         0.00000E+00
    0.60478E+06        -0.49961E+08         0.00000E+00
    0.00000E+00         0.00000E+00        -0.48546E+08
 
   -0.47579E+08         0.64699E+06         0.00000E+00
    0.64699E+06        -0.49955E+08         0.00000E+00
    0.00000E+00         0.00000E+00        -0.48547E+08
 
   -0.47600E+08         0.68879E+06         0.00000E+00
    0.68879E+06        -0.49949E+08         0.00000E+00
    0.00000E+00         0.00000E+00        -0.48548E+08
 
   -0.47622E+08         0.73019E+06         0.00000E+00
    0.73019E+06        -0.49942E+08         0.00000E+00
    0.00000E+00         0.00000E+00        -0.48550E+08
 
   -0.47644E+08         0.77118E+06         0.00000E+00
    0.77118E+06        -0.49935E+08         0.00000E+00
    0.00000E+00         0.00000E+00        -0.48551E+08
 
   -0.47667E+08         0.81174E+06         0.00000E+00
    0.81174E+06        -0.49928E+08         0.00000E+00
    0.00000E+00         0.00000E+00        -0.48552E+08
 
   -0.47691E+08         0.85187E+06         0.00000E+00
    0.85187E+06        -0.49920E+08         0.00000E+00
    0.00000E+00         0.00000E+00        -0.48553E+08
 
   -0.47715E+08         0.89157E+06         0.00000E+00
    0.89157E+06        -0.49912E+08         0.00000E+00
    0.00000E+00         0.00000E+00        -0.48554E+08
 
   -0.47739E+08         0.93082E+06         0.00000E+00
    0.93082E+06        -0.49904E+08         0.00000E+00
    0.00000E+00         0.00000E+00        -0.48556E+08
 
   -0.47764E+08         0.96963E+06         0.00000E+00
    0.96963E+06        -0.49895E+08         0.00000E+00
    0.00000E+00         0.00000E+00        -0.48557E+08
 
   -0.47789E+08         0.10080E+07         0.00000E+00
    0.10080E+07        -0.49886E+08         0.00000E+00
    0.00000E+00         0.00000E+00        -0.48558E+08
 
   -0.47815E+08         0.10459E+07         0.00000E+00
    0.10459E+07        -0.49877E+08         0.00000E+00
    0.00000E+00         0.00000E+00        -0.48559E+08
 
   -0.47841E+08         0.10833E+07         0.00000E+00
    0.10833E+07        -0.49867E+08         0.00000E+00
    0.00000E+00         0.00000E+00        -0.48561E+08
 
   -0.47868E+08         0.11203E+07         0.00000E+00
    0.11203E+07        -0.49857E+08         0.00000E+00
    0.00000E+00         0.00000E+00        -0.48562E+08
 
   -0.47894E+08         0.11568E+07         0.00000E+00
    0.11568E+07        -0.49847E+08         0.00000E+00
    0.00000E+00         0.00000E+00        -0.48563E+08
 
   -0.47922E+08         0.11928E+07         0.00000E+00
    0.11928E+07        -0.49836E+08         0.00000E+00
    0.00000E+00         0.00000E+00        -0.48564E+08
 
   -0.47949E+08         0.12284E+07         0.00000E+00
    0.12284E+07        -0.49825E+08         0.00000E+00
    0.00000E+00         0.00000E+00        -0.48566E+08
 
   -0.47978E+08         0.12634E+07         0.00000E+00
    0.12634E+07        -0.49814E+08         0.00000E+00
    0.00000E+00         0.00000E+00        -0.48567E+08
 
   -0.48006E+08         0.12980E+07         0.00000E+00
    0.12980E+07        -0.49803E+08         0.00000E+00
    0.00000E+00         0.00000E+00        -0.48568E+08
 
   -0.48035E+08         0.13321E+07         0.00000E+00
    0.13321E+07        -0.49791E+08         0.00000E+00
    0.00000E+00         0.00000E+00        -0.48569E+08
 
   -0.48064E+08         0.13657E+07         0.00000E+00
    0.13657E+07        -0.49779E+08         0.00000E+00
    0.00000E+00         0.00000E+00        -0.48570E+08
 
   -0.48093E+08         0.13988E+07         0.00000E+00
    0.13988E+07        -0.49766E+08         0.00000E+00
    0.00000E+00         0.00000E+00        -0.48572E+08
 
   -0.48123E+08         0.14314E+07         0.00000E+00
    0.14314E+07        -0.49754E+08         0.00000E+00
    0.00000E+00         0.00000E+00        -0.48573E+08
 
   -0.48153E+08         0.14635E+07         0.00000E+00
    0.14635E+07        -0.49741E+08         0.00000E+00
    0.00000E+00         0.00000E+00        -0.48574E+08
 
   -0.48183E+08         0.14951E+07         0.00000E+00
    0.14951E+07        -0.49728E+08         0.00000E+00
    0.00000E+00         0.00000E+00        -0.48575E+08
 
   -0.48213E+08         0.15262E+07         0.00000E+00
    0.15262E+07        -0.49714E+08         0.00000E+00
    0.00000E+00         0.00000E+00        -0.48575E+08
 
   -0.48244E+08         0.15568E+07         0.00000E+00
    0.15568E+07        -0.49700E+08         0.00000E+00
    0.00000E+00         0.00000E+00        -0.48576E+08
 
   -0.48275E+08         0.15868E+07         0.00000E+00
    0.15868E+07        -0.49686E+08         0.00000E+00
    0.00000E+00         0.00000E+00        -0.48577E+08
 
   -0.48307E+08         0.16164E+07         0.00000E+00
    0.16164E+07        -0.49672E+08         0.00000E+00
    0.00000E+00         0.00000E+00        -0.48578E+08
 
   -0.48338E+08         0.16454E+07         0.00000E+00
    0.16454E+07        -0.49657E+08         0.00000E+00
    0.00000E+00         0.00000E+00        -0.48579E+08
 
   -0.48370E+08         0.16739E+07         0.00000E+00
    0.16739E+07        -0.49643E+08         0.00000E+00
    0.00000E+00         0.00000E+00        -0.48579E+08
 
   -0.48402E+08         0.17019E+07         0.00000E+00
    0.17019E+07        -0.49627E+08         0.00000E+00
    0.00000E+00         0.00000E+00        -0.48580E+08
 
   -0.48434E+08         0.17294E+07         0.00000E+00
    0.17294E+07        -0.49612E+08         0.00000E+00
    0.00000E+00         0.00000E+00        -0.48580E+08
 
   -0.48466E+08         0.17563E+07         0.00000E+00
    0.17563E+07        -0.49597E+08         0.00000E+00
    0.00000E+00         0.00000E+00        -0.48580E+08
 
   -0.48499E+08         0.17827E+07         0.00000E+00
    0.17827E+07        -0.49581E+08         0.00000E+00
    0.00000E+00         0.00000E+00        -0.48581E+08
 
   -0.48532E+08         0.18086E+07         0.00000E+00
    0.18086E+07        -0.49565E+08         0.00000E+00
    0.00000E+00         0.00000E+00        -0.48581E+08
 
   -0.48565E+08         0.18340E+07         0.00000E+00
    0.18340E+07        -0.49548E+08         0.00000E+00
    0.00000E+00         0.00000E+00        -0.48581E+08
 
   -0.47105E+08         0.24844E+05         0.00000E+00
    0.24844E+05        -0.50000E+08         0.00000E+00
    0.00000E+00         0.00000E+00        -0.48408E+08
 
   -0.47119E+08         0.73761E+05         0.00000E+00
    0.73761E+05        -0.49999E+08         0.00000E+00
    0.00000E+00         0.00000E+00        -0.48408E+08
 
   -0.47133E+08         0.12238E+06         0.00000E+00
    0.12238E+06        -0.49998E+08         0.00000E+00
    0.00000E+00         0.00000E+00        -0.48408E+08
 
   -0.47149E+08         0.17068E+06         0.00000E+00
    0.17068E+06        -0.49997E+08         0.00000E+00
    0.00000E+00         0.00000E+00        -0.48408E+08
 
   -0.47165E+08         0.21867E+06         0.00000E+00
    0.21867E+06        -0.49995E+08         0.00000E+00
    0.00000E+00         0.00000E+00        -0.48409E+08
 
   -0.47181E+08         0.26631E+06         0.00000E+00
    0.26631E+06        -0.49993E+08         0.00000E+00
    0.00000E+00         0.00000E+00        -0.48409E+08
 
   -0.47199E+08         0.31361E+06         0.00000E+00
    0.31361E+06        -0.49990E+08         0.00000E+00
    0.00000E+00         0.00000E+00        -0.48410E+08
 
   -0.47217E+08         0.36055E+06         0.00000E+00
    0.36055E+06        -0.49986E+08         0.00000E+00
    0.00000E+00         0.00000E+00        -0.48410E+08
 
   -0.47236E+08         0.40712E+06         0.00000E+00
    0.40712E+06        -0.49983E+08         0.00000E+00
    0.00000E+00         0.00000E+00        -0.48411E+08
 
   -0.47256E+08         0.45332E+06         0.00000E+00
    0.45332E+06        -0.49978E+08         0.00000E+00
    0.00000E+00         0.00000E+00        -0.48412E+08
 
   -0.47276E+08         0.49912E+06         0.00000E+00
    0.49912E+06        -0.49974E+08         0.00000E+00
    0.00000E+00         0.00000E+00        -0.48413E+08
 
   -0.47297E+08         0.54453E+06         0.00000E+00
    0.54453E+06        -0.49969E+08         0.00000E+00
    0.00000E+00         0.00000E+00        -0.48414E+08
 
   -0.47319E+08         0.58953E+06         0.00000E+00
    0.58953E+06        -0.49963E+08         0.00000E+00
    0.00000E+00         0.00000E+00        -0.48415E+08
 
   -0.47341E+08         0.63412E+06         0.00000E+00
    0.63412E+06        -0.49957E+08         0.00000E+00
    0.00000E+00         0.00000E+00        -0.48416E+08
 
   -0.47364E+08         0.67829E+06         0.00000E+00
    0.67829E+06        -0.49951E+08         0.00000E+00
    0.00000E+00         0.00000E+00        -0.48417E+08
 
   -0.47387E+08         0.72203E+06         0.00000E+00
    0.72203E+06        -0.49944E+08         0.00000E+00
    0.00000E+00         0.00000E+00        -0.48418E+08
 
   -0.47411E+08         0.76533E+06         0.00000E+00
    0.76533E+06        -0.49937E+08         0.00000E+00
    0.00000E+00         0.00000E+00        -0.48419E+08
 
   -0.47436E+08         0.80819E+06         0.00000E+00
    0.80819E+06        -0.49930E+08         0.00000E+00
    0.00000E+00         0.00000E+00        -0.48421E+08
 
   -0.47461E+08         0.85060E+06         0.00000E+00
    0.85060E+06        -0.49922E+08         0.00000E+00
    0.00000E+00         0.00000E+00        -0.48422E+08
 
   -0.47487E+08         0.89255E+06         0.00000E+00
    0.89255E+06        -0.49914E+08         0.00000E+00
    0.00000E+00         0.00000E+00        -0.48423E+08
 
   -0.47513E+08         0.93404E+06         0.00000E+00
    0.93404E+06        -0.49905E+08         0.00000E+00
    0.00000E+00         0.00000E+00        -0.48425E+08
 
   -0.47540E+08         0.97507E+06         0.00000E+00
    0.97507E+06        -0.49896E+08         0.00000E+00
    0.00000E+00         0.00000E+00        -0.48426E+08
 
   -0.47567E+08         0.10156E+07         0.00000E+00
    0.10156E+07        -0.49887E+08         0.00000E+00
    0.00000E+00         0.00000E+00        -0.48427E+08
 
   -0.47594E+08         0.10557E+07         0.00000E+00
    0.10557E+07        -0.49877E+08         0.00000E+00
    0.00000E+00         0.00000E+00        -0.48429E+08
 
   -0.47622E+08         0.10953E+07         0.00000E+00
    0.10953E+07        -0.49867E+08         0.00000E+00
    0.00000E+00         0.00000E+00        -0.48430E+08
 
   -0.47651E+08         0.11344E+07         0.00000E+00
    0.11344E+07        -0.49856E+08         0.00000E+00
    0.00000E+00         0.00000E+00        -0.48432E+08
 
   -0.47680E+08         0.11730E+07         0.00000E+00
    0.11730E+07        -0.49846E+08         0.00000E+00
    0.00000E+00         0.00000E+00        -0.48433E+08
 
   -0.47709E+08         0.12112E+07         0.00000E+00
    0.12112E+07        -0.49834E+08         0.00000E+00
    0.00000E+00         0.00000E+00        -0.48434E+08
 
   -0.47739E+08         0.12488E+07         0.00000E+00
    0.12488E+07        -0.49823E+08         0.00000E+00
    0.00000E+00         0.00000E+00        -0.48436E+08
 
   -0.47769E+08         0.12859E+07         0.00000E+00
    0.12859E+07        -0.49811E+08         0.00000E+00
    0.00000E+00         0.00000E+00        -0.48437E+08
 
   -0.47800E+08         0.13226E+07         0.00000E+00
    0.13226E+07        -0.49799E+08         0.00000E+00
    0.00000E+00         0.00000E+00        -0.48438E+08
 
   -0.47830E+08         0.13587E+07         0.00000E+00
    0.13587E+07        -0.49787E+08         0.00000E+00
    0.00000E+00         0.00000E+00        -0.48440E+08
 
   -0.47862E+08         0.13943E+07         0.00000E+00
    0.13943E+07        -0.49774E+08         0.00000E+00
    0.00000E+00         0.00000E+00        -0.48441E+08
 
   -0.47893E+08         0.14294E+07         0.00000E+00
    0.14294E+07        -0.49761E+08         0.00000E+00
    0.00000E+00         0.00000E+00        -0.48442E+08
 
   -0.47925E+08         0.14640E+07         0.00000E+00
    0.14640E+07        -0.49747E+08         0.00000E+00
    0.00000E+00         0.00000E+00        -0.48443E+08
 
   -0.47957E+08         0.14980E+07         0.00000E+00
    0.14980E+07        -0.49734E+08         0.00000E+00
    0.00000E+00         0.00000E+00        -0.48445E+08
 
   -0.47990E+08         0.15316E+07         0.00000E+00
    0.15316E+07        -0.49720E+08         0.00000E+00
    0.00000E+00         0.00000E+00        -0.48446E+08
 
   -0.48023E+08         0.15646E+07         0.00000E+00
    0.15646E+07        -0.49705E+08         0.00000E+00
    0.00000E+00         0.00000E+00        -0.48447E+08
 
   -0.48056E+08         0.15971E+07         0.00000E+00
    0.15971E+07        -0.49691E+08         0.00000E+00
    0.00000E+00         0.00000E+00        -0.48448E+08
 
   -0.48089E+08         0.16291E+07         0.00000E+00
    0.16291E+07        -0.49676E+08         0.00000E+00
    0.00000E+00         0.00000E+00        -0.48449E+08
 
   -0.48123E+08         0.16605E+07         0.00000E+00
    0.16605E+07        -0.49661E+08         0.00000E+00
    0.00000E+00         0.00000E+00        -0.48450E+08
 
   -0.48157E+08         0.16914E+07         0.00000E+00
    0.16914E+07        -0.49645E+08         0.00000E+00
    0.00000E+00         0.00000E+00        -0.48450E+08
 
   -0.48191E+08         0.17218E+07         0.00000E+00
    0.17218E+07        -0.49630E+08         0.00000E+00
    0.00000E+00         0.00000E+00        -0.48451E+08
 
   -0.48225E+08         0.17517E+07         0.00000E+00
    0.17517E+07        -0.49614E+08         0.00000E+00
    0.00000E+00         0.00000E+00        -0.48452E+08
 
   -0.48260E+08         0.17810E+07         0.00000E+00
    0.17810E+07        -0.49597E+08         0.00000E+00
    0.00000E+00         0.00000E+00        -0.48452E+08
 
   -0.48295E+08         0.18098E+07         0.00000E+00
    0.18098E+07        -0.49581E+08         0.00000E+00
    0.00000E+00         0.00000E+00        -0.48453E+08
 
   -0.48330E+08         0.18380E+07         0.00000E+00
    0.18380E+07        -0.49564E+08         0.00000E+00
    0.00000E+00         0.00000E+00        -0.48453E+08
 
   -0.48365E+08         0.18657E+07         0.00000E+00
    0.18657E+07        -0.49547E+08         0.00000E+00
    0.00000E+00         0.00000E+00        -0.48453E+08
 
   -0.48400E+08         0.18929E+07         0.00000E+00
    0.18929E+07        -0.49529E+08         0.00000E+00
    0.00000E+00         0.00000E+00        -0.48454E+08
 
   -0.48436E+08         0.19195E+07         0.00000E+00
    0.19195E+07        -0.49512E+08         0.00000E+00
    0.00000E+00         0.00000E+00        -0.48454E+08
 
   -0.46854E+08         0.26163E+05         0.00000E+00
    0.26163E+05        -0.50000E+08         0.00000E+00
    0.00000E+00         0.00000E+00        -0.48270E+08
 
   -0.46869E+08         0.77623E+05         0.00000E+00
    0.77623E+05        -0.49999E+08         0.00000E+00
    0.00000E+00         0.00000E+00        -0.48270E+08
 
   -0.46885E+08         0.12875E+06         0.00000E+00
    0.12875E+06        -0.49998E+08         0.00000E+00
    0.00000E+00         0.00000E+00        -0.48270E+08
 
   -0.46902E+08         0.17953E+06         0.00000E+00
    0.17953E+06        -0.49997E+08         0.00000E+00
    0.00000E+00         0.00000E+00        -0.48270E+08
 
   -0.46920E+08         0.22995E+06         0.00000E+00
    0.22995E+06        -0.49995E+08         0.00000E+00
    0.00000E+00         0.00000E+00        -0.48271E+08
 
   -0.46938E+08         0.28000E+06         0.00000E+00
    0.28000E+06        -0.49992E+08         0.00000E+00
    0.00000E+00         0.00000E+00        -0.48271E+08
 
   -0.46958E+08         0.32967E+06         0.00000E+00
    0.32967E+06        -0.49989E+08         0.00000E+00
    0.00000E+00         0.00000E+00        -0.48272E+08
 
   -0.46978E+08         0.37895E+06         0.00000E+00
    0.37895E+06        -0.49985E+08         0.00000E+00
    0.00000E+00         0.00000E+00        -0.48273E+08
 
   -0.46999E+08         0.42783E+06         0.00000E+00
    0.42783E+06        -0.49981E+08         0.00000E+00
    0.00000E+00         0.00000E+00        -0.48273E+08
 
   -0.47020E+08         0.47629E+06         0.00000E+00
    0.47629E+06        -0.49977E+08         0.00000E+00
    0.00000E+00         0.00000E+00        -0.48274E+08
 
   -0.47043E+08         0.52433E+06         0.00000E+00
    0.52433E+06        -0.49972E+08         0.00000E+00
    0.00000E+00         0.00000E+00        -0.48275E+08
 
   -0.47066E+08         0.57194E+06         0.00000E+00
    0.57194E+06        -0.49966E+08         0.00000E+00
    0.00000E+00         0.00000E+00        -0.48276E+08
 
   -0.47089E+08         0.61911E+06         0.00000E+00
    0.61911E+06        -0.49960E+08         0.00000E+00
    0.00000E+00         0.00000E+00        -0.48278E+08
 
   -0.47114E+08         0.66584E+06         0.00000E+00
    0.66584E+06        -0.49954E+08         0.00000E+00
    0.00000E+00         0.00000E+00        -0.48279E+08
 
   -0.47139E+08         0.71211E+06         0.00000E+00
    0.71211E+06        -0.49947E+08         0.00000E+00
    0.00000E+00         0.00000E+00        -0.48280E+08
 
   -0.47165E+08         0.75792E+06         0.00000E+00
    0.75792E+06        -0.49940E+08         0.00000E+00
    0.00000E+00         0.00000E+00        -0.48281E+08
 
   -0.47191E+08         0.80327E+06         0.00000E+00
    0.80327E+06        -0.49932E+08         0.00000E+00
    0.00000E+00         0.00000E+00        -0.48283E+08
 
   -0.47218E+08         0.84814E+06         0.00000E+00
    0.84814E+06        -0.49924E+08         0.00000E+00
    0.00000E+00         0.00000E+00        -0.48284E+08
 
   -0.47245E+08         0.89253E+06         0.00000E+00
    0.89253E+06        -0.49916E+08         0.00000E+00
    0.00000E+00         0.00000E+00        -0.48285E+08
 
   -0.47273E+08         0.93644E+06         0.00000E+00
    0.93644E+06        -0.49907E+08         0.00000E+00
    0.00000E+00         0.00000E+00        -0.48287E+08
 
   -0.47302E+08         0.97986E+06         0.00000E+00
    0.97986E+06        -0.49898E+08         0.00000E+00
    0.00000E+00         0.00000E+00        -0.48288E+08
 
   -0.47331E+08         0.10228E+07         0.00000E+00
    0.10228E+07        -0.49888E+08         0.00000E+00
    0.00000E+00         0.00000E+00        -0.48290E+08
 
   -0.47360E+08         0.10652E+07         0.00000E+00
    0.10652E+07        -0.49878E+08         0.00000E+00
    0.00000E+00         0.00000E+00        -0.48291E+08
 
   -0.47391E+08         0.11071E+07         0.00000E+00
    0.11071E+07        -0.49867E+08         0.00000E+00
    0.00000E+00         0.00000E+00        -0.48293E+08
 
   -0.47421E+08         0.11485E+07         0.00000E+00
    0.11485E+07        -0.49856E+08         0.00000E+00
    0.00000E+00         0.00000E+00        -0.48294E+08
 
   -0.47452E+08         0.11895E+07         0.00000E+00
    0.11895E+07        -0.49845E+08         0.00000E+00
    0.00000E+00         0.00000E+00        -0.48296E+08
 
   -0.47484E+08         0.12298E+07         0.00000E+00
    0.12298E+07        -0.49834E+08         0.00000E+00
    0.00000E+00         0.00000E+00        -0.48297E+08
 
   -0.47515E+08         0.12697E+07         0.00000E+00
    0.12697E+07        -0.49822E+08         0.00000E+00
    0.00000E+00         0.00000E+00        -0.48299E+08
 
   -0.47548E+08         0.13091E+07         0.00000E+00
    0.13091E+07        -0.49809E+08         0.00000E+00
    0.00000E+00         0.00000E+00        -0.48300E+08
 
   -0.47580E+08         0.13479E+07         0.00000E+00
    0.13479E+07        -0.49797E+08         0.00000E+00
    0.00000E+00         0.00000E+00        -0.48302E+08
 
   -0.47614E+08         0.13862E+07         0.00000E+00
    0.13862E+07        -0.49784E+08         0.00000E+00
    0.00000E+00         0.00000E+00        -0.48303E+08
 
   -0.47647E+08         0.14240E+07         0.00000E+00
    0.14240E+07        -0.49770E+08         0.00000E+00
    0.00000E+00         0.00000E+00        -0.48305E+08
 
   -0.47681E+08         0.14612E+07         0.00000E+00
    0.14612E+07        -0.49757E+08         0.00000E+00
    0.00000E+00         0.00000E+00        -0.48306E+08
 
   -0.47715E+08         0.14980E+07         0.00000E+00
    0.14980E+07        -0.49743E+08         0.00000E+00
    0.00000E+00         0.00000E+00        -0.48307E+08
 
   -0.47750E+08         0.15341E+07         0.00000E+00
    0.15341E+07        -0.49728E+08         0.00000E+00
    0.00000E+00         0.00000E+00        -0.48309E+08
 
   -0.47784E+08         0.15698E+07         0.00000E+00
    0.15698E+07        -0.49714E+08         0.00000E+00
    0.00000E+00         0.00000E+00        -0.48310E+08
 
   -0.47820E+08         0.16049E+07         0.00000E+00
    0.16049E+07        -0.49698E+08         0.00000E+00
    0.00000E+00         0.00000E+00        -0.48311E+08
 
   -0.47855E+08         0.16395E+07         0.00000E+00
    0.16395E+07        -0.49683E+08         0.00000E+00
    0.00000E+00         0.00000E+00        -0.48312E+08
 
   -0.47891E+08         0.16735E+07         0.00000E+00
    0.16735E+07        -0.49667E+08         0.00000E+00
    0.00000E+00         0.00000E+00        -0.48313E+08
 
   -0.47927E+08         0.17070E+07         0.00000E+00
    0.17070E+07        -0.49651E+08         0.00000E+00
    0.00000E+00         0.00000E+00        -0.48314E+08
 
   -0.47963E+08         0.17399E+07         0.00000E+00
    0.17399E+07        -0.49635E+08         0.00000E+00
    0.00000E+00         0.00000E+00        -0.48315E+08
 
   -0.48000E+08         0.17723E+07         0.00000E+00
    0.17723E+07        -0.49619E+08         0.00000E+00
    0.00000E+00         0.00000E+00        -0.48316E+08
 
   -0.48037E+08         0.18042E+07         0.00000E+00
    0.18042E+07        -0.49602E+08         0.00000E+00
    0.00000E+00         0.00000E+00        -0.48317E+08
 
   -0.48074E+08         0.18355E+07         0.00000E+00
    0.18355E+07        -0.49584E+08         0.00000E+00
    0.00000E+00         0.00000E+00        -0.48318E+08
 
   -0.48111E+08         0.18662E+07         0.00000E+00
    0.18662E+07        -0.49567E+08         0.00000E+00
    0.00000E+00         0.00000E+00        -0.48318E+08
 
   -0.48149E+08         0.18964E+07         0.00000E+00
    0.18964E+07        -0.49549E+08         0.00000E+00
    0.00000E+00         0.00000E+00        -0.48319E+08
 
   -0.48186E+08         0.19261E+07         0.00000E+00
    0.19261E+07        -0.49531E+08         0.00000E+00
    0.00000E+00         0.00000E+00        -0.48319E+08
 
   -0.48224E+08         0.19552E+07         0.00000E+00
    0.19552E+07        -0.49513E+08         0.00000E+00
    0.00000E+00         0.00000E+00        -0.48320E+08
 
   -0.48262E+08         0.19837E+07         0.00000E+00
    0.19837E+07        -0.49494E+08         0.00000E+00
    0.00000E+00         0.00000E+00        -0.48320E+08
 
   -0.48301E+08         0.20117E+07         0.00000E+00
    0.20117E+07        -0.49475E+08         0.00000E+00
    0.00000E+00         0.00000E+00        -0.48320E+08
 
   -0.46589E+08         0.27594E+05         0.00000E+00
    0.27594E+05        -0.50000E+08         0.00000E+00
    0.00000E+00         0.00000E+00        -0.48124E+08
 
   -0.46606E+08         0.81806E+05         0.00000E+00
    0.81806E+05        -0.49999E+08         0.00000E+00
    0.00000E+00         0.00000E+00        -0.48124E+08
 
   -0.46623E+08         0.13564E+06         0.00000E+00
    0.13564E+06        -0.49998E+08         0.00000E+00
    0.00000E+00         0.00000E+00        -0.48125E+08
 
   -0.46642E+08         0.18910E+06         0.00000E+00
    0.18910E+06        -0.49996E+08         0.00000E+00
    0.00000E+00         0.00000E+00        -0.48125E+08
 
   -0.46662E+08         0.24215E+06         0.00000E+00
    0.24215E+06        -0.49994E+08         0.00000E+00
    0.00000E+00         0.00000E+00        -0.48125E+08
 
   -0.46682E+08         0.29479E+06         0.00000E+00
    0.29479E+06        -0.49991E+08         0.00000E+00
    0.00000E+00         0.00000E+00        -0.48126E+08
 
   -0.46704E+08         0.34701E+06         0.00000E+00
    0.34701E+06        -0.49988E+08         0.00000E+00
    0.00000E+00         0.00000E+00        -0.48127E+08
 
   -0.46726E+08         0.39880E+06         0.00000E+00
    0.39880E+06        -0.49984E+08         0.00000E+00
    0.00000E+00         0.00000E+00        -0.48128E+08
 
   -0.46749E+08         0.45015E+06         0.00000E+00
    0.45015E+06        -0.49980E+08         0.00000E+00
    0.00000E+00         0.00000E+00        -0.48128E+08
 
   -0.46773E+08         0.50104E+06         0.00000E+00
    0.50104E+06        -0.49975E+08         0.00000E+00
    0.00000E+00         0.00000E+00        -0.48129E+08
 
   -0.46798E+08         0.55148E+06         0.00000E+00
    0.55148E+06        -0.49970E+08         0.00000E+00
    0.00000E+00         0.00000E+00        -0.48131E+08
 
   -0.46823E+08         0.60145E+06         0.00000E+00
    0.60145E+06        -0.49964E+08         0.00000E+00
    0.00000E+00         0.00000E+00        -0.48132E+08
 
   -0.46849E+08         0.65094E+06         0.00000E+00
    0.65094E+06        -0.49957E+08         0.00000E+00
    0.00000E+00         0.00000E+00        -0.48133E+08
 
   -0.46876E+08         0.69995E+06         0.00000E+00
    0.69995E+06        -0.49951E+08         0.00000E+00
    0.00000E+00         0.00000E+00        -0.48134E+08
 
   -0.46903E+08         0.74848E+06         0.00000E+00
    0.74848E+06        -0.49943E+08         0.00000E+00
    0.00000E+00         0.00000E+00        -0.48136E+08
 
   -0.46931E+08         0.79650E+06         0.00000E+00
    0.79650E+06        -0.49935E+08         0.00000E+00
    0.00000E+00         0.00000E+00        -0.48137E+08
 
   -0.46960E+08         0.84403E+06         0.00000E+00
    0.84403E+06        -0.49927E+08         0.00000E+00
    0.00000E+00         0.00000E+00        -0.48138E+08
 
   -0.46989E+08         0.89105E+06         0.00000E+00
    0.89105E+06        -0.49919E+08         0.00000E+00
    0.00000E+00         0.00000E+00        -0.48140E+08
 
   -0.47019E+08         0.93756E+06         0.00000E+00
    0.93756E+06        -0.49909E+08         0.00000E+00
    0.00000E+00         0.00000E+00        -0.48141E+08
 
   -0.47050E+08         0.98355E+06         0.00000E+00
    0.98355E+06        -0.49900E+08         0.00000E+00
    0.00000E+00         0.00000E+00        -0.48143E+08
 
   -0.47081E+08         0.10290E+07         0.00000E+00
    0.10290E+07        -0.49890E+08         0.00000E+00
    0.00000E+00         0.00000E+00        -0.48145E+08
 
   -0.47112E+08         0.10740E+07         0.00000E+00
    0.10740E+07        -0.49880E+08         0.00000E+00
    0.00000E+00         0.00000E+00        -0.48146E+08
 
   -0.47145E+08         0.11184E+07         0.00000E+00
    0.11184E+07        -0.49869E+08         0.00000E+00
    0.00000E+00         0.00000E+00        -0.48148E+08
 
   -0.47177E+08         0.11623E+07         0.00000E+00
    0.11623E+07        -0.49858E+08         0.00000E+00
    0.00000E+00         0.00000E+00        -0.48150E+08
 
   -0.47210E+08         0.12056E+07         0.00000E+00
    0.12056E+07        -0.49846E+08         0.00000E+00
    0.00000E+00         0.00000E+00        -0.48151E+08
 
   -0.47244E+08         0.12485E+07         0.00000E+00
    0.12485E+07        -0.49834E+08         0.00000E+00
    0.00000E+00         0.00000E+00        -0.48153E+08
 
   -0.47278E+08         0.12907E+07         0.00000E+00
    0.12907E+07        -0.49822E+08         0.00000E+00
    0.00000E+00         0.00000E+00        -0.48155E+08
 
   -0.47313E+08         0.13325E+07         0.00000E+00
    0.13325E+07        -0.49809E+08         0.00000E+00
    0.00000E+00         0.00000E+00        -0.48156E+08
 
   -0.47348E+08         0.13737E+07         0.00000E+00
    0.13737E+07        -0.49796E+08         0.00000E+00
    0.00000E+00         0.00000E+00        -0.48158E+08
 
   -0.47383E+08         0.14143E+07         0.00000E+00
    0.14143E+07        -0.49782E+08         0.00000E+00
    0.00000E+00         0.00000E+00        -0.48159E+08
 
   -0.47419E+08         0.14544E+07         0.00000E+00
    0.14544E+07        -0.49768E+08         0.00000E+00
    0.00000E+00         0.00000E+00        -0.48161E+08
 
   -0.47455E+08         0.14940E+07         0.00000E+00
    0.14940E+07        -0.49754E+08         0.00000E+00
    0.00000E+00         0.00000E+00        -0.48163E+08
 
   -0.47492E+08         0.15330E+07         0.00000E+00
    0.15330E+07        -0.49739E+08         0.00000E+00
    0.00000E+00         0.00000E+00        -0.48164E+08
 
   -0.47528E+08         0.15714E+07         0.00000E+00
    0.15714E+07        -0.49724E+08         0.00000E+00
    0.00000E+00         0.00000E+00        -0.48166E+08
 
   -0.47566E+08         0.16093E+07         0.00000E+00
    0.16093E+07        -0.49709E+08         0.00000E+00
    0.00000E+00         0.00000E+00        -0.48167E+08
 
   -0.47603E+08         0.16467E+07         0.00000E+00
    0.16467E+07        -0.49693E+08         0.00000E+00
    0.00000E+00         0.00000E+00        -0.48168E+08
 
   -0.47641E+08         0.16835E+07         0.00000E+00
    0.16835E+07        -0.49677E+08         0.00000E+00
    0.00000E+00         0.00000E+00        -0.48170E+08
 
   -0.47679E+08         0.17197E+07         0.00000E+00
    0.17197E+07        -0.49661E+08         0.00000E+00
    0.00000E+00         0.00000E+00        -0.48171E+08
 
   -0.47718E+08         0.17554E+07         0.00000E+00
    0.17554E+07        -0.49644E+08         0.00000E+00
    0.00000E+00         0.00000E+00        -0.48172E+08
 
   -0.47757E+08         0.17905E+07         0.00000E+00
    0.17905E+07        -0.49627E+08         0.00000E+00
    0.00000E+00         0.00000E+00        -0.48173E+08
 
   -0.47796E+08         0.18251E+07         0.00000E+00
    0.18251E+07        -0.49609E+08         0.00000E+00
    0.00000E+00         0.00000E+00        -0.48174E+08
 
   -0.47835E+08         0.18591E+07         0.00000E+00
    0.18591E+07        -0.49592E+08         0.00000E+00
    0.00000E+00         0.00000E+00        -0.48175E+08
 
   -0.47875E+08         0.18925E+07         0.00000E+00
    0.18925E+07        -0.49574E+08         0.00000E+00
    0.00000E+00         0.00000E+00        -0.48176E+08
 
   -0.47915E+08         0.19254E+07         0.00000E+00
    0.19254E+07        -0.49555E+08         0.00000E+00
    0.00000E+00         0.00000E+00        -0.48177E+08
 
   -0.47955E+08         0.19577E+07         0.00000E+00
    0.19577E+07        -0.49536E+08         0.00000E+00
    0.00000E+00         0.00000E+00        -0.48177E+08
 
   -0.47995E+08         0.19895E+07         0.00000E+00
    0.19895E+07        -0.49517E+08         0.00000E+00
    0.00000E+00         0.00000E+00        -0.48178E+08
 
   -0.48036E+08         0.20207E+07         0.00000E+00
    0.20207E+07        -0.49498E+08         0.00000E+00
    0.00000E+00         0.00000E+00        -0.48178E+08
 
   -0.48076E+08         0.20513E+07         0.00000E+00
    0.20513E+07        -0.49478E+08         0.00000E+00
    0.00000E+00         0.00000E+00        -0.48179E+08
 
   -0.48117E+08         0.20814E+07         0.00000E+00
    0.20814E+07        -0.49458E+08         0.00000E+00
    0.00000E+00         0.00000E+00        -0.48179E+08
 
   -0.48159E+08         0.21109E+07         0.00000E+00
    0.21109E+07        -0.49438E+08         0.00000E+00
    0.00000E+00         0.00000E+00        -0.48179E+08
 
   -0.46309E+08         0.29141E+05         0.00000E+00
    0.29141E+05        -0.50000E+08         0.00000E+00
    0.00000E+00         0.00000E+00        -0.47971E+08
 
   -0.46328E+08         0.86316E+05         0.00000E+00
    0.86316E+05        -0.49999E+08         0.00000E+00
    0.00000E+00         0.00000E+00        -0.47971E+08
 
   -0.46348E+08         0.14307E+06         0.00000E+00
    0.14307E+06        -0.49998E+08         0.00000E+00
    0.00000E+00         0.00000E+00        -0.47971E+08
 
   -0.46369E+08         0.19939E+06         0.00000E+00
    0.19939E+06        -0.49996E+08         0.00000E+00
    0.00000E+00         0.00000E+00        -0.47972E+08
 
   -0.46391E+08         0.25526E+06         0.00000E+00
    0.25526E+06        -0.49994E+08         0.00000E+00
    0.00000E+00         0.00000E+00        -0.47972E+08
 
   -0.46413E+08         0.31068E+06         0.00000E+00
    0.31068E+06        -0.49991E+08         0.00000E+00
    0.00000E+00         0.00000E+00        -0.47973E+08
 
   -0.46437E+08         0.36563E+06         0.00000E+00
    0.36563E+06        -0.49987E+08         0.00000E+00
    0.00000E+00         0.00000E+00        -0.47974E+08
 
   -0.46462E+08         0.42011E+06         0.00000E+00
    0.42011E+06        -0.49983E+08         0.00000E+00
    0.00000E+00         0.00000E+00        -0.47974E+08
 
   -0.46487E+08         0.47409E+06         0.00000E+00
    0.47409E+06        -0.49978E+08         0.00000E+00
    0.00000E+00         0.00000E+00        -0.47975E+08
 
   -0.46513E+08         0.52759E+06         0.00000E+00
    0.52759E+06        -0.49973E+08         0.00000E+00
    0.00000E+00         0.00000E+00        -0.47976E+08
 
   -0.46540E+08         0.58058E+06         0.00000E+00
    0.58058E+06        -0.49967E+08         0.00000E+00
    0.00000E+00         0.00000E+00        -0.47978E+08
 
   -0.46568E+08         0.63306E+06         0.00000E+00
    0.63306E+06        -0.49961E+08         0.00000E+00
    0.00000E+00         0.00000E+00        -0.47979E+08
 
   -0.46597E+08         0.68503E+06         0.00000E+00
    0.68503E+06        -0.49954E+08         0.00000E+00
    0.00000E+00         0.00000E+00        -0.47980E+08
 
   -0.46626E+08         0.73647E+06         0.00000E+00
    0.73647E+06        -0.49947E+08         0.00000E+00
    0.00000E+00         0.00000E+00        -0.47982E+08
 
   -0.46656E+08         0.78739E+06         0.00000E+00
    0.78739E+06        -0.49939E+08         0.00000E+00
    0.00000E+00         0.00000E+00        -0.47983E+08
 
   -0.46687E+08         0.83777E+06         0.00000E+00
    0.83777E+06        -0.49931E+08         0.00000E+00
    0.00000E+00         0.00000E+00        -0.47985E+08
 
   -0.46718E+08         0.88761E+06         0.00000E+00
    0.88761E+06        -0.49922E+08         0.00000E+00
    0.00000E+00         0.00000E+00        -0.47986E+08
 
   -0.46750E+08         0.93692E+06         0.00000E+00
    0.93692E+06        -0.49913E+08         0.00000E+00
    0.00000E+00         0.00000E+00        -0.47988E+08
 
   -0.46782E+08         0.98567E+06         0.00000E+00
    0.98567E+06        -0.49903E+08         0.00000E+00
    0.00000E+00         0.00000E+00        -0.47990E+08
 
   -0.46816E+08         0.10339E+07         0.00000E+00
    0.10339E+07        -0.49893E+08         0.00000E+00
    0.00000E+00         0.00000E+00        -0.47991E+08
 
   -0.46849E+08         0.10815E+07         0.00000E+00
    0.10815E+07        -0.49882E+08         0.00000E+00
    0.00000E+00         0.00000E+00        -0.47993E+08
 
   -0.46884E+08         0.11286E+07         0.00000E+00
    0.11286E+07        -0.49871E+08         0.00000E+00
    0.00000E+00         0.00000E+00        -0.47995E+08
 
   -0.46919E+08         0.11752E+07         0.00000E+00
    0.11752E+07        -0.49860E+08         0.00000E+00
    0.00000E+00         0.00000E+00        -0.47997E+08
 
   -0.46954E+08         0.12212E+07         0.00000E+00
    0.12212E+07        -0.49848E+08         0.00000E+00
    0.00000E+00         0.00000E+00        -0.47998E+08
 
   -0.46990E+08         0.12666E+07         0.00000E+00
    0.12666E+07        -0.49836E+08         0.00000E+00
    0.00000E+00         0.00000E+00        -0.48000E+08
 
   -0.47026E+08         0.13114E+07         0.00000E+00
    0.13114E+07        -0.49823E+08         0.00000E+00
    0.00000E+00         0.00000E+00        -0.48002E+08
 
   -0.47063E+08         0.13557E+07         0.00000E+00
    0.13557E+07        -0.49810E+08         0.00000E+00
    0.00000E+00         0.00000E+00        -0.48004E+08
 
   -0.47100E+08         0.13994E+07         0.00000E+00
    0.13994E+07        -0.49796E+08         0.00000E+00
    0.00000E+00         0.00000E+00        -0.48006E+08
 
   -0.47138E+08         0.14426E+07         0.00000E+00
    0.14426E+07        -0.49782E+08         0.00000E+00
    0.00000E+00         0.00000E+00        -0.48007E+08
 
   -0.47176E+08         0.14852E+07         0.00000E+00
    0.14852E+07        -0.49768E+08         0.00000E+00
    0.00000E+00         0.00000E+00        -0.48009E+08
 
   -0.47215E+08         0.15272E+07         0.00000E+00
    0.15272E+07        -0.49753E+08         0.00000E+00
    0.00000E+00         0.00000E+00        -0.48011E+08
 
   -0.47254E+08         0.15687E+07         0.00000E+00
    0.15687E+07        -0.49738E+08         0.00000E+00
    0.00000E+00         0.00000E+00        -0.48012E+08
 
   -0.47293E+08         0.16095E+07         0.00000E+00
    0.16095E+07        -0.49722E+08         0.00000E+00
    0.00000E+00         0.00000E+00        -0.48014E+08
 
   -0.47333E+08         0.16498E+07         0.00000E+00
    0.16498E+07        -0.49706E+08         0.00000E+00
    0.00000E+00         0.00000E+00        -0.48016E+08
 
   -0.47373E+08         0.16896E+07         0.00000E+00
    0.16896E+07        -0.49690E+08         0.00000E+00
    0.00000E+00         0.00000E+00        -0.48017E+08
 
   -0.47413E+08         0.17288E+07         0.00000E+00
    0.17288E+07        -0.49673E+08         0.00000E+00
    0.00000E+00         0.00000E+00        -0.48019E+08
 
   -0.47454E+08         0.17673E+07         0.00000E+00
    0.17673E+07        -0.49656E+08         0.00000E+00
    0.00000E+00         0.00000E+00        -0.48020E+08
 
   -0.47495E+08         0.18054E+07         0.00000E+00
    0.18054E+07        -0.49638E+08         0.00000E+00
    0.00000E+00         0.00000E+00        -0.48021E+08
 
   -0.47537E+08         0.18428E+07         0.00000E+00
    0.18428E+07        -0.49621E+08         0.00000E+00
    0.00000E+00         0.00000E+00        -0.48023E+08
 
   -0.47578E+08         0.18797E+07         0.00000E+00
    0.18797E+07        -0.49602E+08         0.00000E+00
    0.00000E+00         0.00000E+00        -0.48024E+08
 
   -0.47620E+08         0.19160E+07         0.00000E+00
    0.19160E+07        -0.49584E+08         0.00000E+00
    0.00000E+00         0.00000E+00        -0.48025E+08
 
   -0.47662E+08         0.19518E+07         0.00000E+00
    0.19518E+07        -0.49565E+08         0.00000E+00
    0.00000E+00         0.00000E+00        -0.48026E+08
 
   -0.47705E+08         0.19869E+07         0.00000E+00
    0.19869E+07        -0.49546E+08         0.00000E+00
    0.00000E+00         0.00000E+00        -0.48027E+08
 
   -0.47747E+08         0.20215E+07         0.00000E+00
    0.20215E+07        -0.49526E+08         0.00000E+00
    0.00000E+00         0.00000E+00        -0.48028E+08
 
   -0.47790E+08         0.20555E+07         0.00000E+00
    0.20555E+07        -0.49506E+08         0.00000E+00
    0.00000E+00         0.00000E+00        -0.48028E+08
 
   -0.47833E+08         0.20890E+07         0.00000E+00
    0.20890E+07        -0.49485E+08         0.00000E+00
    0.00000E+00         0.00000E+00        -0.48029E+08
 
   -0.47877E+08         0.21219E+07         0.00000E+00
    0.21219E+07        -0.49465E+08         0.00000E+00
    0.00000E+00         0.00000E+00        -0.48030E+08
 
   -0.47920E+08         0.21542E+07         0.00000E+00
    0.21542E+07        -0.49444E+08         0.00000E+00
    0.00000E+00         0.00000E+00        -0.48030E+08
 
   -0.47964E+08         0.21859E+07         0.00000E+00
    0.21859E+07        -0.49422E+08         0.00000E+00
    0.00000E+00         0.00000E+00        -0.48030E+08
 
   -0.48008E+08         0.22170E+07         0.00000E+00
    0.22170E+07        -0.49400E+08         0.00000E+00
    0.00000E+00         0.00000E+00        -0.48030E+08
 
   -0.46014E+08         0.30807E+05         0.00000E+00
    0.30807E+05        -0.50000E+08         0.00000E+00
    0.00000E+00         0.00000E+00        -0.47808E+08
 
   -0.46035E+08         0.91158E+05         0.00000E+00
    0.91158E+05        -0.49999E+08         0.00000E+00
    0.00000E+00         0.00000E+00        -0.47809E+08
 
   -0.46058E+08         0.15103E+06         0.00000E+00
    0.15103E+06        -0.49998E+08         0.00000E+00
    0.00000E+00         0.00000E+00        -0.47809E+08
 
   -0.46081E+08         0.21042E+06         0.00000E+00
    0.21042E+06        -0.49996E+08         0.00000E+00
    0.00000E+00         0.00000E+00        -0.47809E+08
 
   -0.46105E+08         0.26931E+06         0.00000E+00
    0.26931E+06        -0.49993E+08         0.00000E+00
    0.00000E+00         0.00000E+00        -0.47810E+08
 
   -0.46130E+08         0.32768E+06         0.00000E+00
    0.32768E+06        -0.49990E+08         0.00000E+00
    0.00000E+00         0.00000E+00        -0.47811E+08
 
   -0.46156E+08         0.38554E+06         0.00000E+00
    0.38554E+06        -0.49986E+08         0.00000E+00
    0.00000E+00         0.00000E+00        -0.47812E+08
 
   -0.46183E+08         0.44287E+06         0.00000E+00
    0.44287E+06        -0.49982E+08         0.00000E+00
    0.00000E+00         0.00000E+00        -0.47812E+08
 
   -0.46211E+08         0.49967E+06         0.00000E+00
    0.49967E+06        -0.49977E+08         0.00000E+00
    0.00000E+00         0.00000E+00        -0.47814E+08
 
   -0.46240E+08         0.55592E+06         0.00000E+00
    0.55592E+06        -0.49971E+08         0.00000E+00
    0.00000E+00         0.00000E+00        -0.47815E+08
 
   -0.46270E+08         0.61162E+06         0.00000E+00
    0.61162E+06        -0.49965E+08         0.00000E+00
    0.00000E+00         0.00000E+00        -0.47816E+08
 
   -0.46300E+08         0.66676E+06         0.00000E+00
    0.66676E+06        -0.49959E+08         0.00000E+00
    0.00000E+00         0.00000E+00        -0.47817E+08
 
   -0.46332E+08         0.72135E+06         0.00000E+00
    0.72135E+06        -0.49951E+08         0.00000E+00
    0.00000E+00         0.00000E+00        -0.47819E+08
 
   -0.46364E+08         0.77536E+06         0.00000E+00
    0.77536E+06        -0.49944E+08         0.00000E+00
    0.00000E+00         0.00000E+00        -0.47820E+08
 
   -0.46396E+08         0.82881E+06         0.00000E+00
    0.82881E+06        -0.49935E+08         0.00000E+00
    0.00000E+00         0.00000E+00        -0.47822E+08
 
   -0.46430E+08         0.88168E+06         0.00000E+00
    0.88168E+06        -0.49927E+08         0.00000E+00
    0.00000E+00         0.00000E+00        -0.47824E+08
 
   -0.46464E+08         0.93398E+06         0.00000E+00
    0.93398E+06        -0.49917E+08         0.00000E+00
    0.00000E+00         0.00000E+00        -0.47825E+08
 
   -0.46499E+08         0.98569E+06         0.00000E+00
    0.98569E+06        -0.49907E+08         0.00000E+00
    0.00000E+00         0.00000E+00        -0.47827E+08
 
   -0.46534E+08         0.10368E+07         0.00000E+00
    0.10368E+07        -0.49897E+08         0.00000E+00
    0.00000E+00         0.00000E+00        -0.47829E+08
 
   -0.46570E+08         0.10874E+07         0.00000E+00
    0.10874E+07        -0.49886E+08         0.00000E+00
    0.00000E+00         0.00000E+00        -0.47831E+08
 
   -0.46607E+08         0.11373E+07         0.00000E+00
    0.11373E+07        -0.49875E+08         0.00000E+00
    0.00000E+00         0.00000E+00        -0.47833E+08
 
   -0.46644E+08         0.11867E+07         0.00000E+00
    0.11867E+07        -0.49863E+08         0.00000E+00
    0.00000E+00         0.00000E+00        -0.47835E+08
 
   -0.46682E+08         0.12355E+07         0.00000E+00
    0.12355E+07        -0.49851E+08         0.00000E+00
    0.00000E+00         0.00000E+00        -0.47837E+08
 
   -0.46720E+08         0.12837E+07         0.00000E+00
    0.12837E+07        -0.49839E+08         0.00000E+00
    0.00000E+00         0.00000E+00        -0.47839E+08
 
   -0.46759E+08         0.13313E+07         0.00000E+00
    0.13313E+07        -0.49826E+08         0.00000E+00
    0.00000E+00         0.00000E+00        -0.47841E+08
 
   -0.46798E+08         0.13783E+07         0.00000E+00
    0.13783E+07        -0.49812E+08         0.00000E+00
    0.00000E+00         0.00000E+00        -0.47842E+08
 
   -0.46838E+08         0.14247E+07         0.00000E+00
    0.14247E+07        -0.49798E+08         0.00000E+00
    0.00000E+00         0.00000E+00        -0.47844E+08
 
   -0.46878E+08         0.14705E+07         0.00000E+00
    0.14705E+07        -0.49784E+08         0.00000E+00
    0.00000E+00         0.00000E+00        -0.47846E+08
 
   -0.46919E+08         0.15158E+07         0.00000E+00
    0.15158E+07        -0.49769E+08         0.00000E+00
    0.00000E+00         0.00000E+00        -0.47848E+08
 
   -0.46960E+08         0.15604E+07         0.00000E+00
    0.15604E+07        -0.49754E+08         0.00000E+00
    0.00000E+00         0.00000E+00        -0.47850E+08
 
   -0.47001E+08         0.16045E+07         0.00000E+00
    0.16045E+07        -0.49738E+08         0.00000E+00
    0.00000E+00         0.00000E+00        -0.47852E+08
 
   -0.47043E+08         0.16479E+07         0.00000E+00
    0.16479E+07        -0.49722E+08         0.00000E+00
    0.00000E+00         0.00000E+00        -0.47854E+08
 
   -0.47085E+08         0.16908E+07         0.00000E+00
    0.16908E+07        -0.49705E+08         0.00000E+00
    0.00000E+00         0.00000E+00        -0.47855E+08
 
   -0.47128E+08         0.17331E+07         0.00000E+00
    0.17331E+07        -0.49688E+08         0.00000E+00
    0.00000E+00         0.00000E+00        -0.47857E+08
 
   -0.47171E+08         0.17748E+07         0.00000E+00
    0.17748E+07        -0.49671E+08         0.00000E+00
    0.00000E+00         0.00000E+00        -0.47859E+08
 
   -0.47214E+08         0.18159E+07         0.00000E+00
    0.18159E+07        -0.49653E+08         0.00000E+00
    0.00000E+00         0.00000E+00        -0.47860E+08
 
   -0.47258E+08         0.18564E+07         0.00000E+00
    0.18564E+07        -0.49635E+08         0.00000E+00
    0.00000E+00         0.00000E+00        -0.47862E+08
 
   -0.47302E+08         0.18964E+07         0.00000E+00
    0.18964E+07        -0.49617E+08         0.00000E+00
    0.00000E+00         0.00000E+00        -0.47863E+08
 
   -0.47346E+08         0.19357E+07         0.00000E+00
    0.19357E+07        -0.49598E+08         0.00000E+00
    0.00000E+00         0.00000E+00        -0.47865E+08
 
   -0.47390E+08         0.19745E+07         0.00000E+00
    0.19745E+07        -0.49578E+08         0.00000E+00
    0.00000E+00         0.00000E+00        -0.47866E+08
 
   -0.47435E+08         0.20127E+07         0.00000E+00
    0.20127E+07        -0.49559E+08         0.00000E+00
    0.00000E+00         0.00000E+00        -0.47867E+08
 
   -0.47480E+08         0.20503E+07         0.00000E+00
    0.20503E+07        -0.49539E+08         0.00000E+00
    0.00000E+00         0.00000E+00        -0.47868E+08
 
   -0.47526E+08         0.20874E+07         0.00000E+00
    0.20874E+07        -0.49518E+08         0.00000E+00
    0.00000E+00         0.00000E+00        -0.47869E+08
 
   -0.47571E+08         0.21238E+07         0.00000E+00
    0.21238E+07        -0.49497E+08         0.00000E+00
    0.00000E+00         0.00000E+00        -0.47870E+08
 
   -0.47617E+08         0.21597E+07         0.00000E+00
    0.21597E+07        -0.49476E+08         0.00000E+00
    0.00000E+00         0.00000E+00        -0.47871E+08
 
   -0.47663E+08         0.21950E+07         0.00000E+00
    0.21950E+07        -0.49454E+08         0.00000E+00
    0.00000E+00         0.00000E+00        -0.47872E+08
 
   -0.47709E+08         0.22297E+07         0.00000E+00
    0.22297E+07        -0.49432E+08         0.00000E+00
    0.00000E+00         0.00000E+00        -0.47872E+08
 
   -0.47756E+08         0.22638E+07         0.00000E+00
    0.22638E+07        -0.49410E+08         0.00000E+00
    0.00000E+00         0.00000E+00        -0.47873E+08
 
   -0.47803E+08         0.22974E+07         0.00000E+00
    0.22974E+07        -0.49387E+08         0.00000E+00
    0.00000E+00         0.00000E+00        -0.47873E+08
 
   -0.47849E+08         0.23303E+07         0.00000E+00
    0.23303E+07        -0.49364E+08         0.00000E+00
    0.00000E+00         0.00000E+00        -0.47873E+08
 
   -0.45703E+08         0.32591E+05         0.00000E+00
    0.32591E+05        -0.50000E+08         0.00000E+00
    0.00000E+00         0.00000E+00        -0.47636E+08
 
   -0.45727E+08         0.96330E+05         0.00000E+00
    0.96330E+05        -0.49999E+08         0.00000E+00
    0.00000E+00         0.00000E+00        -0.47637E+08
 
   -0.45751E+08         0.15953E+06         0.00000E+00
    0.15953E+06        -0.49998E+08         0.00000E+00
    0.00000E+00         0.00000E+00        -0.47637E+08
 
   -0.45777E+08         0.22218E+06         0.00000E+00
    0.22218E+06        -0.49996E+08         0.00000E+00
    0.00000E+00         0.00000E+00        -0.47637E+08
 
   -0.45804E+08         0.28426E+06         0.00000E+00
    0.28426E+06        -0.49993E+08         0.00000E+00
    0.00000E+00         0.00000E+00        -0.47638E+08
 
   -0.45832E+08         0.34578E+06         0.00000E+00
    0.34578E+06        -0.49989E+08         0.00000E+00
    0.00000E+00         0.00000E+00        -0.47639E+08
 
   -0.45861E+08         0.40671E+06         0.00000E+00
    0.40671E+06        -0.49985E+08         0.00000E+00
    0.00000E+00         0.00000E+00        -0.47640E+08
 
   -0.45891E+08         0.46707E+06         0.00000E+00
    0.46707E+06        -0.49981E+08         0.00000E+00
    0.00000E+00         0.00000E+00        -0.47641E+08
 
   -0.45921E+08         0.52682E+06         0.00000E+00
    0.52682E+06        -0.49975E+08         0.00000E+00
    0.00000E+00         0.00000E+00        -0.47642E+08
 
   -0.45953E+08         0.58599E+06         0.00000E+00
    0.58599E+06        -0.49970E+08         0.00000E+00
    0.00000E+00         0.00000E+00        -0.47643E+08
 
   -0.45986E+08         0.64454E+06         0.00000E+00
    0.64454E+06        -0.49963E+08         0.00000E+00
    0.00000E+00         0.00000E+00        -0.47645E+08
 
   -0.46019E+08         0.70249E+06         0.00000E+00
    0.70249E+06        -0.49956E+08         0.00000E+00
    0.00000E+00         0.00000E+00        -0.47646E+08
 
   -0.46053E+08         0.75983E+06         0.00000E+00
    0.75983E+06        -0.49948E+08         0.00000E+00
    0.00000E+00         0.00000E+00        -0.47648E+08
 
   -0.46088E+08         0.81656E+06         0.00000E+00
    0.81656E+06        -0.49940E+08         0.00000E+00
    0.00000E+00         0.00000E+00        -0.47649E+08
 
   -0.46124E+08         0.87267E+06         0.00000E+00
    0.87267E+06        -0.49932E+08         0.00000E+00
    0.00000E+00         0.00000E+00        -0.47651E+08
 
   -0.46160E+08         0.92816E+06         0.00000E+00
    0.92816E+06        -0.49922E+08         0.00000E+00
    0.00000E+00         0.00000E+00        -0.47653E+08
 
   -0.46198E+08         0.98303E+06         0.00000E+00
    0.98303E+06        -0.49912E+08         0.00000E+00
    0.00000E+00         0.00000E+00        -0.47655E+08
 
   -0.46235E+08         0.10373E+07         0.00000E+00
    0.10373E+07        -0.49902E+08         0.00000E+00
    0.00000E+00         0.00000E+00        -0.47657E+08
 
   -0.46274E+08         0.10909E+07         0.00000E+00
    0.10909E+07        -0.49891E+08         0.00000E+00
    0.00000E+00         0.00000E+00        -0.47659E+08
 
   -0.46313E+08         0.11439E+07         0.00000E+00
    0.11439E+07        -0.49880E+08         0.00000E+00
    0.00000E+00         0.00000E+00        -0.47661E+08
 
   -0.46352E+08         0.11963E+07         0.00000E+00
    0.11963E+07        -0.49868E+08         0.00000E+00
    0.00000E+00         0.00000E+00        -0.47663E+08
 
   -0.46393E+08         0.12480E+07         0.00000E+00
    0.12480E+07        -0.49856E+08         0.00000E+00
    0.00000E+00         0.00000E+00        -0.47665E+08
 
   -0.46433E+08         0.12992E+07         0.00000E+00
    0.12992E+07        -0.49843E+08         0.00000E+00
    0.00000E+00         0.00000E+00        -0.47667E+08
 
   -0.46475E+08         0.13497E+07         0.00000E+00
    0.13497E+07        -0.49830E+08         0.00000E+00
    0.00000E+00         0.00000E+00        -0.47669E+08
 
   -0.46517E+08         0.13996E+07         0.00000E+00
    0.13996E+07        -0.49816E+08         0.00000E+00
    0.00000E+00         0.00000E+00        -0.47671E+08
 
   -0.46559E+08         0.14489E+07         0.00000E+00
    0.14489E+07        -0.49802E+08         0.00000E+00
    0.00000E+00         0.00000E+00        -0.47673E+08
 
   -0.46602E+08         0.14975E+07         0.00000E+00
    0.14975E+07        -0.49787E+08         0.00000E+00
    0.00000E+00         0.00000E+00        -0.47675E+08
 
   -0.46645E+08         0.15456E+07         0.00000E+00
    0.15456E+07        -0.49772E+08         0.00000E+00
    0.00000E+00         0.00000E+00        -0.47677E+08
 
   -0.46689E+08         0.15930E+07         0.00000E+00
    0.15930E+07        -0.49756E+08         0.00000E+00
    0.00000E+00         0.00000E+00        -0.47680E+08
 
   -0.46733E+08         0.16398E+07         0.00000E+00
    0.16398E+07        -0.49740E+08         0.00000E+00
    0.00000E+00         0.00000E+00        -0.47682E+08
 
   -0.46777E+08         0.16861E+07         0.00000E+00
    0.16861E+07        -0.49723E+08         0.00000E+00
    0.00000E+00         0.00000E+00        -0.47684E+08
 
   -0.46822E+08         0.17317E+07         0.00000E+00
    0.17317E+07        -0.49706E+08         0.00000E+00
    0.00000E+00         0.00000E+00        -0.47685E+08
 
   -0.46867E+08         0.17767E+07         0.00000E+00
    0.17767E+07        -0.49689E+08         0.00000E+00
    0.00000E+00         0.00000E+00        -0.47687E+08
 
   -0.46913E+08         0.18211E+07         0.00000E+00
    0.18211E+07        -0.49671E+08         0.00000E+00
    0.00000E+00         0.00000E+00        -0.47689E+08
 
   -0.46959E+08         0.18649E+07         0.00000E+00
    0.18649E+07        -0.49653E+08         0.00000E+00
    0.00000E+00         0.00000E+00        -0.47691E+08
 
   -0.47005E+08         0.19081E+07         0.00000E+00
    0.19081E+07        -0.49634E+08         0.00000E+00
    0.00000E+00         0.00000E+00        -0.47693E+08
 
   -0.47051E+08         0.19506E+07         0.00000E+00
    0.19506E+07        -0.49615E+08         0.00000E+00
    0.00000E+00         0.00000E+00        -0.47694E+08
 
   -0.47098E+08         0.19927E+07         0.00000E+00
    0.19927E+07        -0.49596E+08         0.00000E+00
    0.00000E+00         0.00000E+00        -0.47696E+08
 
   -0.47145E+08         0.20341E+07         0.00000E+00
    0.20341E+07        -0.49576E+08         0.00000E+00
    0.00000E+00         0.00000E+00        -0.47697E+08
 
   -0.47193E+08         0.20749E+07         0.00000E+00
    0.20749E+07        -0.49555E+08         0.00000E+00
    0.00000E+00         0.00000E+00        -0.47699E+08
 
   -0.47241E+08         0.21151E+07         0.00000E+00
    0.21151E+07        -0.49534E+08         0.00000E+00
    0.00000E+00         0.00000E+00        -0.47700E+08
 
   -0.47289E+08         0.21547E+07         0.00000E+00
    0.21547E+07        -0.49513E+08         0.00000E+00
    0.00000E+00         0.00000E+00        -0.47701E+08
 
   -0.47337E+08         0.21938E+07         0.00000E+00
    0.21938E+07        -0.49491E+08         0.00000E+00
    0.00000E+00         0.00000E+00        -0.47702E+08
 
   -0.47385E+08         0.22323E+07         0.00000E+00
    0.22323E+07        -0.49469E+08         0.00000E+00
    0.00000E+00         0.00000E+00        -0.47703E+08
 
   -0.47434E+08         0.22701E+07         0.00000E+00
    0.22701E+07        -0.49447E+08         0.00000E+00
    0.00000E+00         0.00000E+00        -0.47704E+08
 
   -0.47483E+08         0.23074E+07         0.00000E+00
    0.23074E+07        -0.49424E+08         0.00000E+00
    0.00000E+00         0.00000E+00        -0.47705E+08
 
   -0.47532E+08         0.23441E+07         0.00000E+00
    0.23441E+07        -0.49401E+08         0.00000E+00
    0.00000E+00         0.00000E+00        -0.47705E+08
 
   -0.47582E+08         0.23803E+07         0.00000E+00
    0.23803E+07        -0.49377E+08         0.00000E+00
    0.00000E+00         0.00000E+00        -0.47706E+08
 
   -0.47631E+08         0.24158E+07         0.00000E+00
    0.24158E+07        -0.49353E+08         0.00000E+00
    0.00000E+00         0.00000E+00        -0.47706E+08
 
   -0.47681E+08         0.24508E+07         0.00000E+00
    0.24508E+07        -0.49328E+08         0.00000E+00
    0.00000E+00         0.00000E+00        -0.47706E+08
 
   -0.45374E+08         0.34493E+05         0.00000E+00
    0.34493E+05        -0.50000E+08         0.00000E+00
    0.00000E+00         0.00000E+00        -0.47454E+08
 
   -0.45400E+08         0.10183E+06         0.00000E+00
    0.10183E+06        -0.49999E+08         0.00000E+00
    0.00000E+00         0.00000E+00        -0.47454E+08
 
   -0.45428E+08         0.16854E+06         0.00000E+00
    0.16854E+06        -0.49998E+08         0.00000E+00
    0.00000E+00         0.00000E+00        -0.47454E+08
 
   -0.45457E+08         0.23464E+06         0.00000E+00
    0.23464E+06        -0.49995E+08         0.00000E+00
    0.00000E+00         0.00000E+00        -0.47455E+08
 
   -0.45487E+08         0.30010E+06         0.00000E+00
    0.30010E+06        -0.49992E+08         0.00000E+00
    0.00000E+00         0.00000E+00        -0.47456E+08
 
   -0.45518E+08         0.36492E+06         0.00000E+00
    0.36492E+06        -0.49989E+08         0.00000E+00
    0.00000E+00         0.00000E+00        -0.47457E+08
 
   -0.45550E+08         0.42910E+06         0.00000E+00
    0.42910E+06        -0.49985E+08         0.00000E+00
    0.00000E+00         0.00000E+00        -0.47458E+08
 
   -0.45583E+08         0.49263E+06         0.00000E+00
    0.49263E+06        -0.49980E+08         0.00000E+00
    0.00000E+00         0.00000E+00        -0.47459E+08
 
   -0.45616E+08         0.55550E+06         0.00000E+00
    0.55550E+06        -0.49974E+08         0.00000E+00
    0.00000E+00         0.00000E+00        -0.47460E+08
 
   -0.45651E+08         0.61771E+06         0.00000E+00
    0.61771E+06        -0.49968E+08         0.00000E+00
    0.00000E+00         0.00000E+00        -0.47461E+08
 
   -0.45687E+08         0.67926E+06         0.00000E+00
    0.67926E+06        -0.49961E+08         0.00000E+00
    0.00000E+00         0.00000E+00        -0.47463E+08
 
   -0.45724E+08         0.74015E+06         0.00000E+00
    0.74015E+06        -0.49954E+08         0.00000E+00
    0.00000E+00         0.00000E+00        -0.47465E+08
 
   -0.45761E+08         0.80038E+06         0.00000E+00
    0.80038E+06        -0.49946E+08         0.00000E+00
    0.00000E+00         0.00000E+00        -0.47466E+08
 
   -0.45799E+08         0.85993E+06         0.00000E+00
    0.85993E+06        -0.49937E+08         0.00000E+00
    0.00000E+00         0.00000E+00        -0.47468E+08
 
   -0.45838E+08         0.91883E+06         0.00000E+00
    0.91883E+06        -0.49928E+08         0.00000E+00
    0.00000E+00         0.00000E+00        -0.47470E+08
 
   -0.45878E+08         0.97705E+06         0.00000E+00
    0.97705E+06        -0.49918E+08         0.00000E+00
    0.00000E+00         0.00000E+00        -0.47472E+08
 
   -0.45918E+08         0.10346E+07         0.00000E+00
    0.10346E+07        -0.49908E+08         0.00000E+00
    0.00000E+00         0.00000E+00        -0.47474E+08
 
   -0.45959E+08         0.10915E+07         0.00000E+00
    0.10915E+07        -0.49897E+08         0.00000E+00
    0.00000E+00         0.00000E+00        -0.47476E+08
 
   -0.46001E+08         0.11477E+07         0.00000E+00
    0.11477E+07        -0.49886E+08         0.00000E+00
    0.00000E+00         0.00000E+00        -0.47478E+08
 
   -0.46043E+08         0.12033E+07         0.00000E+00
    0.12033E+07        -0.49874E+08         0.00000E+00
    0.00000E+00         0.00000E+00        -0.47480E+08
 
   -0.46086E+08         0.12582E+07         0.00000E+00
    0.12582E+07        -0.49861E+08         0.00000E+00
    0.00000E+00         0.00000E+00        -0.47482E+08
 
   -0.46129E+08         0.13125E+07         0.00000E+00
    0.13125E+07        -0.49849E+08         0.00000E+00
    0.00000E+00         0.00000E+00        -0.47485E+08
 
   -0.46173E+08         0.13661E+07         0.00000E+00
    0.13661E+07        -0.49835E+08         0.00000E+00
    0.00000E+00         0.00000E+00        -0.47487E+08
 
   -0.46218E+08         0.14190E+07         0.00000E+00
    0.14190E+07        -0.49821E+08         0.00000E+00
    0.00000E+00         0.00000E+00        -0.47489E+08
 
   -0.46263E+08         0.14713E+07         0.00000E+00
    0.14713E+07        -0.49807E+08         0.00000E+00
    0.00000E+00         0.00000E+00        -0.47491E+08
 
   -0.46308E+08         0.15230E+07         0.00000E+00
    0.15230E+07        -0.49792E+08         0.00000E+00
    0.00000E+00         0.00000E+00        -0.47494E+08
 
   -0.46354E+08         0.15740E+07         0.00000E+00
    0.15740E+07        -0.49776E+08         0.00000E+00
    0.00000E+00         0.00000E+00        -0.47496E+08
 
   -0.46400E+08         0.16244E+07         0.00000E+00
    0.16244E+07        -0.49761E+08         0.00000E+00
    0.00000E+00         0.00000E+00        -0.47498E+08
 
   -0.46447E+08         0.16742E+07         0.00000E+00
    0.16742E+07        -0.49744E+08         0.00000E+00
    0.00000E+00         0.00000E+00        -0.47500E+08
 
   -0.46494E+08         0.17233E+07         0.00000E+00
    0.17233E+07        -0.49727E+08         0.00000E+00
    0.00000E+00         0.00000E+00        -0.47503E+08
 
   -0.46542E+08         0.17718E+07         0.00000E+00
    0.17718E+07        -0.49710E+08         0.00000E+00
    0.00000E+00         0.00000E+00        -0.47505E+08
 
   -0.46590E+08         0.18197E+07         0.00000E+00
    0.18197E+07        -0.49692E+08         0.00000E+00
    0.00000E+00         0.00000E+00        -0.47507E+08
 
   -0.46638E+08         0.18669E+07         0.00000E+00
    0.18669E+07        -0.49674E+08         0.00000E+00
    0.00000E+00         0.00000E+00        -0.47509E+08
 
   -0.46687E+08         0.19135E+07         0.00000E+00
    0.19135E+07        -0.49655E+08         0.00000E+00
    0.00000E+00         0.00000E+00        -0.47511E+08
 
   -0.46736E+08         0.19596E+07         0.00000E+00
    0.19596E+07        -0.49636E+08         0.00000E+00
    0.00000E+00         0.00000E+00        -0.47513E+08
 
   -0.46785E+08         0.20050E+07         0.00000E+00
    0.20050E+07        -0.49617E+08         0.00000E+00
    0.00000E+00         0.00000E+00        -0.47514E+08
 
   -0.46834E+08         0.20498E+07         0.00000E+00
    0.20498E+07        -0.49596E+08         0.00000E+00
    0.00000E+00         0.00000E+00        -0.47516E+08
 
   -0.46884E+08         0.20940E+07         0.00000E+00
    0.20940E+07        -0.49576E+08         0.00000E+00
    0.00000E+00         0.00000E+00        -0.47518E+08
 
   -0.46934E+08         0.21376E+07         0.00000E+00
    0.21376E+07        -0.49555E+08         0.00000E+00
    0.00000E+00         0.00000E+00        -0.47519E+08
 
   -0.46985E+08         0.21806E+07         0.00000E+00
    0.21806E+07        -0.49534E+08         0.00000E+00
    0.00000E+00         0.00000E+00        -0.47521E+08
 
   -0.47036E+08         0.22230E+07         0.00000E+00
    0.22230E+07        -0.49512E+08         0.00000E+00
    0.00000E+00         0.00000E+00        -0.47522E+08
 
   -0.47086E+08         0.22649E+07         0.00000E+00
    0.22649E+07        -0.49489E+08         0.00000E+00
    0.00000E+00         0.00000E+00        -0.47523E+08
 
   -0.47138E+08         0.23061E+07         0.00000E+00
    0.23061E+07        -0.49466E+08         0.00000E+00
    0.00000E+00         0.00000E+00        -0.47525E+08
 
   -0.47189E+08         0.23468E+07         0.00000E+00
    0.23468E+07        -0.49443E+08         0.00000E+00
    0.00000E+00         0.00000E+00        -0.47526E+08
 
   -0.47241E+08         0.23868E+07         0.00000E+00
    0.23868E+07        -0.49419E+08         0.00000E+00
    0.00000E+00         0.00000E+00        -0.47526E+08
 
   -0.47293E+08         0.24263E+07         0.00000E+00
    0.24263E+07        -0.49395E+08         0.00000E+00
    0.00000E+00         0.00000E+00        -0.47527E+08
 
   -0.47345E+08         0.24652E+07         0.00000E+00
    0.24652E+07        -0.49371E+08         0.00000E+00
    0.00000E+00         0.00000E+00        -0.47528E+08
 
   -0.47397E+08         0.25035E+07         0.00000E+00
    0.25035E+07        -0.49346E+08         0.00000E+00
    0.00000E+00         0.00000E+00        -0.47528E+08
 
   -0.47450E+08         0.25413E+07         0.00000E+00
    0.25413E+07        -0.49320E+08         0.00000E+00
    0.00000E+00         0.00000E+00        -0.47529E+08
 
   -0.47502E+08         0.25784E+07         0.00000E+00
    0.25784E+07        -0.49294E+08         0.00000E+00
    0.00000E+00         0.00000E+00        -0.47529E+08
 
   -0.45026E+08         0.36508E+05         0.00000E+00
    0.36508E+05        -0.50000E+08         0.00000E+00
    0.00000E+00         0.00000E+00        -0.47260E+08
 
   -0.45056E+08         0.10763E+06         0.00000E+00
    0.10763E+06        -0.49999E+08         0.00000E+00
    0.00000E+00         0.00000E+00        -0.47260E+08
 
   -0.45087E+08         0.17805E+06         0.00000E+00
    0.17805E+06        -0.49997E+08         0.00000E+00
    0.00000E+00         0.00000E+00        -0.47260E+08
 
   -0.45119E+08         0.24776E+06         0.00000E+00
    0.24776E+06        -0.49995E+08         0.00000E+00
    0.00000E+00         0.00000E+00        -0.47261E+08
 
   -0.45152E+08         0.31677E+06         0.00000E+00
    0.31677E+06        -0.49992E+08         0.00000E+00
    0.00000E+00         0.00000E+00        -0.47262E+08
 
   -0.45187E+08         0.38505E+06         0.00000E+00
    0.38505E+06        -0.49988E+08         0.00000E+00
    0.00000E+00         0.00000E+00        -0.47263E+08
 
   -0.45222E+08         0.45262E+06         0.00000E+00
    0.45262E+06        -0.49984E+08         0.00000E+00
    0.00000E+00         0.00000E+00        -0.47264E+08
 
   -0.45258E+08         0.51946E+06         0.00000E+00
    0.51946E+06        -0.49979E+08         0.00000E+00
    0.00000E+00         0.00000E+00        -0.47265E+08
 
   -0.45296E+08         0.58557E+06         0.00000E+00
    0.58557E+06        -0.49973E+08         0.00000E+00
    0.00000E+00         0.00000E+00        -0.47266E+08
 
   -0.45334E+08         0.65097E+06         0.00000E+00
    0.65097E+06        -0.49966E+08         0.00000E+00
    0.00000E+00         0.00000E+00        -0.47268E+08
 
   -0.45373E+08         0.71563E+06         0.00000E+00
    0.71563E+06        -0.49959E+08         0.00000E+00
    0.00000E+00         0.00000E+00        -0.47270E+08
 
   -0.45413E+08         0.77958E+06         0.00000E+00
    0.77958E+06        -0.49952E+08         0.00000E+00
    0.00000E+00         0.00000E+00        -0.47271E+08
 
   -0.45454E+08         0.84280E+06         0.00000E+00
    0.84280E+06        -0.49943E+08         0.00000E+00
    0.00000E+00         0.00000E+00        -0.47273E+08
 
   -0.45496E+08         0.90530E+06         0.00000E+00
    0.90530E+06        -0.49934E+08         0.00000E+00
    0.00000E+00         0.00000E+00        -0.47275E+08
 
   -0.45538E+08         0.96708E+06         0.00000E+00
    0.96708E+06        -0.49925E+08         0.00000E+00
    0.00000E+00         0.00000E+00        -0.47277E+08
 
   -0.45581E+08         0.10281E+07         0.00000E+00
    0.10281E+07        -0.49915E+08         0.00000E+00
    0.00000E+00         0.00000E+00        -0.47279E+08
 
   -0.45625E+08         0.10885E+07         0.00000E+00
    0.10885E+07        -0.49904E+08         0.00000E+00
    0.00000E+00         0.00000E+00        -0.47281E+08
 
   -0.45669E+08         0.11481E+07         0.00000E+00
    0.11481E+07        -0.49893E+08         0.00000E+00
    0.00000E+00         0.00000E+00        -0.47284E+08
 
   -0.45714E+08         0.12071E+07         0.00000E+00
    0.12071E+07        -0.49881E+08         0.00000E+00
    0.00000E+00         0.00000E+00        -0.47286E+08
 
   -0.45760E+08         0.12653E+07         0.00000E+00
    0.12653E+07        -0.49868E+08         0.00000E+00
    0.00000E+00         0.00000E+00        -0.47288E+08
 
   -0.45806E+08         0.13229E+07         0.00000E+00
    0.13229E+07        -0.49856E+08         0.00000E+00
    0.00000E+00         0.00000E+00        -0.47290E+08
 
   -0.45853E+08         0.13797E+07         0.00000E+00
    0.13797E+07        -0.49842E+08         0.00000E+00
    0.00000E+00         0.00000E+00        -0.47293E+08
 
   -0.45900E+08         0.14359E+07         0.00000E+00
    0.14359E+07        -0.49828E+08         0.00000E+00
    0.00000E+00         0.00000E+00        -0.47295E+08
 
   -0.45948E+08         0.14914E+07         0.00000E+00
    0.14914E+07        -0.49814E+08         0.00000E+00
    0.00000E+00         0.00000E+00        -0.47298E+08
 
   -0.45996E+08         0.15462E+07         0.00000E+00
    0.15462E+07        -0.49799E+08         0.00000E+00
    0.00000E+00         0.00000E+00        -0.47300E+08
 
   -0.46045E+08         0.16004E+07         0.00000E+00
    0.16004E+07        -0.49783E+08         0.00000E+00
    0.00000E+00         0.00000E+00        -0.47303E+08
 
   -0.46094E+08         0.16539E+07         0.00000E+00
    0.16539E+07        -0.49767E+08         0.00000E+00
    0.00000E+00         0.00000E+00        -0.47305E+08
 
   -0.46144E+08         0.17067E+07         0.00000E+00
    0.17067E+07        -0.49751E+08         0.00000E+00
    0.00000E+00         0.00000E+00        -0.47307E+08
 
   -0.46194E+08         0.17589E+07         0.00000E+00
    0.17589E+07        -0.49734E+08         0.00000E+00
    0.00000E+00         0.00000E+00        -0.47310E+08
 
   -0.46244E+08         0.18104E+07         0.00000E+00
    0.18104E+07        -0.49716E+08         0.00000E+00
    0.00000E+00         0.00000E+00        -0.47312E+08
 
   -0.46295E+08         0.18613E+07         0.00000E+00
    0.18613E+07        -0.49698E+08         0.00000E+00
    0.00000E+00         0.00000E+00        -0.47314E+08
 
   -0.46346E+08         0.19116E+07         0.00000E+00
    0.19116E+07        -0.49680E+08         0.00000E+00
    0.00000E+00         0.00000E+00        -0.47316E+08
 
   -0.46397E+08         0.19612E+07         0.00000E+00
    0.19612E+07        -0.49661E+08         0.00000E+00
    0.00000E+00         0.00000E+00        -0.47319E+08
 
   -0.46449E+08         0.20102E+07         0.00000E+00
    0.20102E+07        -0.49641E+08         0.00000E+00
    0.00000E+00         0.00000E+00        -0.47321E+08
 
   -0.46501E+08         0.20586E+07         0.00000E+00
    0.20586E+07        -0.49621E+08         0.00000E+00
    0.00000E+00         0.00000E+00        -0.47323E+08
 
   -0.46553E+08         0.21064E+07         0.00000E+00
    0.21064E+07        -0.49601E+08         0.00000E+00
    0.00000E+00         0.00000E+00        -0.47325E+08
 
   -0.46606E+08         0.21536E+07         0.00000E+00
    0.21536E+07        -0.49580E+08         0.00000E+00
    0.00000E+00         0.00000E+00        -0.47326E+08
 
   -0.46659E+08         0.22002E+07         0.00000E+00
    0.22002E+07        -0.49558E+08         0.00000E+00
    0.00000E+00         0.00000E+00        -0.47328E+08
 
   -0.46712E+08         0.22461E+07         0.00000E+00
    0.22461E+07        -0.49536E+08         0.00000E+00
    0.00000E+00         0.00000E+00        -0.47330E+08
 
   -0.46765E+08         0.22915E+07         0.00000E+00
    0.22915E+07        -0.49514E+08         0.00000E+00
    0.00000E+00         0.00000E+00        -0.47331E+08
 
   -0.46819E+08         0.23363E+07         0.00000E+00
    0.23363E+07        -0.49491E+08         0.00000E+00
    0.00000E+00         0.00000E+00        -0.47333E+08
 
   -0.46873E+08         0.23805E+07         0.00000E+00
    0.23805E+07        -0.49468E+08         0.00000E+00
    0.00000E+00         0.00000E+00        -0.47334E+08
 
   -0.46927E+08         0.24241E+07         0.00000E+00
    0.24241E+07        -0.49444E+08         0.00000E+00
    0.00000E+00         0.00000E+00        -0.47335E+08
 
   -0.46981E+08         0.24671E+07         0.00000E+00
    0.24671E+07        -0.49419E+08         0.00000E+00
    0.00000E+00         0.00000E+00        -0.47336E+08
 
   -0.47036E+08         0.25096E+07         0.00000E+00
    0.25096E+07        -0.49394E+08         0.00000E+00
    0.00000E+00         0.00000E+00        -0.47337E+08
 
   -0.47091E+08         0.25514E+07         0.00000E+00
    0.25514E+07        -0.49369E+08         0.00000E+00
    0.00000E+00         0.00000E+00        -0.47338E+08
 
   -0.47146E+08         0.25927E+07         0.00000E+00
    0.25927E+07        -0.49343E+08         0.00000E+00
    0.00000E+00         0.00000E+00        -0.47339E+08
 
   -0.47201E+08         0.26334E+07         0.00000E+00
    0.26334E+07        -0.49317E+08         0.00000E+00
    0.00000E+00         0.00000E+00        -0.47339E+08
 
   -0.47256E+08         0.26736E+07         0.00000E+00
    0.26736E+07        -0.49290E+08         0.00000E+00
    0.00000E+00         0.00000E+00        -0.47340E+08
 
   -0.47312E+08         0.27132E+07         0.00000E+00
    0.27132E+07        -0.49262E+08         0.00000E+00
    0.00000E+00         0.00000E+00        -0.47340E+08
 
   -0.44659E+08         0.38629E+05         0.00000E+00
    0.38629E+05        -0.50000E+08         0.00000E+00
    0.00000E+00         0.00000E+00        -0.47053E+08
 
   -0.44692E+08         0.11371E+06         0.00000E+00
    0.11371E+06        -0.49999E+08         0.00000E+00
    0.00000E+00         0.00000E+00        -0.47053E+08
 
   -0.44727E+08         0.18800E+06         0.00000E+00
    0.18800E+06        -0.49997E+08         0.00000E+00
    0.00000E+00         0.00000E+00        -0.47054E+08
 
   -0.44763E+08         0.26149E+06         0.00000E+00
    0.26149E+06        -0.49995E+08         0.00000E+00
    0.00000E+00         0.00000E+00        -0.47054E+08
 
   -0.44800E+08         0.33417E+06         0.00000E+00
    0.33417E+06        -0.49992E+08         0.00000E+00
    0.00000E+00         0.00000E+00        -0.47055E+08
 
   -0.44838E+08         0.40605E+06         0.00000E+00
    0.40605E+06        -0.49988E+08         0.00000E+00
    0.00000E+00         0.00000E+00        -0.47056E+08
 
   -0.44877E+08         0.47713E+06         0.00000E+00
    0.47713E+06        -0.49983E+08         0.00000E+00
    0.00000E+00         0.00000E+00        -0.47057E+08
 
   -0.44917E+08         0.54740E+06         0.00000E+00
    0.54740E+06        -0.49978E+08         0.00000E+00
    0.00000E+00         0.00000E+00        -0.47059E+08
 
   -0.44959E+08         0.61688E+06         0.00000E+00
    0.61688E+06        -0.49972E+08         0.00000E+00
    0.00000E+00         0.00000E+00        -0.47060E+08
 
   -0.45001E+08         0.68555E+06         0.00000E+00
    0.68555E+06        -0.49965E+08         0.00000E+00
    0.00000E+00         0.00000E+00        -0.47062E+08
 
   -0.45044E+08         0.75343E+06         0.00000E+00
    0.75343E+06        -0.49958E+08         0.00000E+00
    0.00000E+00         0.00000E+00        -0.47063E+08
 
   -0.45088E+08         0.82053E+06         0.00000E+00
    0.82053E+06        -0.49950E+08         0.00000E+00
    0.00000E+00         0.00000E+00        -0.47065E+08
 
   -0.45132E+08         0.88683E+06         0.00000E+00
    0.88683E+06        -0.49941E+08         0.00000E+00
    0.00000E+00         0.00000E+00        -0.47067E+08
 
   -0.45178E+08         0.95236E+06         0.00000E+00
    0.95236E+06        -0.49932E+08         0.00000E+00
    0.00000E+00         0.00000E+00        -0.47069E+08
 
   -0.45224E+08         0.10171E+07         0.00000E+00
    0.10171E+07        -0.49922E+08         0.00000E+00
    0.00000E+00         0.00000E+00        -0.47071E+08
 
   -0.45270E+08         0.10811E+07         0.00000E+00
    0.10811E+07        -0.49912E+08         0.00000E+00
    0.00000E+00         0.00000E+00        -0.47074E+08
 
   -0.45318E+08         0.11443E+07         0.00000E+00
    0.11443E+07        -0.49901E+08         0.00000E+00
    0.00000E+00         0.00000E+00        -0.47076E+08
 
   -0.45366E+08         0.12068E+07         0.00000E+00
    0.12068E+07        -0.49889E+08         0.00000E+00
    0.00000E+00         0.00000E+00        -0.47078E+08
 
   -0.45415E+08         0.12685E+07         0.00000E+00
    0.12685E+07        -0.49877E+08         0.00000E+00
    0.00000E+00         0.00000E+00        -0.47081E+08
 
   -0.45464E+08         0.13295E+07         0.00000E+00
    0.13295E+07        -0.49864E+08         0.00000E+00
    0.00000E+00         0.00000E+00        -0.47083E+08
 
   -0.45514E+08         0.13898E+07         0.00000E+00
    0.13898E+07        -0.49851E+08         0.00000E+00
    0.00000E+00         0.00000E+00        -0.47086E+08
 
   -0.45564E+08         0.14494E+07         0.00000E+00
    0.14494E+07        -0.49837E+08         0.00000E+00
    0.00000E+00         0.00000E+00        -0.47088E+08
 
   -0.45615E+08         0.15082E+07         0.00000E+00
    0.15082E+07        -0.49822E+08         0.00000E+00
    0.00000E+00         0.00000E+00        -0.47091E+08
 
   -0.45666E+08         0.15663E+07         0.00000E+00
    0.15663E+07        -0.49807E+08         0.00000E+00
    0.00000E+00         0.00000E+00        -0.47093E+08
 
   -0.45717E+08         0.16238E+07         0.00000E+00
    0.16238E+07        -0.49792E+08         0.00000E+00
    0.00000E+00         0.00000E+00        -0.47096E+08
 
   -0.45770E+08         0.16805E+07         0.00000E+00
    0.16805E+07        -0.49776E+08         0.00000E+00
    0.00000E+00         0.00000E+00        -0.47099E+08
 
   -0.45822E+08         0.17366E+07         0.00000E+00
    0.17366E+07        -0.49759E+08         0.00000E+00
    0.00000E+00         0.00000E+00        -0.47101E+08
 
   -0.45875E+08         0.17920E+07         0.00000E+00
    0.17920E+07        -0.49742E+08         0.00000E+00
    0.00000E+00         0.00000E+00        -0.47104E+08
 
   -0.45928E+08         0.18467E+07         0.00000E+00
    0.18467E+07        -0.49725E+08         0.00000E+00
    0.00000E+00         0.00000E+00        -0.47106E+08
 
   -0.45982E+08         0.19008E+07         0.00000E+00
    0.19008E+07        -0.49707E+08         0.00000E+00
    0.00000E+00         0.00000E+00        -0.47109E+08
 
   -0.46036E+08         0.19542E+07         0.00000E+00
    0.19542E+07        -0.49688E+08         0.00000E+00
    0.00000E+00         0.00000E+00        -0.47111E+08
 
   -0.46090E+08         0.20070E+07         0.00000E+00
    0.20070E+07        -0.49669E+08         0.00000E+00
    0.00000E+00         0.00000E+00        -0.47113E+08
 
   -0.46144E+08         0.20592E+07         0.00000E+00
    0.20592E+07        -0.49649E+08         0.00000E+00
    0.00000E+00         0.00000E+00        -0.47116E+08
 
   -0.46199E+08         0.21107E+07         0.00000E+00
    0.21107E+07        -0.49629E+08         0.00000E+00
    0.00000E+00         0.00000E+00        -0.47118E+08
 
   -0.46254E+08         0.21616E+07         0.00000E+00
    0.21616E+07        -0.49608E+08         0.00000E+00
    0.00000E+00         0.00000E+00        -0.47120E+08
 
   -0.46310E+08         0.22119E+07         0.00000E+00
    0.22119E+07        -0.49587E+08         0.00000E+00
    0.00000E+00         0.00000E+00        -0.47122E+08
 
   -0.46365E+08         0.22616E+07         0.00000E+00
    0.22616E+07        -0.49565E+08         0.00000E+00
    0.00000E+00         0.00000E+00        -0.47124E+08
 
   -0.46421E+08         0.23107E+07         0.00000E+00
    0.23107E+07        -0.49543E+08         0.00000E+00
    0.00000E+00         0.00000E+00        -0.47126E+08
 
   -0.46477E+08         0.23592E+07         0.00000E+00
    0.23592E+07        -0.49520E+08         0.00000E+00
    0.00000E+00         0.00000E+00        -0.47128E+08
 
   -0.46534E+08         0.24072E+07         0.00000E+00
    0.24072E+07        -0.49497E+08         0.00000E+00
    0.00000E+00         0.00000E+00        -0.47129E+08
 
   -0.46590E+08         0.24545E+07         0.00000E+00
    0.24545E+07        -0.49473E+08         0.00000E+00
    0.00000E+00         0.00000E+00        -0.47131E+08
 
   -0.46647E+08         0.25013E+07         0.00000E+00
    0.25013E+07        -0.49449E+08         0.00000E+00
    0.00000E+00         0.00000E+00        -0.47132E+08
 
   -0.46704E+08         0.25474E+07         0.00000E+00
    0.25474E+07        -0.49424E+08         0.00000E+00
    0.00000E+00         0.00000E+00        -0.47133E+08
 
   -0.46761E+08         0.25931E+07         0.00000E+00
    0.25931E+07        -0.49398E+08         0.00000E+00
    0.00000E+00         0.00000E+00        -0.47135E+08
 
   -0.46819E+08         0.26381E+07         0.00000E+00
    0.26381E+07        -0.49372E+08         0.00000E+00
    0.00000E+00         0.00000E+00        -0.47135E+08
 
   -0.46876E+08         0.26826E+07         0.00000E+00
    0.26826E+07        -0.49346E+08         0.00000E+00
    0.00000E+00         0.00000E+00        -0.47136E+08
 
   -0.46934E+08         0.27265E+07         0.00000E+00
    0.27265E+07        -0.49319E+08         0.00000E+00
    0.00000E+00         0.00000E+00        -0.47137E+08
 
   -0.46992E+08         0.27699E+07         0.00000E+00
    0.27699E+07        -0.49291E+08         0.00000E+00
    0.00000E+00         0.00000E+00        -0.47137E+08
 
   -0.47050E+08         0.28127E+07         0.00000E+00
    0.28127E+07        -0.49263E+08         0.00000E+00
    0.00000E+00         0.00000E+00        -0.47138E+08
 
   -0.47109E+08         0.28549E+07         0.00000E+00
    0.28549E+07        -0.49234E+08         0.00000E+00
    0.00000E+00         0.00000E+00        -0.47138E+08
 
   -0.44271E+08         0.40844E+05         0.00000E+00
    0.40844E+05        -0.50000E+08         0.00000E+00
    0.00000E+00         0.00000E+00        -0.46832E+08
 
   -0.44309E+08         0.12004E+06         0.00000E+00
    0.12004E+06        -0.49999E+08         0.00000E+00
    0.00000E+00         0.00000E+00        -0.46832E+08
 
   -0.44348E+08         0.19833E+06         0.00000E+00
    0.19833E+06        -0.49997E+08         0.00000E+00
    0.00000E+00         0.00000E+00        -0.46833E+08
 
   -0.44388E+08         0.27571E+06         0.00000E+00
    0.27571E+06        -0.49995E+08         0.00000E+00
    0.00000E+00         0.00000E+00        -0.46833E+08
 
   -0.44429E+08         0.35219E+06         0.00000E+00
    0.35219E+06        -0.49991E+08         0.00000E+00
    0.00000E+00         0.00000E+00        -0.46834E+08
 
   -0.44471E+08         0.42777E+06         0.00000E+00
    0.42777E+06        -0.49987E+08         0.00000E+00
    0.00000E+00         0.00000E+00        -0.46835E+08
 
   -0.44515E+08         0.50245E+06         0.00000E+00
    0.50245E+06        -0.49983E+08         0.00000E+00
    0.00000E+00         0.00000E+00        -0.46837E+08
 
   -0.44559E+08         0.57625E+06         0.00000E+00
    0.57625E+06        -0.49977E+08         0.00000E+00
    0.00000E+00         0.00000E+00        -0.46838E+08
 
   -0.44605E+08         0.64916E+06         0.00000E+00
    0.64916E+06        -0.49971E+08         0.00000E+00
    0.00000E+00         0.00000E+00        -0.46840E+08
 
   -0.44651E+08         0.72119E+06         0.00000E+00
    0.72119E+06        -0.49964E+08         0.00000E+00
    0.00000E+00         0.00000E+00        -0.46841E+08
 
   -0.44698E+08         0.79236E+06         0.00000E+00
    0.79236E+06        -0.49957E+08         0.00000E+00
    0.00000E+00         0.00000E+00        -0.46843E+08
 
   -0.44746E+08         0.86267E+06         0.00000E+00
    0.86267E+06        -0.49948E+08         0.00000E+00
    0.00000E+00         0.00000E+00        -0.46845E+08
 
   -0.44795E+08         0.93213E+06         0.00000E+00
    0.93213E+06        -0.49940E+08         0.00000E+00
    0.00000E+00         0.00000E+00        -0.46847E+08
 
   -0.44844E+08         0.10008E+07         0.00000E+00
    0.10008E+07        -0.49930E+08         0.00000E+00
    0.00000E+00         0.00000E+00        -0.46850E+08
 
   -0.44894E+08         0.10686E+07         0.00000E+00
    0.10686E+07        -0.49920E+08         0.00000E+00
    0.00000E+00         0.00000E+00        -0.46852E+08
 
   -0.44945E+08         0.11355E+07         0.00000E+00
    0.11355E+07        -0.49909E+08         0.00000E+00
    0.00000E+00         0.00000E+00        -0.46854E+08
 
   -0.44996E+08         0.12017E+07         0.00000E+00
    0.12017E+07        -0.49898E+08         0.00000E+00
    0.00000E+00         0.00000E+00        -0.46857E+08
 
   -0.45048E+08         0.12671E+07         0.00000E+00
    0.12671E+07        -0.49886E+08         0.00000E+00
    0.00000E+00         0.00000E+00        -0.46859E+08
 
   -0.45101E+08         0.13317E+07         0.00000E+00
    0.13317E+07        -0.49874E+08         0.00000E+00
    0.00000E+00         0.00000E+00        -0.46862E+08
 
   -0.45154E+08         0.13955E+07         0.00000E+00
    0.13955E+07        -0.49861E+08         0.00000E+00
    0.00000E+00         0.00000E+00        -0.46864E+08
 
   -0.45207E+08         0.14585E+07         0.00000E+00
    0.14585E+07        -0.49847E+08         0.00000E+00
    0.00000E+00         0.00000E+00        -0.46867E+08
 
   -0.45261E+08         0.15208E+07         0.00000E+00
    0.15208E+07        -0.49833E+08         0.00000E+00
    0.00000E+00         0.00000E+00        -0.46870E+08
 
   -0.45315E+08         0.15824E+07         0.00000E+00
    0.15824E+07        -0.49818E+08         0.00000E+00
    0.00000E+00         0.00000E+00        -0.46873E+08
 
   -0.45370E+08         0.16433E+07         0.00000E+00
    0.16433E+07        -0.49803E+08         0.00000E+00
    0.00000E+00         0.00000E+00        -0.46875E+08
 
   -0.45425E+08         0.17034E+07         0.00000E+00
    0.17034E+07        -0.49787E+08         0.00000E+00
    0.00000E+00         0.00000E+00        -0.46878E+08
 
   -0.45481E+08         0.17628E+07         0.00000E+00
    0.17628E+07        -0.49771E+08         0.00000E+00
    0.00000E+00         0.00000E+00        -0.46881E+08
 
   -0.45537E+08         0.18216E+07         0.00000E+00
    0.18216E+07        -0.49754E+08         0.00000E+00
    0.00000E+00         0.00000E+00        -0.46883E+08
 
   -0.45593E+08         0.18797E+07         0.00000E+00
    0.18797E+07        -0.49736E+08         0.00000E+00
    0.00000E+00         0.00000E+00        -0.46886E+08
 
   -0.45649E+08         0.19370E+07         0.00000E+00
    0.19370E+07        -0.49718E+08         0.00000E+00
    0.00000E+00         0.00000E+00        -0.46889E+08
 
   -0.45706E+08         0.19938E+07         0.00000E+00
    0.19938E+07        -0.49700E+08         0.00000E+00
    0.00000E+00         0.00000E+00        -0.46891E+08
 
   -0.45763E+08         0.20499E+07         0.00000E+00
    0.20499E+07        -0.49681E+08         0.00000E+00
    0.00000E+00         0.00000E+00        -0.46894E+08
 
   -0.45821E+08         0.21053E+07         0.00000E+00
    0.21053E+07        -0.49661E+08         0.00000E+00
    0.00000E+00         0.00000E+00        -0.46896E+08
 
   -0.45878E+08         0.21602E+07         0.00000E+00
    0.21602E+07        -0.49641E+08         0.00000E+00
    0.00000E+00         0.00000E+00        -0.46899E+08
 
   -0.45936E+08         0.22144E+07         0.00000E+00
    0.22144E+07        -0.49620E+08         0.00000E+00
    0.00000E+00         0.00000E+00        -0.46901E+08
 
   -0.45994E+08         0.22680E+07         0.00000E+00
    0.22680E+07        -0.49599E+08         0.00000E+00
    0.00000E+00         0.00000E+00        -0.46903E+08
 
   -0.46053E+08         0.23210E+07         0.00000E+00
    0.23210E+07        -0.49577E+08         0.00000E+00
    0.00000E+00         0.00000E+00        -0.46905E+08
 
   -0.46111E+08         0.23734E+07         0.00000E+00
    0.23734E+07        -0.49555E+08         0.00000E+00
    0.00000E+00         0.00000E+00        -0.46907E+08
 
   -0.46170E+08         0.24252E+07         0.00000E+00
    0.24252E+07        -0.49532E+08         0.00000E+00
    0.00000E+00         0.00000E+00        -0.46909E+08
 
   -0.46229E+08         0.24764E+07         0.00000E+00
    0.24764E+07        -0.49508E+08         0.00000E+00
    0.00000E+00         0.00000E+00        -0.46911E+08
 
   -0.46288E+08         0.25271E+07         0.00000E+00
    0.25271E+07        -0.49484E+08         0.00000E+00
    0.00000E+00         0.00000E+00        -0.46913E+08
 
   -0.46348E+08         0.25772E+07         0.00000E+00
    0.25772E+07        -0.49459E+08         0.00000E+00
    0.00000E+00         0.00000E+00        -0.46914E+08
 
   -0.46408E+08         0.26268E+07         0.00000E+00
    0.26268E+07        -0.49434E+08         0.00000E+00
    0.00000E+00         0.00000E+00        -0.46916E+08
 
   -0.46467E+08         0.26758E+07         0.00000E+00
    0.26758E+07        -0.49408E+08         0.00000E+00
    0.00000E+00         0.00000E+00        -0.46917E+08
 
   -0.46527E+08         0.27242E+07         0.00000E+00
    0.27242E+07        -0.49382E+08         0.00000E+00
    0.00000E+00         0.00000E+00        -0.46918E+08
 
   -0.46588E+08         0.27721E+07         0.00000E+00
    0.27721E+07        -0.49355E+08         0.00000E+00
    0.00000E+00         0.00000E+00        -0.46919E+08
 
   -0.46648E+08         0.28194E+07         0.00000E+00
    0.28194E+07        -0.49327E+08         0.00000E+00
    0.00000E+00         0.00000E+00        -0.46920E+08
 
   -0.46709E+08         0.28663E+07         0.00000E+00
    0.28663E+07        -0.49299E+08         0.00000E+00
    0.00000E+00         0.00000E+00        -0.46921E+08
 
   -0.46769E+08         0.29125E+07         0.00000E+00
    0.29125E+07        -0.49270E+08         0.00000E+00
    0.00000E+00         0.00000E+00        -0.46922E+08
 
   -0.46830E+08         0.29583E+07         0.00000E+00
    0.29583E+07        -0.49241E+08         0.00000E+00
    0.00000E+00         0.00000E+00        -0.46922E+08
 
   -0.46892E+08         0.30035E+07         0.00000E+00
    0.30035E+07        -0.49211E+08         0.00000E+00
    0.00000E+00         0.00000E+00        -0.46922E+08
 
   -0.43862E+08         0.43135E+05         0.00000E+00
    0.43135E+05        -0.50000E+08         0.00000E+00
    0.00000E+00         0.00000E+00        -0.46596E+08
 
   -0.43904E+08         0.12655E+06         0.00000E+00
    0.12655E+06        -0.49999E+08         0.00000E+00
    0.00000E+00         0.00000E+00        -0.46596E+08
 
   -0.43948E+08         0.20894E+06         0.00000E+00
    0.20894E+06        -0.49997E+08         0.00000E+00
    0.00000E+00         0.00000E+00        -0.46597E+08
 
   -0.43993E+08         0.29030E+06         0.00000E+00
    0.29030E+06        -0.49995E+08         0.00000E+00
    0.00000E+00         0.00000E+00        -0.46597E+08
 
   -0.44039E+08         0.37065E+06         0.00000E+00
    0.37065E+06        -0.49991E+08         0.00000E+00
    0.00000E+00         0.00000E+00        -0.46598E+08
 
   -0.44087E+08         0.44999E+06         0.00000E+00
    0.44999E+06        -0.49987E+08         0.00000E+00
    0.00000E+00         0.00000E+00        -0.46599E+08
 
   -0.44135E+08         0.52833E+06         0.00000E+00
    0.52833E+06        -0.49982E+08         0.00000E+00
    0.00000E+00         0.00000E+00        -0.46601E+08
 
   -0.44184E+08         0.60570E+06         0.00000E+00
    0.60570E+06        -0.49977E+08         0.00000E+00
    0.00000E+00         0.00000E+00        -0.46602E+08
 
   -0.44234E+08         0.68209E+06         0.00000E+00
    0.68209E+06        -0.49971E+08         0.00000E+00
    0.00000E+00         0.00000E+00        -0.46604E+08
 
   -0.44285E+08         0.75752E+06         0.00000E+00
    0.75752E+06        -0.49964E+08         0.00000E+00
    0.00000E+00         0.00000E+00        -0.46606E+08
 
   -0.44336E+08         0.83201E+06         0.00000E+00
    0.83201E+06        -0.49956E+08         0.00000E+00
    0.00000E+00         0.00000E+00        -0.46608E+08
 
   -0.44388E+08         0.90557E+06         0.00000E+00
    0.90557E+06        -0.49948E+08         0.00000E+00
    0.00000E+00         0.00000E+00        -0.46610E+08
 
   -0.44442E+08         0.97822E+06         0.00000E+00
    0.97822E+06        -0.49939E+08         0.00000E+00
    0.00000E+00         0.00000E+00        -0.46612E+08
 
   -0.44495E+08         0.10500E+07         0.00000E+00
    0.10500E+07        -0.49929E+08         0.00000E+00
    0.00000E+00         0.00000E+00        -0.46614E+08
 
   -0.44550E+08         0.11208E+07         0.00000E+00
    0.11208E+07        -0.49919E+08         0.00000E+00
    0.00000E+00         0.00000E+00        -0.46617E+08
 
   -0.44604E+08         0.11908E+07         0.00000E+00
    0.11908E+07        -0.49908E+08         0.00000E+00
    0.00000E+00         0.00000E+00        -0.46619E+08
 
   -0.44660E+08         0.12600E+07         0.00000E+00
    0.12600E+07        -0.49897E+08         0.00000E+00
    0.00000E+00         0.00000E+00        -0.46622E+08
 
   -0.44716E+08         0.13283E+07         0.00000E+00
    0.13283E+07        -0.49885E+08         0.00000E+00
    0.00000E+00         0.00000E+00        -0.46625E+08
 
   -0.44772E+08         0.13958E+07         0.00000E+00
    0.13958E+07        -0.49872E+08         0.00000E+00
    0.00000E+00         0.00000E+00        -0.46627E+08
 
   -0.44829E+08         0.14625E+07         0.00000E+00
    0.14625E+07        -0.49859E+08         0.00000E+00
    0.00000E+00         0.00000E+00        -0.46630E+08
 
   -0.44886E+08         0.15284E+07         0.00000E+00
    0.15284E+07        -0.49845E+08         0.00000E+00
    0.00000E+00         0.00000E+00        -0.46633E+08
 
   -0.44944E+08         0.15935E+07         0.00000E+00
    0.15935E+07        -0.49831E+08         0.00000E+00
    0.00000E+00         0.00000E+00        -0.46636E+08
 
   -0.45002E+08         0.16579E+07         0.00000E+00
    0.16579E+07        -0.49816E+08         0.00000E+00
    0.00000E+00         0.00000E+00        -0.46639E+08
 
   -0.45061E+08         0.17215E+07         0.00000E+00
    0.17215E+07        -0.49801E+08         0.00000E+00
    0.00000E+00         0.00000E+00        -0.46641E+08
 
   -0.45119E+08         0.17844E+07         0.00000E+00
    0.17844E+07        -0.49785E+08         0.00000E+00
    0.00000E+00         0.00000E+00        -0.46644E+08
 
   -0.45178E+08         0.18466E+07         0.00000E+00
    0.18466E+07        -0.49768E+08         0.00000E+00
    0.00000E+00         0.00000E+00        -0.46647E+08
 
   -0.45238E+08         0.19082E+07         0.00000E+00
    0.19082E+07        -0.49751E+08         0.00000E+00
    0.00000E+00         0.00000E+00        -0.46650E+08
 
   -0.45297E+08         0.19690E+07         0.00000E+00
    0.19690E+07        -0.49733E+08         0.00000E+00
    0.00000E+00         0.00000E+00        -0.46653E+08
 
   -0.45357E+08         0.20292E+07         0.00000E+00
    0.20292E+07        -0.49715E+08         0.00000E+00
    0.00000E+00         0.00000E+00        -0.46656E+08
 
   -0.45417E+08         0.20887E+07         0.00000E+00
    0.20887E+07        -0.49696E+08         0.00000E+00
    0.00000E+00         0.00000E+00        -0.46658E+08
 
   -0.45477E+08         0.21476E+07         0.00000E+00
    0.21476E+07        -0.49677E+08         0.00000E+00
    0.00000E+00         0.00000E+00        -0.46661E+08
 
   -0.45538E+08         0.22058E+07         0.00000E+00
    0.22058E+07        -0.49657E+08         0.00000E+00
    0.00000E+00         0.00000E+00        -0.46663E+08
 
   -0.45599E+08         0.22635E+07         0.00000E+00
    0.22635E+07        -0.49636E+08         0.00000E+00
    0.00000E+00         0.00000E+00        -0.46666E+08
 
   -0.45660E+08         0.23205E+07         0.00000E+00
    0.23205E+07        -0.49615E+08         0.00000E+00
    0.00000E+00         0.00000E+00        -0.46668E+08
 
   -0.45721E+08         0.23770E+07         0.00000E+00
    0.23770E+07        -0.49593E+08         0.00000E+00
    0.00000E+00         0.00000E+00        -0.46671E+08
 
   -0.45782E+08         0.24329E+07         0.00000E+00
    0.24329E+07        -0.49571E+08         0.00000E+00
    0.00000E+00         0.00000E+00        -0.46673E+08
 
   -0.45844E+08         0.24882E+07         0.00000E+00
    0.24882E+07        -0.49548E+08         0.00000E+00
    0.00000E+00         0.00000E+00        -0.46675E+08
 
   -0.45905E+08         0.25429E+07         0.00000E+00
    0.25429E+07        -0.49525E+08         0.00000E+00
    0.00000E+00         0.00000E+00        -0.46677E+08
 
   -0.45967E+08         0.25971E+07         0.00000E+00
    0.25971E+07        -0.49501E+08         0.00000E+00
    0.00000E+00         0.00000E+00        -0.46679E+08
 
   -0.46029E+08         0.26507E+07         0.00000E+00
    0.26507E+07        -0.49476E+08         0.00000E+00
    0.00000E+00         0.00000E+00        -0.46681E+08
 
   -0.46091E+08         0.27038E+07         0.00000E+00
    0.27038E+07        -0.49451E+08         0.00000E+00
    0.00000E+00         0.00000E+00        -0.46683E+08
 
   -0.46154E+08         0.27564E+07         0.00000E+00
    0.27564E+07        -0.49425E+08         0.00000E+00
    0.00000E+00         0.00000E+00        -0.46684E+08
 
   -0.46216E+08         0.28085E+07         0.00000E+00
    0.28085E+07        -0.49398E+08         0.00000E+00
    0.00000E+00         0.00000E+00        -0.46685E+08
 
   -0.46279E+08         0.28600E+07         0.00000E+00
    0.28600E+07        -0.49371E+08         0.00000E+00
    0.00000E+00         0.00000E+00        -0.46687E+08
 
   -0.46342E+08         0.29110E+07         0.00000E+00
    0.29110E+07        -0.49343E+08         0.00000E+00
    0.00000E+00         0.00000E+00        -0.46688E+08
 
   -0.46405E+08         0.29615E+07         0.00000E+00
    0.29615E+07        -0.49314E+08         0.00000E+00
    0.00000E+00         0.00000E+00        -0.46689E+08
 
   -0.46468E+08         0.30115E+07         0.00000E+00
    0.30115E+07        -0.49285E+08         0.00000E+00
    0.00000E+00         0.00000E+00        -0.46689E+08
 
   -0.46531E+08         0.30610E+07         0.00000E+00
    0.30610E+07        -0.49255E+08         0.00000E+00
    0.00000E+00         0.00000E+00        -0.46690E+08
 
   -0.46595E+08         0.31100E+07         0.00000E+00
    0.31100E+07        -0.49224E+08         0.00000E+00
    0.00000E+00         0.00000E+00        -0.46690E+08
 
   -0.46659E+08         0.31585E+07         0.00000E+00
    0.31585E+07        -0.49193E+08         0.00000E+00
    0.00000E+00         0.00000E+00        -0.46690E+08
 
   -0.43431E+08         0.45475E+05         0.00000E+00
    0.45475E+05        -0.50000E+08         0.00000E+00
    0.00000E+00         0.00000E+00        -0.46343E+08
 
   -0.43479E+08         0.13317E+06         0.00000E+00
    0.13317E+06        -0.49999E+08         0.00000E+00
    0.00000E+00         0.00000E+00        -0.46343E+08
 
   -0.43529E+08         0.21969E+06         0.00000E+00
    0.21969E+06        -0.49997E+08         0.00000E+00
    0.00000E+00         0.00000E+00        -0.46343E+08
 
   -0.43579E+08         0.30507E+06         0.00000E+00
    0.30507E+06        -0.49995E+08         0.00000E+00
    0.00000E+00         0.00000E+00        -0.46344E+08
 
   -0.43630E+08         0.38930E+06         0.00000E+00
    0.38930E+06        -0.49991E+08         0.00000E+00
    0.00000E+00         0.00000E+00        -0.46345E+08
 
   -0.43683E+08         0.47242E+06         0.00000E+00
    0.47242E+06        -0.49987E+08         0.00000E+00
    0.00000E+00         0.00000E+00        -0.46346E+08
 
   -0.43736E+08         0.55443E+06         0.00000E+00
    0.55443E+06        -0.49982E+08         0.00000E+00
    0.00000E+00         0.00000E+00        -0.46348E+08
 
   -0.43790E+08         0.63536E+06         0.00000E+00
    0.63536E+06        -0.49977E+08         0.00000E+00
    0.00000E+00         0.00000E+00        -0.46349E+08
 
   -0.43845E+08         0.71522E+06         0.00000E+00
    0.71522E+06        -0.49970E+08         0.00000E+00
    0.00000E+00         0.00000E+00        -0.46351E+08
 
   -0.43901E+08         0.79405E+06         0.00000E+00
    0.79405E+06        -0.49964E+08         0.00000E+00
    0.00000E+00         0.00000E+00        -0.46353E+08
 
   -0.43958E+08         0.87185E+06         0.00000E+00
    0.87185E+06        -0.49956E+08         0.00000E+00
    0.00000E+00         0.00000E+00        -0.46355E+08
 
   -0.44015E+08         0.94865E+06         0.00000E+00
    0.94865E+06        -0.49948E+08         0.00000E+00
    0.00000E+00         0.00000E+00        -0.46357E+08
 
   -0.44073E+08         0.10245E+07         0.00000E+00
    0.10245E+07        -0.49939E+08         0.00000E+00
    0.00000E+00         0.00000E+00        -0.46360E+08
 
   -0.44131E+08         0.10993E+07         0.00000E+00
    0.10993E+07        -0.49929E+08         0.00000E+00
    0.00000E+00         0.00000E+00        -0.46362E+08
 
   -0.44190E+08         0.11733E+07         0.00000E+00
    0.11733E+07        -0.49919E+08         0.00000E+00
    0.00000E+00         0.00000E+00        -0.46365E+08
 
   -0.44249E+08         0.12463E+07         0.00000E+00
    0.12463E+07        -0.49908E+08         0.00000E+00
    0.00000E+00         0.00000E+00        -0.46367E+08
 
   -0.44309E+08         0.13184E+07         0.00000E+00
    0.13184E+07        -0.49897E+08         0.00000E+00
    0.00000E+00         0.00000E+00        -0.46370E+08
 
   -0.44369E+08         0.13896E+07         0.00000E+00
    0.13896E+07        -0.49885E+08         0.00000E+00
    0.00000E+00         0.00000E+00        -0.46373E+08
 
   -0.44429E+08         0.14601E+07         0.00000E+00
    0.14601E+07        -0.49873E+08         0.00000E+00
    0.00000E+00         0.00000E+00        -0.46376E+08
 
   -0.44490E+08         0.15296E+07         0.00000E+00
    0.15296E+07        -0.49859E+08         0.00000E+00
    0.00000E+00         0.00000E+00        -0.46379E+08
 
   -0.44552E+08         0.15984E+07         0.00000E+00
    0.15984E+07        -0.49846E+08         0.00000E+00
    0.00000E+00         0.00000E+00        -0.46381E+08
 
   -0.44613E+08         0.16664E+07         0.00000E+00
    0.16664E+07        -0.49832E+08         0.00000E+00
    0.00000E+00         0.00000E+00        -0.46384E+08
 
   -0.44675E+08         0.17336E+07         0.00000E+00
    0.17336E+07        -0.49817E+08         0.00000E+00
    0.00000E+00         0.00000E+00        -0.46387E+08
 
   -0.44737E+08         0.18001E+07         0.00000E+00
    0.18001E+07        -0.49801E+08         0.00000E+00
    0.00000E+00         0.00000E+00        -0.46390E+08
 
   -0.44799E+08         0.18659E+07         0.00000E+00
    0.18659E+07        -0.49785E+08         0.00000E+00
    0.00000E+00         0.00000E+00        -0.46393E+08
 
   -0.44862E+08         0.19309E+07         0.00000E+00
    0.19309E+07        -0.49769E+08         0.00000E+00
    0.00000E+00         0.00000E+00        -0.46396E+08
 
   -0.44925E+08         0.19953E+07         0.00000E+00
    0.19953E+07        -0.49752E+08         0.00000E+00
    0.00000E+00         0.00000E+00        -0.46399E+08
 
   -0.44987E+08         0.20590E+07         0.00000E+00
    0.20590E+07        -0.49734E+08         0.00000E+00
    0.00000E+00         0.00000E+00        -0.46402E+08
 
   -0.45051E+08         0.21221E+07         0.00000E+00
    0.21221E+07        -0.49716E+08         0.00000E+00
    0.00000E+00         0.00000E+00        -0.46405E+08
 
   -0.45114E+08         0.21845E+07         0.00000E+00
    0.21845E+07        -0.49697E+08         0.00000E+00
    0.00000E+00         0.00000E+00        -0.46408E+08
 
   -0.45177E+08         0.22463E+07         0.00000E+00
    0.22463E+07        -0.49677E+08         0.00000E+00
    0.00000E+00         0.00000E+00        -0.46411E+08
 
   -0.45241E+08         0.23076E+07         0.00000E+00
    0.23076E+07        -0.49657E+08         0.00000E+00
    0.00000E+00         0.00000E+00        -0.46413E+08
 
   -0.45304E+08         0.23682E+07         0.00000E+00
    0.23682E+07        -0.49636E+08         0.00000E+00
    0.00000E+00         0.00000E+00        -0.46416E+08
 
   -0.45368E+08         0.24282E+07         0.00000E+00
    0.24282E+07        -0.49615E+08         0.00000E+00
    0.00000E+00         0.00000E+00        -0.46418E+08
 
   -0.45432E+08         0.24877E+07         0.00000E+00
    0.24877E+07        -0.49593E+08         0.00000E+00
    0.00000E+00         0.00000E+00        -0.46421E+08
 
   -0.45496E+08         0.25467E+07         0.00000E+00
    0.25467E+07        -0.49571E+08         0.00000E+00
    0.00000E+00         0.00000E+00        -0.46423E+08
 
   -0.45561E+08         0.26051E+07         0.00000E+00
    0.26051E+07        -0.49547E+08         0.00000E+00
    0.00000E+00         0.00000E+00        -0.46425E+08
 
   -0.45625E+08         0.26630E+07         0.00000E+00
    0.26630E+07        -0.49524E+08         0.00000E+00
    0.00000E+00         0.00000E+00        -0.46428E+08
 
   -0.45689E+08         0.27204E+07         0.00000E+00
    0.27204E+07        -0.49499E+08         0.00000E+00
    0.00000E+00         0.00000E+00        -0.46430E+08
 
   -0.45754E+08         0.27772E+07         0.00000E+00
    0.27772E+07        -0.49474E+08         0.00000E+00
    0.00000E+00         0.00000E+00        -0.46431E+08
 
   -0.45819E+08         0.28336E+07         0.00000E+00
    0.28336E+07        -0.49448E+08         0.00000E+00
    0.00000E+00         0.00000E+00        -0.46433E+08
 
   -0.45884E+08         0.28895E+07         0.00000E+00
    0.28895E+07        -0.49422E+08         0.00000E+00
    0.00000E+00         0.00000E+00        -0.46435E+08
 
   -0.45949E+08         0.29449E+07         0.00000E+00
    0.29449E+07        -0.49394E+08         0.00000E+00
    0.00000E+00         0.00000E+00        -0.46436E+08
 
   -0.46014E+08         0.29998E+07         0.00000E+00
    0.29998E+07        -0.49366E+08         0.00000E+00
    0.00000E+00         0.00000E+00        -0.46437E+08
 
   -0.46079E+08         0.30542E+07         0.00000E+00
    0.30542E+07        -0.49338E+08         0.00000E+00
    0.00000E+00         0.00000E+00        -0.46438E+08
 
   -0.46145E+08         0.31082E+07         0.00000E+00
    0.31082E+07        -0.49308E+08         0.00000E+00
    0.00000E+00         0.00000E+00        -0.46439E+08
 
   -0.46210E+08         0.31618E+07         0.00000E+00
    0.31618E+07        -0.49278E+08         0.00000E+00
    0.00000E+00         0.00000E+00        -0.46440E+08
 
   -0.46276E+08         0.32148E+07         0.00000E+00
    0.32148E+07        -0.49247E+08         0.00000E+00
    0.00000E+00         0.00000E+00        -0.46441E+08
 
   -0.46342E+08         0.32674E+07         0.00000E+00
    0.32674E+07        -0.49216E+08         0.00000E+00
    0.00000E+00         0.00000E+00        -0.46441E+08
 
   -0.46408E+08         0.33196E+07         0.00000E+00
    0.33196E+07        -0.49183E+08         0.00000E+00
    0.00000E+00         0.00000E+00        -0.46441E+08
 
   -0.42979E+08         0.47830E+05         0.00000E+00
    0.47830E+05        -0.50000E+08         0.00000E+00
    0.00000E+00         0.00000E+00        -0.46070E+08
 
   -0.43033E+08         0.13979E+06         0.00000E+00
    0.13979E+06        -0.49999E+08         0.00000E+00
    0.00000E+00         0.00000E+00        -0.46071E+08
 
   -0.43089E+08         0.23042E+06         0.00000E+00
    0.23042E+06        -0.49997E+08         0.00000E+00
    0.00000E+00         0.00000E+00        -0.46071E+08
 
   -0.43145E+08         0.31977E+06         0.00000E+00
    0.31977E+06        -0.49995E+08         0.00000E+00
    0.00000E+00         0.00000E+00        -0.46072E+08
 
   -0.43203E+08         0.40784E+06         0.00000E+00
    0.40784E+06        -0.49991E+08         0.00000E+00
    0.00000E+00         0.00000E+00        -0.46073E+08
 
   -0.43261E+08         0.49468E+06         0.00000E+00
    0.49468E+06        -0.49987E+08         0.00000E+00
    0.00000E+00         0.00000E+00        -0.46074E+08
 
   -0.43320E+08         0.58029E+06         0.00000E+00
    0.58029E+06        -0.49983E+08         0.00000E+00
    0.00000E+00         0.00000E+00        -0.46076E+08
 
   -0.43380E+08         0.66473E+06         0.00000E+00
    0.66473E+06        -0.49977E+08         0.00000E+00
    0.00000E+00         0.00000E+00        -0.46077E+08
 
   -0.43440E+08         0.74800E+06         0.00000E+00
    0.74800E+06        -0.49971E+08         0.00000E+00
    0.00000E+00         0.00000E+00        -0.46079E+08
 
   -0.43501E+08         0.83014E+06         0.00000E+00
    0.83014E+06        -0.49964E+08         0.00000E+00
    0.00000E+00         0.00000E+00        -0.46081E+08
 
   -0.43563E+08         0.91119E+06         0.00000E+00
    0.91119E+06        -0.49957E+08         0.00000E+00
    0.00000E+00         0.00000E+00        -0.46084E+08
 
   -0.43625E+08         0.99116E+06         0.00000E+00
    0.99116E+06        -0.49949E+08         0.00000E+00
    0.00000E+00         0.00000E+00        -0.46086E+08
 
   -0.43688E+08         0.10701E+07         0.00000E+00
    0.10701E+07        -0.49940E+08         0.00000E+00
    0.00000E+00         0.00000E+00        -0.46088E+08
 
   -0.43751E+08         0.11480E+07         0.00000E+00
    0.11480E+07        -0.49931E+08         0.00000E+00
    0.00000E+00         0.00000E+00        -0.46091E+08
 
   -0.43815E+08         0.12249E+07         0.00000E+00
    0.12249E+07        -0.49921E+08         0.00000E+00
    0.00000E+00         0.00000E+00        -0.46093E+08
 
   -0.43879E+08         0.13009E+07         0.00000E+00
    0.13009E+07        -0.49910E+08         0.00000E+00
    0.00000E+00         0.00000E+00        -0.46096E+08
 
   -0.43943E+08         0.13760E+07         0.00000E+00
    0.13760E+07        -0.49899E+08         0.00000E+00
    0.00000E+00         0.00000E+00        -0.46099E+08
 
   -0.44007E+08         0.14502E+07         0.00000E+00
    0.14502E+07        -0.49888E+08         0.00000E+00
    0.00000E+00         0.00000E+00        -0.46102E+08
 
   -0.44072E+08         0.15235E+07         0.00000E+00
    0.15235E+07        -0.49875E+08         0.00000E+00
    0.00000E+00         0.00000E+00        -0.46105E+08
 
   -0.44137E+08         0.15959E+07         0.00000E+00
    0.15959E+07        -0.49863E+08         0.00000E+00
    0.00000E+00         0.00000E+00        -0.46108E+08
 
   -0.44202E+08         0.16676E+07         0.00000E+00
    0.16676E+07        -0.49849E+08         0.00000E+00
    0.00000E+00         0.00000E+00        -0.46111E+08
 
   -0.44268E+08         0.17384E+07         0.00000E+00
    0.17384E+07        -0.49835E+08         0.00000E+00
    0.00000E+00         0.00000E+00        -0.46114E+08
 
   -0.44333E+08         0.18086E+07         0.00000E+00
    0.18086E+07        -0.49821E+08         0.00000E+00
    0.00000E+00         0.00000E+00        -0.46117E+08
 
   -0.44399E+08         0.18779E+07         0.00000E+00
    0.18779E+07        -0.49806E+08         0.00000E+00
    0.00000E+00         0.00000E+00        -0.46120E+08
 
   -0.44465E+08         0.19466E+07         0.00000E+00
    0.19466E+07        -0.49790E+08         0.00000E+00
    0.00000E+00         0.00000E+00        -0.46123E+08
 
   -0.44531E+08         0.20146E+07         0.00000E+00
    0.20146E+07        -0.49774E+08         0.00000E+00
    0.00000E+00         0.00000E+00        -0.46126E+08
 
   -0.44597E+08         0.20819E+07         0.00000E+00
    0.20819E+07        -0.49757E+08         0.00000E+00
    0.00000E+00         0.00000E+00        -0.46129E+08
 
   -0.44663E+08         0.21486E+07         0.00000E+00
    0.21486E+07        -0.49739E+08         0.00000E+00
    0.00000E+00         0.00000E+00        -0.46132E+08
 
   -0.44729E+08         0.22146E+07         0.00000E+00
    0.22146E+07        -0.49721E+08         0.00000E+00
    0.00000E+00         0.00000E+00        -0.46135E+08
 
   -0.44795E+08         0.22801E+07         0.00000E+00
    0.22801E+07        -0.49703E+08         0.00000E+00
    0.00000E+00         0.00000E+00        -0.46138E+08
 
   -0.44862E+08         0.23450E+07         0.00000E+00
    0.23450E+07        -0.49683E+08         0.00000E+00
    0.00000E+00         0.00000E+00        -0.46141E+08
 
   -0.44928E+08         0.24093E+07         0.00000E+00
    0.24093E+07        -0.49663E+08         0.00000E+00
    0.00000E+00         0.00000E+00        -0.46144E+08
 
   -0.44995E+08         0.24731E+07         0.00000E+00
    0.24731E+07        -0.49643E+08         0.00000E+00
    0.00000E+00         0.00000E+00        -0.46147E+08
 
   -0.45061E+08         0.25363E+07         0.00000E+00
    0.25363E+07        -0.49621E+08         0.00000E+00
    0.00000E+00         0.00000E+00        -0.46149E+08
 
   -0.45128E+08         0.25991E+07         0.00000E+00
    0.25991E+07        -0.49600E+08         0.00000E+00
    0.00000E+00         0.00000E+00        -0.46152E+08
 
   -0.45195E+08         0.26613E+07         0.00000E+00
    0.26613E+07        -0.49577E+08         0.00000E+00
    0.00000E+00         0.00000E+00        -0.46154E+08
 
   -0.45261E+08         0.27231E+07         0.00000E+00
    0.27231E+07        -0.49554E+08         0.00000E+00
    0.00000E+00         0.00000E+00        -0.46156E+08
 
   -0.45328E+08         0.27844E+07         0.00000E+00
    0.27844E+07        -0.49530E+08         0.00000E+00
    0.00000E+00         0.00000E+00        -0.46158E+08
 
   -0.45395E+08         0.28452E+07         0.00000E+00
    0.28452E+07        -0.49505E+08         0.00000E+00
    0.00000E+00         0.00000E+00        -0.46160E+08
 
   -0.45462E+08         0.29055E+07         0.00000E+00
    0.29055E+07        -0.49480E+08         0.00000E+00
    0.00000E+00         0.00000E+00        -0.46162E+08
 
   -0.45529E+08         0.29655E+07         0.00000E+00
    0.29655E+07        -0.49454E+08         0.00000E+00
    0.00000E+00         0.00000E+00        -0.46164E+08
 
   -0.45596E+08         0.30250E+07         0.00000E+00
    0.30250E+07        -0.49427E+08         0.00000E+00
    0.00000E+00         0.00000E+00        -0.46166E+08
 
   -0.45664E+08         0.30841E+07         0.00000E+00
    0.30841E+07        -0.49399E+08         0.00000E+00
    0.00000E+00         0.00000E+00        -0.46167E+08
 
   -0.45731E+08         0.31427E+07         0.00000E+00
    0.31427E+07        -0.49371E+08         0.00000E+00
    0.00000E+00         0.00000E+00        -0.46168E+08
 
   -0.45799E+08         0.32010E+07         0.00000E+00
    0.32010E+07        -0.49341E+08         0.00000E+00
    0.00000E+00         0.00000E+00        -0.46170E+08
 
   -0.45866E+08         0.32588E+07         0.00000E+00
    0.32588E+07        -0.49311E+08         0.00000E+00
    0.00000E+00         0.00000E+00        -0.46171E+08
 
   -0.45934E+08         0.33162E+07         0.00000E+00
    0.33162E+07        -0.49280E+08         0.00000E+00
    0.00000E+00         0.00000E+00        -0.46171E+08
 
   -0.46002E+08         0.33732E+07         0.00000E+00
    0.33732E+07        -0.49249E+08         0.00000E+00
    0.00000E+00         0.00000E+00        -0.46172E+08
 
   -0.46070E+08         0.34299E+07         0.00000E+00
    0.34299E+07        -0.49216E+08         0.00000E+00
    0.00000E+00         0.00000E+00        -0.46172E+08
 
   -0.46138E+08         0.34861E+07         0.00000E+00
    0.34861E+07        -0.49183E+08         0.00000E+00
    0.00000E+00         0.00000E+00        -0.46173E+08
 
   -0.42505E+08         0.50154E+05         0.00000E+00
    0.50154E+05        -0.50000E+08         0.00000E+00
    0.00000E+00         0.00000E+00        -0.45777E+08
 
   -0.42566E+08         0.14627E+06         0.00000E+00
    0.14627E+06        -0.49999E+08         0.00000E+00
    0.00000E+00         0.00000E+00        -0.45778E+08
 
   -0.42629E+08         0.24090E+06         0.00000E+00
    0.24090E+06        -0.49997E+08         0.00000E+00
    0.00000E+00         0.00000E+00        -0.45778E+08
 
   -0.42692E+08         0.33409E+06         0.00000E+00
    0.33409E+06        -0.49995E+08         0.00000E+00
    0.00000E+00         0.00000E+00        -0.45779E+08
 
   -0.42756E+08         0.42587E+06         0.00000E+00
    0.42587E+06        -0.49992E+08         0.00000E+00
    0.00000E+00         0.00000E+00        -0.45780E+08
 
   -0.42821E+08         0.51629E+06         0.00000E+00
    0.51629E+06        -0.49988E+08         0.00000E+00
    0.00000E+00         0.00000E+00        -0.45781E+08
 
   -0.42886E+08         0.60537E+06         0.00000E+00
    0.60537E+06        -0.49983E+08         0.00000E+00
    0.00000E+00         0.00000E+00        -0.45783E+08
 
   -0.42952E+08         0.69316E+06         0.00000E+00
    0.69316E+06        -0.49978E+08         0.00000E+00
    0.00000E+00         0.00000E+00        -0.45785E+08
 
   -0.43019E+08         0.77969E+06         0.00000E+00
    0.77969E+06        -0.49972E+08         0.00000E+00
    0.00000E+00         0.00000E+00        -0.45787E+08
 
   -0.43085E+08         0.86502E+06         0.00000E+00
    0.86502E+06        -0.49966E+08         0.00000E+00
    0.00000E+00         0.00000E+00        -0.45789E+08
 
   -0.43153E+08         0.94916E+06         0.00000E+00
    0.94916E+06        -0.49959E+08         0.00000E+00
    0.00000E+00         0.00000E+00        -0.45791E+08
 
   -0.43220E+08         0.10322E+07         0.00000E+00
    0.10322E+07        -0.49951E+08         0.00000E+00
    0.00000E+00         0.00000E+00        -0.45793E+08
 
   -0.43288E+08         0.11141E+07         0.00000E+00
    0.11141E+07        -0.49943E+08         0.00000E+00
    0.00000E+00         0.00000E+00        -0.45796E+08
 
   -0.43357E+08         0.11950E+07         0.00000E+00
    0.11950E+07        -0.49934E+08         0.00000E+00
    0.00000E+00         0.00000E+00        -0.45799E+08
 
   -0.43425E+08         0.12748E+07         0.00000E+00
    0.12748E+07        -0.49924E+08         0.00000E+00
    0.00000E+00         0.00000E+00        -0.45801E+08
 
   -0.43494E+08         0.13537E+07         0.00000E+00
    0.13537E+07        -0.49914E+08         0.00000E+00
    0.00000E+00         0.00000E+00        -0.45804E+08
 
   -0.43563E+08         0.14316E+07         0.00000E+00
    0.14316E+07        -0.49904E+08         0.00000E+00
    0.00000E+00         0.00000E+00        -0.45807E+08
 
   -0.43632E+08         0.15086E+07         0.00000E+00
    0.15086E+07        -0.49893E+08         0.00000E+00
    0.00000E+00         0.00000E+00        -0.45810E+08
 
   -0.43701E+08         0.15847E+07         0.00000E+00
    0.15847E+07        -0.49881E+08         0.00000E+00
    0.00000E+00         0.00000E+00        -0.45813E+08
 
   -0.43770E+08         0.16600E+07         0.00000E+00
    0.16600E+07        -0.49869E+08         0.00000E+00
    0.00000E+00         0.00000E+00        -0.45816E+08
 
   -0.43839E+08         0.17345E+07         0.00000E+00
    0.17345E+07        -0.49856E+08         0.00000E+00
    0.00000E+00         0.00000E+00        -0.45819E+08
 
   -0.43908E+08         0.18082E+07         0.00000E+00
    0.18082E+07        -0.49843E+08         0.00000E+00
    0.00000E+00         0.00000E+00        -0.45822E+08
 
   -0.43977E+08         0.18812E+07         0.00000E+00
    0.18812E+07        -0.49829E+08         0.00000E+00
    0.00000E+00         0.00000E+00        -0.45826E+08
 
   -0.44047E+08         0.19535E+07         0.00000E+00
    0.19535E+07        -0.49814E+08         0.00000E+00
    0.00000E+00         0.00000E+00        -0.45829E+08
 
   -0.44116E+08         0.20251E+07         0.00000E+00
    0.20251E+07        -0.49799E+08         0.00000E+00
    0.00000E+00         0.00000E+00        -0.45832E+08
 
   -0.44185E+08         0.20961E+07         0.00000E+00
    0.20961E+07        -0.49784E+08         0.00000E+00
    0.00000E+00         0.00000E+00        -0.45835E+08
 
   -0.44254E+08         0.21664E+07         0.00000E+00
    0.21664E+07        -0.49767E+08         0.00000E+00
    0.00000E+00         0.00000E+00        -0.45838E+08
 
   -0.44323E+08         0.22362E+07         0.00000E+00
    0.22362E+07        -0.49750E+08         0.00000E+00
    0.00000E+00         0.00000E+00        -0.45841E+08
 
   -0.44392E+08         0.23053E+07         0.00000E+00
    0.23053E+07        -0.49733E+08         0.00000E+00
    0.00000E+00         0.00000E+00        -0.45844E+08
 
   -0.44462E+08         0.23739E+07         0.00000E+00
    0.23739E+07        -0.49715E+08         0.00000E+00
    0.00000E+00         0.00000E+00        -0.45847E+08
 
   -0.44531E+08         0.24420E+07         0.00000E+00
    0.24420E+07        -0.49696E+08         0.00000E+00
    0.00000E+00         0.00000E+00        -0.45850E+08
 
   -0.44600E+08         0.25096E+07         0.00000E+00
    0.25096E+07        -0.49676E+08         0.00000E+00
    0.00000E+00         0.00000E+00        -0.45853E+08
 
   -0.44669E+08         0.25768E+07         0.00000E+00
    0.25768E+07        -0.49656E+08         0.00000E+00
    0.00000E+00         0.00000E+00        -0.45855E+08
 
   -0.44738E+08         0.26434E+07         0.00000E+00
    0.26434E+07        -0.49635E+08         0.00000E+00
    0.00000E+00         0.00000E+00        -0.45858E+08
 
   -0.44807E+08         0.27096E+07         0.00000E+00
    0.27096E+07        -0.49614E+08         0.00000E+00
    0.00000E+00         0.00000E+00        -0.45861E+08
 
   -0.44876E+08         0.27754E+07         0.00000E+00
    0.27754E+07        -0.49592E+08         0.00000E+00
    0.00000E+00         0.00000E+00        -0.45863E+08
 
   -0.44945E+08         0.28408E+07         0.00000E+00
    0.28408E+07        -0.49569E+08         0.00000E+00
    0.00000E+00         0.00000E+00        -0.45865E+08
 
   -0.45014E+08         0.29057E+07         0.00000E+00
    0.29057E+07        -0.49545E+08         0.00000E+00
    0.00000E+00         0.00000E+00        -0.45868E+08
 
   -0.45083E+08         0.29703E+07         0.00000E+00
    0.29703E+07        -0.49520E+08         0.00000E+00
    0.00000E+00         0.00000E+00        -0.45870E+08
 
   -0.45152E+08         0.30345E+07         0.00000E+00
    0.30345E+07        -0.49495E+08         0.00000E+00
    0.00000E+00         0.00000E+00        -0.45872E+08
 
   -0.45221E+08         0.30983E+07         0.00000E+00
    0.30983E+07        -0.49469E+08         0.00000E+00
    0.00000E+00         0.00000E+00        -0.45873E+08
 
   -0.45290E+08         0.31618E+07         0.00000E+00
    0.31618E+07        -0.49442E+08         0.00000E+00
    0.00000E+00         0.00000E+00        -0.45875E+08
 
   -0.45359E+08         0.32249E+07         0.00000E+00
    0.32249E+07        -0.49414E+08         0.00000E+00
    0.00000E+00         0.00000E+00        -0.45876E+08
 
   -0.45428E+08         0.32877E+07         0.00000E+00
    0.32877E+07        -0.49385E+08         0.00000E+00
    0.00000E+00         0.00000E+00        -0.45878E+08
 
   -0.45498E+08         0.33501E+07         0.00000E+00
    0.33501E+07        -0.49356E+08         0.00000E+00
    0.00000E+00         0.00000E+00        -0.45879E+08
 
   -0.45567E+08         0.34122E+07         0.00000E+00
    0.34122E+07        -0.49325E+08         0.00000E+00
    0.00000E+00         0.00000E+00        -0.45880E+08
 
   -0.45637E+08         0.34740E+07         0.00000E+00
    0.34740E+07        -0.49294E+08         0.00000E+00
    0.00000E+00         0.00000E+00        -0.45881E+08
 
   -0.45707E+08         0.35355E+07         0.00000E+00
    0.35355E+07        -0.49261E+08         0.00000E+00
    0.00000E+00         0.00000E+00        -0.45881E+08
 
   -0.45777E+08         0.35966E+07         0.00000E+00
    0.35966E+07        -0.49228E+08         0.00000E+00
    0.00000E+00         0.00000E+00        -0.45882E+08
 
   -0.45847E+08         0.36574E+07         0.00000E+00
    0.36574E+07        -0.49194E+08         0.00000E+00
    0.00000E+00         0.00000E+00        -0.45882E+08
 
   -0.42010E+08         0.52387E+05         0.00000E+00
    0.52387E+05        -0.50000E+08         0.00000E+00
    0.00000E+00         0.00000E+00        -0.45461E+08
 
   -0.42080E+08         0.15244E+06         0.00000E+00
    0.15244E+06        -0.49999E+08         0.00000E+00
    0.00000E+00         0.00000E+00        -0.45461E+08
 
   -0.42150E+08         0.25084E+06         0.00000E+00
    0.25084E+06        -0.49997E+08         0.00000E+00
    0.00000E+00         0.00000E+00        -0.45462E+08
 
   -0.42221E+08         0.34764E+06         0.00000E+00
    0.34764E+06        -0.49995E+08         0.00000E+00
    0.00000E+00         0.00000E+00        -0.45463E+08
 
   -0.42292E+08         0.44289E+06         0.00000E+00
    0.44289E+06        -0.49992E+08         0.00000E+00
    0.00000E+00         0.00000E+00        -0.45464E+08
 
   -0.42364E+08         0.53664E+06         0.00000E+00
    0.53664E+06        -0.49989E+08         0.00000E+00
    0.00000E+00         0.00000E+00        -0.45465E+08
 
   -0.42436E+08         0.62894E+06         0.00000E+00
    0.62894E+06        -0.49984E+08         0.00000E+00
    0.00000E+00         0.00000E+00        -0.45467E+08
 
   -0.42508E+08         0.71984E+06         0.00000E+00
    0.71984E+06        -0.49980E+08         0.00000E+00
    0.00000E+00         0.00000E+00        -0.45469E+08
 
   -0.42581E+08         0.80941E+06         0.00000E+00
    0.80941E+06        -0.49974E+08         0.00000E+00
    0.00000E+00         0.00000E+00        -0.45471E+08
 
   -0.42654E+08         0.89768E+06         0.00000E+00
    0.89768E+06        -0.49968E+08         0.00000E+00
    0.00000E+00         0.00000E+00        -0.45473E+08
 
   -0.42727E+08         0.98471E+06         0.00000E+00
    0.98471E+06        -0.49962E+08         0.00000E+00
    0.00000E+00         0.00000E+00        -0.45475E+08
 
   -0.42801E+08         0.10706E+07         0.00000E+00
    0.10706E+07        -0.49955E+08         0.00000E+00
    0.00000E+00         0.00000E+00        -0.45478E+08
 
   -0.42874E+08         0.11553E+07         0.00000E+00
    0.11553E+07        -0.49947E+08         0.00000E+00
    0.00000E+00         0.00000E+00        -0.45480E+08
 
   -0.42948E+08         0.12389E+07         0.00000E+00
    0.12389E+07        -0.49939E+08         0.00000E+00
    0.00000E+00         0.00000E+00        -0.45483E+08
 
   -0.43021E+08         0.13214E+07         0.00000E+00
    0.13214E+07        -0.49930E+08         0.00000E+00
    0.00000E+00         0.00000E+00        -0.45486E+08
 
   -0.43095E+08         0.14030E+07         0.00000E+00
    0.14030E+07        -0.49921E+08         0.00000E+00
    0.00000E+00         0.00000E+00        -0.45488E+08
 
   -0.43168E+08         0.14836E+07         0.00000E+00
    0.14836E+07        -0.49912E+08         0.00000E+00
    0.00000E+00         0.00000E+00        -0.45491E+08
 
   -0.43242E+08         0.15634E+07         0.00000E+00
    0.15634E+07        -0.49901E+08         0.00000E+00
    0.00000E+00         0.00000E+00        -0.45494E+08
 
   -0.43315E+08         0.16422E+07         0.00000E+00
    0.16422E+07        -0.49891E+08         0.00000E+00
    0.00000E+00         0.00000E+00        -0.45497E+08
 
   -0.43388E+08         0.17203E+07         0.00000E+00
    0.17203E+07        -0.49879E+08         0.00000E+00
    0.00000E+00         0.00000E+00        -0.45501E+08
 
   -0.43461E+08         0.17976E+07         0.00000E+00
    0.17976E+07        -0.49868E+08         0.00000E+00
    0.00000E+00         0.00000E+00        -0.45504E+08
 
   -0.43534E+08         0.18741E+07         0.00000E+00
    0.18741E+07        -0.49855E+08         0.00000E+00
    0.00000E+00         0.00000E+00        -0.45507E+08
 
   -0.43607E+08         0.19500E+07         0.00000E+00
    0.19500E+07        -0.49842E+08         0.00000E+00
    0.00000E+00         0.00000E+00        -0.45510E+08
 
   -0.43679E+08         0.20252E+07         0.00000E+00
    0.20252E+07        -0.49829E+08         0.00000E+00
    0.00000E+00         0.00000E+00        -0.45513E+08
 
   -0.43752E+08         0.20997E+07         0.00000E+00
    0.20997E+07        -0.49815E+08         0.00000E+00
    0.00000E+00         0.00000E+00        -0.45516E+08
 
   -0.43824E+08         0.21737E+07         0.00000E+00
    0.21737E+07        -0.49800E+08         0.00000E+00
    0.00000E+00         0.00000E+00        -0.45520E+08
 
   -0.43896E+08         0.22471E+07         0.00000E+00
    0.22471E+07        -0.49785E+08         0.00000E+00
    0.00000E+00         0.00000E+00        -0.45523E+08
 
   -0.43968E+08         0.23200E+07         0.00000E+00
    0.23200E+07        -0.49769E+08         0.00000E+00
    0.00000E+00         0.00000E+00        -0.45526E+08
 
   -0.44040E+08         0.23924E+07         0.00000E+00
    0.23924E+07        -0.49752E+08         0.00000E+00
    0.00000E+00         0.00000E+00        -0.45529E+08
 
   -0.44111E+08         0.24643E+07         0.00000E+00
    0.24643E+07        -0.49735E+08         0.00000E+00
    0.00000E+00         0.00000E+00        -0.45532E+08
 
   -0.44183E+08         0.25358E+07         0.00000E+00
    0.25358E+07        -0.49717E+08         0.00000E+00
    0.00000E+00         0.00000E+00        -0.45535E+08
 
   -0.44254E+08         0.26069E+07         0.00000E+00
    0.26069E+07        -0.49698E+08         0.00000E+00
    0.00000E+00         0.00000E+00        -0.45538E+08
 
   -0.44325E+08         0.26775E+07         0.00000E+00
    0.26775E+07        -0.49679E+08         0.00000E+00
    0.00000E+00         0.00000E+00        -0.45540E+08
 
   -0.44396E+08         0.27478E+07         0.00000E+00
    0.27478E+07        -0.49659E+08         0.00000E+00
    0.00000E+00         0.00000E+00        -0.45543E+08
 
   -0.44467E+08         0.28178E+07         0.00000E+00
    0.28178E+07        -0.49638E+08         0.00000E+00
    0.00000E+00         0.00000E+00        -0.45545E+08
 
   -0.44538E+08         0.28873E+07         0.00000E+00
    0.28873E+07        -0.49616E+08         0.00000E+00
    0.00000E+00         0.00000E+00        -0.45548E+08
 
   -0.44609E+08         0.29566E+07         0.00000E+00
    0.29566E+07        -0.49594E+08         0.00000E+00
    0.00000E+00         0.00000E+00        -0.45550E+08
 
   -0.44680E+08         0.30256E+07         0.00000E+00
    0.30256E+07        -0.49570E+08         0.00000E+00
    0.00000E+00         0.00000E+00        -0.45552E+08
 
   -0.44750E+08         0.30942E+07         0.00000E+00
    0.30942E+07        -0.49546E+08         0.00000E+00
    0.00000E+00         0.00000E+00        -0.45554E+08
 
   -0.44821E+08         0.31626E+07         0.00000E+00
    0.31626E+07        -0.49521E+08         0.00000E+00
    0.00000E+00         0.00000E+00        -0.45556E+08
 
   -0.44892E+08         0.32307E+07         0.00000E+00
    0.32307E+07        -0.49495E+08         0.00000E+00
    0.00000E+00         0.00000E+00        -0.45558E+08
 
   -0.44962E+08         0.32986E+07         0.00000E+00
    0.32986E+07        -0.49469E+08         0.00000E+00
    0.00000E+00         0.00000E+00        -0.45560E+08
 
   -0.45033E+08         0.33662E+07         0.00000E+00
    0.33662E+07        -0.49441E+08         0.00000E+00
    0.00000E+00         0.00000E+00        -0.45561E+08
 
   -0.45104E+08         0.34335E+07         0.00000E+00
    0.34335E+07        -0.49412E+08         0.00000E+00
    0.00000E+00         0.00000E+00        -0.45563E+08
 
   -0.45175E+08         0.35006E+07         0.00000E+00
    0.35006E+07        -0.49383E+08         0.00000E+00
    0.00000E+00         0.00000E+00        -0.45564E+08
 
   -0.45246E+08         0.35674E+07         0.00000E+00
    0.35674E+07        -0.49352E+08         0.00000E+00
    0.00000E+00         0.00000E+00        -0.45565E+08
 
   -0.45317E+08         0.36340E+07         0.00000E+00
    0.36340E+07        -0.49320E+08         0.00000E+00
    0.00000E+00         0.00000E+00        -0.45565E+08
 
   -0.45388E+08         0.37004E+07         0.00000E+00
    0.37004E+07        -0.49288E+08         0.00000E+00
    0.00000E+00         0.00000E+00        -0.45566E+08
 
   -0.45459E+08         0.37665E+07         0.00000E+00
    0.37665E+07        -0.49254E+08         0.00000E+00
    0.00000E+00         0.00000E+00        -0.45566E+08
 
   -0.45531E+08         0.38324E+07         0.00000E+00
    0.38324E+07        -0.49219E+08         0.00000E+00
    0.00000E+00         0.00000E+00        -0.45567E+08
 
   -0.41496E+08         0.54455E+05         0.00000E+00
    0.54455E+05        -0.50000E+08         0.00000E+00
    0.00000E+00         0.00000E+00        -0.45119E+08
 
   -0.41575E+08         0.15808E+06         0.00000E+00
    0.15808E+06        -0.49999E+08         0.00000E+00
    0.00000E+00         0.00000E+00        -0.45119E+08
 
   -0.41653E+08         0.25988E+06         0.00000E+00
    0.25988E+06        -0.49998E+08         0.00000E+00
    0.00000E+00         0.00000E+00        -0.45120E+08
 
   -0.41732E+08         0.35992E+06         0.00000E+00
    0.35992E+06        -0.49996E+08         0.00000E+00
    0.00000E+00         0.00000E+00        -0.45121E+08
 
   -0.41812E+08         0.45826E+06         0.00000E+00
    0.45826E+06        -0.49993E+08         0.00000E+00
    0.00000E+00         0.00000E+00        -0.45122E+08
 
   -0.41891E+08         0.55497E+06         0.00000E+00
    0.55497E+06        -0.49990E+08         0.00000E+00
    0.00000E+00         0.00000E+00        -0.45123E+08
 
   -0.41971E+08         0.65013E+06         0.00000E+00
    0.65013E+06        -0.49986E+08         0.00000E+00
    0.00000E+00         0.00000E+00        -0.45125E+08
 
   -0.42050E+08         0.74379E+06         0.00000E+00
    0.74379E+06        -0.49982E+08         0.00000E+00
    0.00000E+00         0.00000E+00        -0.45127E+08
 
   -0.42130E+08         0.83604E+06         0.00000E+00
    0.83604E+06        -0.49978E+08         0.00000E+00
    0.00000E+00         0.00000E+00        -0.45129E+08
 
   -0.42209E+08         0.92692E+06         0.00000E+00
    0.92692E+06        -0.49972E+08         0.00000E+00
    0.00000E+00         0.00000E+00        -0.45131E+08
 
   -0.42289E+08         0.10165E+07         0.00000E+00
    0.10165E+07        -0.49967E+08         0.00000E+00
    0.00000E+00         0.00000E+00        -0.45133E+08
 
   -0.42368E+08         0.11049E+07         0.00000E+00
    0.11049E+07        -0.49961E+08         0.00000E+00
    0.00000E+00         0.00000E+00        -0.45136E+08
 
   -0.42447E+08         0.11921E+07         0.00000E+00
    0.11921E+07        -0.49954E+08         0.00000E+00
    0.00000E+00         0.00000E+00        -0.45138E+08
 
   -0.42526E+08         0.12782E+07         0.00000E+00
    0.12782E+07        -0.49947E+08         0.00000E+00
    0.00000E+00         0.00000E+00        -0.45141E+08
 
   -0.42605E+08         0.13632E+07         0.00000E+00
    0.13632E+07        -0.49939E+08         0.00000E+00
    0.00000E+00         0.00000E+00        -0.45144E+08
 
   -0.42683E+08         0.14473E+07         0.00000E+00
    0.14473E+07        -0.49931E+08         0.00000E+00
    0.00000E+00         0.00000E+00        -0.45146E+08
 
   -0.42761E+08         0.15304E+07         0.00000E+00
    0.15304E+07        -0.49923E+08         0.00000E+00
    0.00000E+00         0.00000E+00        -0.45149E+08
 
   -0.42839E+08         0.16127E+07         0.00000E+00
    0.16127E+07        -0.49914E+08         0.00000E+00
    0.00000E+00         0.00000E+00        -0.45152E+08
 
   -0.42916E+08         0.16941E+07         0.00000E+00
    0.16941E+07        -0.49905E+08         0.00000E+00
    0.00000E+00         0.00000E+00        -0.45156E+08
 
   -0.42993E+08         0.17748E+07         0.00000E+00
    0.17748E+07        -0.49895E+08         0.00000E+00
    0.00000E+00         0.00000E+00        -0.45159E+08
 
   -0.43070E+08         0.18548E+07         0.00000E+00
    0.18548E+07        -0.49884E+08         0.00000E+00
    0.00000E+00         0.00000E+00        -0.45162E+08
 
   -0.43146E+08         0.19341E+07         0.00000E+00
    0.19341E+07        -0.49873E+08         0.00000E+00
    0.00000E+00         0.00000E+00        -0.45165E+08
 
   -0.43222E+08         0.20127E+07         0.00000E+00
    0.20127E+07        -0.49862E+08         0.00000E+00
    0.00000E+00         0.00000E+00        -0.45168E+08
 
   -0.43297E+08         0.20908E+07         0.00000E+00
    0.20908E+07        -0.49850E+08         0.00000E+00
    0.00000E+00         0.00000E+00        -0.45171E+08
 
   -0.43373E+08         0.21683E+07         0.00000E+00
    0.21683E+07        -0.49837E+08         0.00000E+00
    0.00000E+00         0.00000E+00        -0.45174E+08
 
   -0.43448E+08         0.22454E+07         0.00000E+00
    0.22454E+07        -0.49824E+08         0.00000E+00
    0.00000E+00         0.00000E+00        -0.45178E+08
 
   -0.43522E+08         0.23219E+07         0.00000E+00
    0.23219E+07        -0.49810E+08         0.00000E+00
    0.00000E+00         0.00000E+00        -0.45181E+08
 
   -0.43596E+08         0.23981E+07         0.00000E+00
    0.23981E+07        -0.49795E+08         0.00000E+00
    0.00000E+00         0.00000E+00        -0.45184E+08
 
   -0.43670E+08         0.24738E+07         0.00000E+00
    0.24738E+07        -0.49780E+08         0.00000E+00
    0.00000E+00         0.00000E+00        -0.45187E+08
 
   -0.43744E+08         0.25492E+07         0.00000E+00
    0.25492E+07        -0.49764E+08         0.00000E+00
    0.00000E+00         0.00000E+00        -0.45190E+08
 
   -0.43817E+08         0.26242E+07         0.00000E+00
    0.26242E+07        -0.49748E+08         0.00000E+00
    0.00000E+00         0.00000E+00        -0.45192E+08
 
   -0.43890E+08         0.26989E+07         0.00000E+00
    0.26989E+07        -0.49730E+08         0.00000E+00
    0.00000E+00         0.00000E+00        -0.45195E+08
 
   -0.43963E+08         0.27734E+07         0.00000E+00
    0.27734E+07        -0.49712E+08         0.00000E+00
    0.00000E+00         0.00000E+00        -0.45198E+08
 
   -0.44036E+08         0.28476E+07         0.00000E+00
    0.28476E+07        -0.49693E+08         0.00000E+00
    0.00000E+00         0.00000E+00        -0.45201E+08
 
   -0.44108E+08         0.29215E+07         0.00000E+00
    0.29215E+07        -0.49673E+08         0.00000E+00
    0.00000E+00         0.00000E+00        -0.45203E+08
 
   -0.44180E+08         0.29952E+07         0.00000E+00
    0.29952E+07        -0.49653E+08         0.00000E+00
    0.00000E+00         0.00000E+00        -0.45205E+08
 
   -0.44252E+08         0.30687E+07         0.00000E+00
    0.30687E+07        -0.49631E+08         0.00000E+00
    0.00000E+00         0.00000E+00        -0.45208E+08
 
   -0.44324E+08         0.31420E+07         0.00000E+00
    0.31420E+07        -0.49609E+08         0.00000E+00
    0.00000E+00         0.00000E+00        -0.45210E+08
 
   -0.44396E+08         0.32152E+07         0.00000E+00
    0.32152E+07        -0.49586E+08         0.00000E+00
    0.00000E+00         0.00000E+00        -0.45212E+08
 
   -0.44468E+08         0.32881E+07         0.00000E+00
    0.32881E+07        -0.49561E+08         0.00000E+00
    0.00000E+00         0.00000E+00        -0.45214E+08
 
   -0.44540E+08         0.33610E+07         0.00000E+00
    0.33610E+07        -0.49536E+08         0.00000E+00
    0.00000E+00         0.00000E+00        -0.45216E+08
 
   -0.44611E+08         0.34336E+07         0.00000E+00
    0.34336E+07        -0.49510E+08         0.00000E+00
    0.00000E+00         0.00000E+00        -0.45217E+08
 
   -0.44683E+08         0.35062E+07         0.00000E+00
    0.35062E+07        -0.49483E+08         0.00000E+00
    0.00000E+00         0.00000E+00        -0.45219E+08
 
   -0.44755E+08         0.35786E+07         0.00000E+00
    0.35786E+07        -0.49454E+08         0.00000E+00
    0.00000E+00         0.00000E+00        -0.45220E+08
 
   -0.44827E+08         0.36508E+07         0.00000E+00
    0.36508E+07        -0.49425E+08         0.00000E+00
    0.00000E+00         0.00000E+00        -0.45221E+08
 
   -0.44899E+08         0.37230E+07         0.00000E+00
    0.37230E+07        -0.49395E+08         0.00000E+00
    0.00000E+00         0.00000E+00        -0.45222E+08
 
   -0.44971E+08         0.37950E+07         0.00000E+00
    0.37950E+07        -0.49363E+08         0.00000E+00
    0.00000E+00         0.00000E+00        -0.45223E+08
 
   -0.45043E+08         0.38668E+07         0.00000E+00
    0.38668E+07        -0.49330E+08         0.00000E+00
    0.00000E+00         0.00000E+00        -0.45223E+08
 
   -0.45115E+08         0.39386E+07         0.00000E+00
    0.39386E+07        -0.49296E+08         0.00000E+00
    0.00000E+00         0.00000E+00        -0.45224E+08
 
   -0.45188E+08         0.40102E+07         0.00000E+00
    0.40102E+07        -0.49261E+08         0.00000E+00
    0.00000E+00         0.00000E+00        -0.45224E+08
 
   -0.40965E+08         0.56260E+05         0.00000E+00
    0.56260E+05        -0.50000E+08         0.00000E+00
    0.00000E+00         0.00000E+00        -0.44748E+08
 
   -0.41053E+08         0.16293E+06         0.00000E+00
    0.16293E+06        -0.49999E+08         0.00000E+00
    0.00000E+00         0.00000E+00        -0.44748E+08
 
   -0.41141E+08         0.26758E+06         0.00000E+00
    0.26758E+06        -0.49998E+08         0.00000E+00
    0.00000E+00         0.00000E+00        -0.44749E+08
 
   -0.41229E+08         0.37031E+06         0.00000E+00
    0.37031E+06        -0.49997E+08         0.00000E+00
    0.00000E+00         0.00000E+00        -0.44750E+08
 
   -0.41317E+08         0.47121E+06         0.00000E+00
    0.47121E+06        -0.49995E+08         0.00000E+00
    0.00000E+00         0.00000E+00        -0.44751E+08
 
   -0.41405E+08         0.57036E+06         0.00000E+00
    0.57036E+06        -0.49992E+08         0.00000E+00
    0.00000E+00         0.00000E+00        -0.44752E+08
 
   -0.41492E+08         0.66786E+06         0.00000E+00
    0.66786E+06        -0.49989E+08         0.00000E+00
    0.00000E+00         0.00000E+00        -0.44754E+08
 
   -0.41579E+08         0.76379E+06         0.00000E+00
    0.76379E+06        -0.49986E+08         0.00000E+00
    0.00000E+00         0.00000E+00        -0.44756E+08
 
   -0.41666E+08         0.85823E+06         0.00000E+00
    0.85823E+06        -0.49982E+08         0.00000E+00
    0.00000E+00         0.00000E+00        -0.44758E+08
 
   -0.41752E+08         0.95127E+06         0.00000E+00
    0.95127E+06        -0.49978E+08         0.00000E+00
    0.00000E+00         0.00000E+00        -0.44760E+08
 
   -0.41838E+08         0.10430E+07         0.00000E+00
    0.10430E+07        -0.49974E+08         0.00000E+00
    0.00000E+00         0.00000E+00        -0.44762E+08
 
   -0.41924E+08         0.11335E+07         0.00000E+00
    0.11335E+07        -0.49969E+08         0.00000E+00
    0.00000E+00         0.00000E+00        -0.44764E+08
 
   -0.42008E+08         0.12228E+07         0.00000E+00
    0.12228E+07        -0.49964E+08         0.00000E+00
    0.00000E+00         0.00000E+00        -0.44767E+08
 
   -0.42092E+08         0.13110E+07         0.00000E+00
    0.13110E+07        -0.49958E+08         0.00000E+00
    0.00000E+00         0.00000E+00        -0.44770E+08
 
   -0.42176E+08         0.13982E+07         0.00000E+00
    0.13982E+07        -0.49952E+08         0.00000E+00
    0.00000E+00         0.00000E+00        -0.44772E+08
 
   -0.42259E+08         0.14844E+07         0.00000E+00
    0.14844E+07        -0.49946E+08         0.00000E+00
    0.00000E+00         0.00000E+00        -0.44775E+08
 
   -0.42341E+08         0.15698E+07         0.00000E+00
    0.15698E+07        -0.49939E+08         0.00000E+00
    0.00000E+00         0.00000E+00        -0.44778E+08
 
   -0.42423E+08         0.16544E+07         0.00000E+00
    0.16544E+07        -0.49932E+08         0.00000E+00
    0.00000E+00         0.00000E+00        -0.44781E+08
 
   -0.42504E+08         0.17382E+07         0.00000E+00
    0.17382E+07        -0.49924E+08         0.00000E+00
    0.00000E+00         0.00000E+00        -0.44784E+08
 
   -0.42585E+08         0.18213E+07         0.00000E+00
    0.18213E+07        -0.49916E+08         0.00000E+00
    0.00000E+00         0.00000E+00        -0.44787E+08
 
   -0.42665E+08         0.19038E+07         0.00000E+00
    0.19038E+07        -0.49907E+08         0.00000E+00
    0.00000E+00         0.00000E+00        -0.44790E+08
 
   -0.42744E+08         0.19857E+07         0.00000E+00
    0.19857E+07        -0.49898E+08         0.00000E+00
    0.00000E+00         0.00000E+00        -0.44793E+08
 
   -0.42823E+08         0.20671E+07         0.00000E+00
    0.20671E+07        -0.49889E+08         0.00000E+00
    0.00000E+00         0.00000E+00        -0.44796E+08
 
   -0.42901E+08         0.21480E+07         0.00000E+00
    0.21480E+07        -0.49879E+08         0.00000E+00
    0.00000E+00         0.00000E+00        -0.44799E+08
 
   -0.42979E+08         0.22285E+07         0.00000E+00
    0.22285E+07        -0.49868E+08         0.00000E+00
    0.00000E+00         0.00000E+00        -0.44802E+08
 
   -0.43056E+08         0.23086E+07         0.00000E+00
    0.23086E+07        -0.49857E+08         0.00000E+00
    0.00000E+00         0.00000E+00        -0.44805E+08
 
   -0.43132E+08         0.23884E+07         0.00000E+00
    0.23884E+07        -0.49845E+08         0.00000E+00
    0.00000E+00         0.00000E+00        -0.44808E+08
 
   -0.43208E+08         0.24679E+07         0.00000E+00
    0.24679E+07        -0.49832E+08         0.00000E+00
    0.00000E+00         0.00000E+00        -0.44811E+08
 
   -0.43284E+08         0.25471E+07         0.00000E+00
    0.25471E+07        -0.49819E+08         0.00000E+00
    0.00000E+00         0.00000E+00        -0.44814E+08
 
   -0.43359E+08         0.26261E+07         0.00000E+00
    0.26261E+07        -0.49805E+08         0.00000E+00
    0.00000E+00         0.00000E+00        -0.44817E+08
 
   -0.43433E+08         0.27049E+07         0.00000E+00
    0.27049E+07        -0.49790E+08         0.00000E+00
    0.00000E+00         0.00000E+00        -0.44820E+08
 
   -0.43507E+08         0.27835E+07         0.00000E+00
    0.27835E+07        -0.49774E+08         0.00000E+00
    0.00000E+00         0.00000E+00        -0.44823E+08
 
   -0.43581E+08         0.28620E+07         0.00000E+00
    0.28620E+07        -0.49758E+08         0.00000E+00
    0.00000E+00         0.00000E+00        -0.44825E+08
 
   -0.43655E+08         0.29403E+07         0.00000E+00
    0.29403E+07        -0.49741E+08         0.00000E+00
    0.00000E+00         0.00000E+00        -0.44828E+08
 
   -0.43728E+08         0.30186E+07         0.00000E+00
    0.30186E+07        -0.49722E+08         0.00000E+00
    0.00000E+00         0.00000E+00        -0.44830E+08
 
   -0.43801E+08         0.30968E+07         0.00000E+00
    0.30968E+07        -0.49703E+08         0.00000E+00
    0.00000E+00         0.00000E+00        -0.44832E+08
 
   -0.43874E+08         0.31749E+07         0.00000E+00
    0.31749E+07        -0.49683E+08         0.00000E+00
    0.00000E+00         0.00000E+00        -0.44835E+08
 
   -0.43946E+08         0.32530E+07         0.00000E+00
    0.32530E+07        -0.49662E+08         0.00000E+00
    0.00000E+00         0.00000E+00        -0.44837E+08
 
   -0.44018E+08         0.33310E+07         0.00000E+00
    0.33310E+07        -0.49640E+08         0.00000E+00
    0.00000E+00         0.00000E+00        -0.44839E+08
 
   -0.44091E+08         0.34091E+07         0.00000E+00
    0.34091E+07        -0.49617E+08         0.00000E+00
    0.00000E+00         0.00000E+00        -0.44840E+08
 
   -0.44163E+08         0.34871E+07         0.00000E+00
    0.34871E+07        -0.49593E+08         0.00000E+00
    0.00000E+00         0.00000E+00        -0.44842E+08
 
   -0.44235E+08         0.35651E+07         0.00000E+00
    0.35651E+07        -0.49568E+08         0.00000E+00
    0.00000E+00         0.00000E+00        -0.44844E+08
 
   -0.44307E+08         0.36431E+07         0.00000E+00
    0.36431E+07        -0.49542E+08         0.00000E+00
    0.00000E+00         0.00000E+00        -0.44845E+08
 
   -0.44379E+08         0.37211E+07         0.00000E+00
    0.37211E+07        -0.49514E+08         0.00000E+00
    0.00000E+00         0.00000E+00        -0.44846E+08
 
   -0.44451E+08         0.37992E+07         0.00000E+00
    0.37992E+07        -0.49485E+08         0.00000E+00
    0.00000E+00         0.00000E+00        -0.44847E+08
 
   -0.44523E+08         0.38772E+07         0.00000E+00
    0.38772E+07        -0.49455E+08         0.00000E+00
    0.00000E+00         0.00000E+00        -0.44848E+08
 
   -0.44596E+08         0.39552E+07         0.00000E+00
    0.39552E+07        -0.49424E+08         0.00000E+00
    0.00000E+00         0.00000E+00        -0.44849E+08
 
   -0.44668E+08         0.40333E+07         0.00000E+00
    0.40333E+07        -0.49392E+08         0.00000E+00
    0.00000E+00         0.00000E+00        -0.44850E+08
 
   -0.44741E+08         0.41113E+07         0.00000E+00
    0.41113E+07        -0.49358E+08         0.00000E+00
    0.00000E+00         0.00000E+00        -0.44850E+08
 
   -0.44814E+08         0.41893E+07         0.00000E+00
    0.41893E+07        -0.49323E+08         0.00000E+00
    0.00000E+00         0.00000E+00        -0.44850E+08
 
   -0.40420E+08         0.57686E+05         0.00000E+00
    0.57686E+05        -0.50000E+08         0.00000E+00
    0.00000E+00         0.00000E+00        -0.44345E+08
 
   -0.40519E+08         0.16663E+06         0.00000E+00
    0.16663E+06        -0.50000E+08         0.00000E+00
    0.00000E+00         0.00000E+00        -0.44345E+08
 
   -0.40617E+08         0.27338E+06         0.00000E+00
    0.27338E+06        -0.49999E+08         0.00000E+00
    0.00000E+00         0.00000E+00        -0.44346E+08
 
   -0.40715E+08         0.37807E+06         0.00000E+00
    0.37807E+06        -0.49998E+08         0.00000E+00
    0.00000E+00         0.00000E+00        -0.44347E+08
 
   -0.40812E+08         0.48080E+06         0.00000E+00
    0.48080E+06        -0.49996E+08         0.00000E+00
    0.00000E+00         0.00000E+00        -0.44348E+08
 
   -0.40909E+08         0.58169E+06         0.00000E+00
    0.58169E+06        -0.49995E+08         0.00000E+00
    0.00000E+00         0.00000E+00        -0.44349E+08
 
   -0.41004E+08         0.68084E+06         0.00000E+00
    0.68084E+06        -0.49993E+08         0.00000E+00
    0.00000E+00         0.00000E+00        -0.44351E+08
 
   -0.41099E+08         0.77836E+06         0.00000E+00
    0.77836E+06        -0.49991E+08         0.00000E+00
    0.00000E+00         0.00000E+00        -0.44352E+08
 
   -0.41193E+08         0.87436E+06         0.00000E+00
    0.87436E+06        -0.49988E+08         0.00000E+00
    0.00000E+00         0.00000E+00        -0.44354E+08
 
   -0.41286E+08         0.96894E+06         0.00000E+00
    0.96894E+06        -0.49986E+08         0.00000E+00
    0.00000E+00         0.00000E+00        -0.44356E+08
 
   -0.41378E+08         0.10622E+07         0.00000E+00
    0.10622E+07        -0.49983E+08         0.00000E+00
    0.00000E+00         0.00000E+00        -0.44358E+08
 
   -0.41470E+08         0.11542E+07         0.00000E+00
    0.11542E+07        -0.49980E+08         0.00000E+00
    0.00000E+00         0.00000E+00        -0.44361E+08
 
   -0.41560E+08         0.12452E+07         0.00000E+00
    0.12452E+07        -0.49976E+08         0.00000E+00
    0.00000E+00         0.00000E+00        -0.44363E+08
 
   -0.41649E+08         0.13350E+07         0.00000E+00
    0.13350E+07        -0.49973E+08         0.00000E+00
    0.00000E+00         0.00000E+00        -0.44366E+08
 
   -0.41738E+08         0.14239E+07         0.00000E+00
    0.14239E+07        -0.49969E+08         0.00000E+00
    0.00000E+00         0.00000E+00        -0.44368E+08
 
   -0.41825E+08         0.15120E+07         0.00000E+00
    0.15120E+07        -0.49965E+08         0.00000E+00
    0.00000E+00         0.00000E+00        -0.44371E+08
 
   -0.41911E+08         0.15992E+07         0.00000E+00
    0.15992E+07        -0.49960E+08         0.00000E+00
    0.00000E+00         0.00000E+00        -0.44374E+08
 
   -0.41997E+08         0.16858E+07         0.00000E+00
    0.16858E+07        -0.49955E+08         0.00000E+00
    0.00000E+00         0.00000E+00        -0.44377E+08
 
   -0.42081E+08         0.17717E+07         0.00000E+00
    0.17717E+07        -0.49950E+08         0.00000E+00
    0.00000E+00         0.00000E+00        -0.44379E+08
 
   -0.42165E+08         0.18571E+07         0.00000E+00
    0.18571E+07        -0.49944E+08         0.00000E+00
    0.00000E+00         0.00000E+00        -0.44382E+08
 
   -0.42247E+08         0.19419E+07         0.00000E+00
    0.19419E+07        -0.49938E+08         0.00000E+00
    0.00000E+00         0.00000E+00        -0.44385E+08
 
   -0.42329E+08         0.20263E+07         0.00000E+00
    0.20263E+07        -0.49932E+08         0.00000E+00
    0.00000E+00         0.00000E+00        -0.44388E+08
 
   -0.42410E+08         0.21103E+07         0.00000E+00
    0.21103E+07        -0.49925E+08         0.00000E+00
    0.00000E+00         0.00000E+00        -0.44391E+08
 
   -0.42490E+08         0.21940E+07         0.00000E+00
    0.21940E+07        -0.49917E+08         0.00000E+00
    0.00000E+00         0.00000E+00        -0.44394E+08
 
   -0.42569E+08         0.22775E+07         0.00000E+00
    0.22775E+07        -0.49909E+08         0.00000E+00
    0.00000E+00         0.00000E+00        -0.44397E+08
 
   -0.42648E+08         0.23607E+07         0.00000E+00
    0.23607E+07        -0.49900E+08         0.00000E+00
    0.00000E+00         0.00000E+00        -0.44400E+08
 
   -0.42725E+08         0.24438E+07         0.00000E+00
    0.24438E+07        -0.49891E+08         0.00000E+00
    0.00000E+00         0.00000E+00        -0.44403E+08
 
   -0.42802E+08         0.25267E+07         0.00000E+00
    0.25267E+07        -0.49880E+08         0.00000E+00
    0.00000E+00         0.00000E+00        -0.44405E+08
 
   -0.42879E+08         0.26095E+07         0.00000E+00
    0.26095E+07        -0.49870E+08         0.00000E+00
    0.00000E+00         0.00000E+00        -0.44408E+08
 
   -0.42954E+08         0.26923E+07         0.00000E+00
    0.26923E+07        -0.49858E+08         0.00000E+00
    0.00000E+00         0.00000E+00        -0.44411E+08
 
   -0.43029E+08         0.27751E+07         0.00000E+00
    0.27751E+07        -0.49846E+08         0.00000E+00
    0.00000E+00         0.00000E+00        -0.44413E+08
 
   -0.43104E+08         0.28578E+07         0.00000E+00
    0.28578E+07        -0.49832E+08         0.00000E+00
    0.00000E+00         0.00000E+00        -0.44416E+08
 
   -0.43178E+08         0.29406E+07         0.00000E+00
    0.29406E+07        -0.49818E+08         0.00000E+00
    0.00000E+00         0.00000E+00        -0.44418E+08
 
   -0.43252E+08         0.30235E+07         0.00000E+00
    0.30235E+07        -0.49803E+08         0.00000E+00
    0.00000E+00         0.00000E+00        -0.44421E+08
 
   -0.43325E+08         0.31065E+07         0.00000E+00
    0.31065E+07        -0.49787E+08         0.00000E+00
    0.00000E+00         0.00000E+00        -0.44423E+08
 
   -0.43398E+08         0.31895E+07         0.00000E+00
    0.31895E+07        -0.49770E+08         0.00000E+00
    0.00000E+00         0.00000E+00        -0.44425E+08
 
   -0.43470E+08         0.32727E+07         0.00000E+00
    0.32727E+07        -0.49752E+08         0.00000E+00
    0.00000E+00         0.00000E+00        -0.44427E+08
 
   -0.43542E+08         0.33560E+07         0.00000E+00
    0.33560E+07        -0.49733E+08         0.00000E+00
    0.00000E+00         0.00000E+00        -0.44429E+08
 
   -0.43614E+08         0.34395E+07         0.00000E+00
    0.34395E+07        -0.49713E+08         0.00000E+00
    0.00000E+00         0.00000E+00        -0.44431E+08
 
   -0.43686E+08         0.35231E+07         0.00000E+00
    0.35231E+07        -0.49692E+08         0.00000E+00
    0.00000E+00         0.00000E+00        -0.44433E+08
 
   -0.43758E+08         0.36069E+07         0.00000E+00
    0.36069E+07        -0.49669E+08         0.00000E+00
    0.00000E+00         0.00000E+00        -0.44434E+08
 
   -0.43830E+08         0.36908E+07         0.00000E+00
    0.36908E+07        -0.49645E+08         0.00000E+00
    0.00000E+00         0.00000E+00        -0.44436E+08
 
   -0.43901E+08         0.37749E+07         0.00000E+00
    0.37749E+07        -0.49620E+08         0.00000E+00
    0.00000E+00         0.00000E+00        -0.44437E+08
 
   -0.43973E+08         0.38592E+07         0.00000E+00
    0.38592E+07        -0.49594E+08         0.00000E+00
    0.00000E+00         0.00000E+00        -0.44438E+08
 
   -0.44045E+08         0.39437E+07         0.00000E+00
    0.39437E+07        -0.49566E+08         0.00000E+00
    0.00000E+00         0.00000E+00        -0.44439E+08
 
   -0.44116E+08         0.40283E+07         0.00000E+00
    0.40283E+07        -0.49537E+08         0.00000E+00
    0.00000E+00         0.00000E+00        -0.44440E+08
 
   -0.44188E+08         0.41131E+07         0.00000E+00
    0.41131E+07        -0.49507E+08         0.00000E+00
    0.00000E+00         0.00000E+00        -0.44441E+08
 
   -0.44260E+08         0.41980E+07         0.00000E+00
    0.41980E+07        -0.49475E+08         0.00000E+00
    0.00000E+00         0.00000E+00        -0.44441E+08
 
   -0.44333E+08         0.42831E+07         0.00000E+00
    0.42831E+07        -0.49442E+08         0.00000E+00
    0.00000E+00         0.00000E+00        -0.44442E+08
 
   -0.44405E+08         0.43683E+07         0.00000E+00
    0.43683E+07        -0.49407E+08         0.00000E+00
    0.00000E+00         0.00000E+00        -0.44442E+08
 
   -0.39866E+08         0.58584E+05         0.00000E+00
    0.58584E+05        -0.50000E+08         0.00000E+00
    0.00000E+00         0.00000E+00        -0.43906E+08
 
   -0.39976E+08         0.16878E+06         0.00000E+00
    0.16878E+06        -0.50000E+08         0.00000E+00
    0.00000E+00         0.00000E+00        -0.43906E+08
 
   -0.40086E+08         0.27663E+06         0.00000E+00
    0.27663E+06        -0.50000E+08         0.00000E+00
    0.00000E+00         0.00000E+00        -0.43906E+08
 
   -0.40194E+08         0.38229E+06         0.00000E+00
    0.38229E+06        -0.49999E+08         0.00000E+00
    0.00000E+00         0.00000E+00        -0.43907E+08
 
   -0.40301E+08         0.48589E+06         0.00000E+00
    0.48589E+06        -0.49999E+08         0.00000E+00
    0.00000E+00         0.00000E+00        -0.43908E+08
 
   -0.40406E+08         0.58758E+06         0.00000E+00
    0.58758E+06        -0.49998E+08         0.00000E+00
    0.00000E+00         0.00000E+00        -0.43909E+08
 
   -0.40510E+08         0.68749E+06         0.00000E+00
    0.68749E+06        -0.49998E+08         0.00000E+00
    0.00000E+00         0.00000E+00        -0.43911E+08
 
   -0.40613E+08         0.78576E+06         0.00000E+00
    0.78576E+06        -0.49997E+08         0.00000E+00
    0.00000E+00         0.00000E+00        -0.43912E+08
 
   -0.40714E+08         0.88250E+06         0.00000E+00
    0.88250E+06        -0.49996E+08         0.00000E+00
    0.00000E+00         0.00000E+00        -0.43914E+08
 
   -0.40814E+08         0.97785E+06         0.00000E+00
    0.97785E+06        -0.49996E+08         0.00000E+00
    0.00000E+00         0.00000E+00        -0.43916E+08
 
   -0.40913E+08         0.10719E+07         0.00000E+00
    0.10719E+07        -0.49995E+08         0.00000E+00
    0.00000E+00         0.00000E+00        -0.43918E+08
 
   -0.41010E+08         0.11649E+07         0.00000E+00
    0.11649E+07        -0.49994E+08         0.00000E+00
    0.00000E+00         0.00000E+00        -0.43920E+08
 
   -0.41105E+08         0.12567E+07         0.00000E+00
    0.12567E+07        -0.49993E+08         0.00000E+00
    0.00000E+00         0.00000E+00        -0.43923E+08
 
   -0.41199E+08         0.13477E+07         0.00000E+00
    0.13477E+07        -0.49992E+08         0.00000E+00
    0.00000E+00         0.00000E+00        -0.43925E+08
 
   -0.41292E+08         0.14378E+07         0.00000E+00
    0.14378E+07        -0.49991E+08         0.00000E+00
    0.00000E+00         0.00000E+00        -0.43927E+08
 
   -0.41383E+08         0.15271E+07         0.00000E+00
    0.15271E+07        -0.49989E+08         0.00000E+00
    0.00000E+00         0.00000E+00        -0.43930E+08
 
   -0.41473E+08         0.16158E+07         0.00000E+00
    0.16158E+07        -0.49987E+08         0.00000E+00
    0.00000E+00         0.00000E+00        -0.43932E+08
 
   -0.41561E+08         0.17040E+07         0.00000E+00
    0.17040E+07        -0.49986E+08         0.00000E+00
    0.00000E+00         0.00000E+00        -0.43935E+08
 
   -0.41648E+08         0.17917E+07         0.00000E+00
    0.17917E+07        -0.49983E+08         0.00000E+00
    0.00000E+00         0.00000E+00        -0.43938E+08
 
   -0.41734E+08         0.18790E+07         0.00000E+00
    0.18790E+07        -0.49981E+08         0.00000E+00
    0.00000E+00         0.00000E+00        -0.43940E+08
 
   -0.41819E+08         0.19659E+07         0.00000E+00
    0.19659E+07        -0.49978E+08         0.00000E+00
    0.00000E+00         0.00000E+00        -0.43943E+08
 
   -0.41902E+08         0.20527E+07         0.00000E+00
    0.20527E+07        -0.49974E+08         0.00000E+00
    0.00000E+00         0.00000E+00        -0.43946E+08
 
   -0.41984E+08         0.21392E+07         0.00000E+00
    0.21392E+07        -0.49970E+08         0.00000E+00
    0.00000E+00         0.00000E+00        -0.43949E+08
 
   -0.42065E+08         0.22256E+07         0.00000E+00
    0.22256E+07        -0.49966E+08         0.00000E+00
    0.00000E+00         0.00000E+00        -0.43951E+08
 
   -0.42145E+08         0.23120E+07         0.00000E+00
    0.23120E+07        -0.49961E+08         0.00000E+00
    0.00000E+00         0.00000E+00        -0.43954E+08
 
   -0.42224E+08         0.23984E+07         0.00000E+00
    0.23984E+07        -0.49956E+08         0.00000E+00
    0.00000E+00         0.00000E+00        -0.43956E+08
 
   -0.42302E+08         0.24848E+07         0.00000E+00
    0.24848E+07        -0.49949E+08         0.00000E+00
    0.00000E+00         0.00000E+00        -0.43959E+08
 
   -0.42379E+08         0.25712E+07         0.00000E+00
    0.25712E+07        -0.49943E+08         0.00000E+00
    0.00000E+00         0.00000E+00        -0.43962E+08
 
   -0.42455E+08         0.26579E+07         0.00000E+00
    0.26579E+07        -0.49935E+08         0.00000E+00
    0.00000E+00         0.00000E+00        -0.43964E+08
 
   -0.42530E+08         0.27447E+07         0.00000E+00
    0.27447E+07        -0.49926E+08         0.00000E+00
    0.00000E+00         0.00000E+00        -0.43967E+08
 
   -0.42605E+08         0.28316E+07         0.00000E+00
    0.28316E+07        -0.49917E+08         0.00000E+00
    0.00000E+00         0.00000E+00        -0.43969E+08
 
   -0.42678E+08         0.29189E+07         0.00000E+00
    0.29189E+07        -0.49907E+08         0.00000E+00
    0.00000E+00         0.00000E+00        -0.43971E+08
 
   -0.42752E+08         0.30063E+07         0.00000E+00
    0.30063E+07        -0.49896E+08         0.00000E+00
    0.00000E+00         0.00000E+00        -0.43974E+08
 
   -0.42824E+08         0.30941E+07         0.00000E+00
    0.30941E+07        -0.49884E+08         0.00000E+00
    0.00000E+00         0.00000E+00        -0.43976E+08
 
   -0.42897E+08         0.31822E+07         0.00000E+00
    0.31822E+07        -0.49871E+08         0.00000E+00
    0.00000E+00         0.00000E+00        -0.43978E+08
 
   -0.42968E+08         0.32706E+07         0.00000E+00
    0.32706E+07        -0.49856E+08         0.00000E+00
    0.00000E+00         0.00000E+00        -0.43980E+08
 
   -0.43040E+08         0.33593E+07         0.00000E+00
    0.33593E+07        -0.49841E+08         0.00000E+00
    0.00000E+00         0.00000E+00        -0.43982E+08
 
   -0.43111E+08         0.34484E+07         0.00000E+00
    0.34484E+07        -0.49824E+08         0.00000E+00
    0.00000E+00         0.00000E+00        -0.43983E+08
 
   -0.43182E+08         0.35378E+07         0.00000E+00
    0.35378E+07        -0.49806E+08         0.00000E+00
    0.00000E+00         0.00000E+00        -0.43985E+08
 
   -0.43252E+08         0.36276E+07         0.00000E+00
    0.36276E+07        -0.49787E+08         0.00000E+00
    0.00000E+00         0.00000E+00        -0.43987E+08
 
   -0.43323E+08         0.37178E+07         0.00000E+00
    0.37178E+07        -0.49767E+08         0.00000E+00
    0.00000E+00         0.00000E+00        -0.43988E+08
 
   -0.43393E+08         0.38083E+07         0.00000E+00
    0.38083E+07        -0.49745E+08         0.00000E+00
    0.00000E+00         0.00000E+00        -0.43989E+08
 
   -0.43463E+08         0.38992E+07         0.00000E+00
    0.38992E+07        -0.49722E+08         0.00000E+00
    0.00000E+00         0.00000E+00        -0.43990E+08
 
   -0.43533E+08         0.39905E+07         0.00000E+00
    0.39905E+07        -0.49697E+08         0.00000E+00
    0.00000E+00         0.00000E+00        -0.43991E+08
 
   -0.43604E+08         0.40821E+07         0.00000E+00
    0.40821E+07        -0.49671E+08         0.00000E+00
    0.00000E+00         0.00000E+00        -0.43992E+08
 
   -0.43674E+08         0.41741E+07         0.00000E+00
    0.41741E+07        -0.49643E+08         0.00000E+00
    0.00000E+00         0.00000E+00        -0.43993E+08
 
   -0.43745E+08         0.42664E+07         0.00000E+00
    0.42664E+07        -0.49614E+08         0.00000E+00
    0.00000E+00         0.00000E+00        -0.43994E+08
 
   -0.43816E+08         0.43591E+07         0.00000E+00
    0.43591E+07        -0.49583E+08         0.00000E+00
    0.00000E+00         0.00000E+00        -0.43994E+08
 
   -0.43887E+08         0.44520E+07         0.00000E+00
    0.44520E+07        -0.49551E+08         0.00000E+00
    0.00000E+00         0.00000E+00        -0.43994E+08
 
   -0.43959E+08         0.45453E+07         0.00000E+00
    0.45453E+07        -0.49516E+08         0.00000E+00
    0.00000E+00         0.00000E+00        -0.43995E+08
 
   -0.39308E+08         0.58774E+05         0.00000E+00
    0.58774E+05        -0.50000E+08         0.00000E+00
    0.00000E+00         0.00000E+00        -0.43426E+08
 
   -0.39431E+08         0.16887E+06         0.00000E+00
    0.16887E+06        -0.50000E+08         0.00000E+00
    0.00000E+00         0.00000E+00        -0.43426E+08
 
   -0.39552E+08         0.27651E+06         0.00000E+00
    0.27651E+06        -0.50001E+08         0.00000E+00
    0.00000E+00         0.00000E+00        -0.43427E+08
 
   -0.39671E+08         0.38187E+06         0.00000E+00
    0.38187E+06        -0.50001E+08         0.00000E+00
    0.00000E+00         0.00000E+00        -0.43427E+08
 
   -0.39788E+08         0.48511E+06         0.00000E+00
    0.48511E+06        -0.50002E+08         0.00000E+00
    0.00000E+00         0.00000E+00        -0.43428E+08
 
   -0.39902E+08         0.58643E+06         0.00000E+00
    0.58643E+06        -0.50003E+08         0.00000E+00
    0.00000E+00         0.00000E+00        -0.43429E+08
 
   -0.40015E+08         0.68596E+06         0.00000E+00
    0.68596E+06        -0.50004E+08         0.00000E+00
    0.00000E+00         0.00000E+00        -0.43431E+08
 
   -0.40126E+08         0.78389E+06         0.00000E+00
    0.78389E+06        -0.50005E+08         0.00000E+00
    0.00000E+00         0.00000E+00        -0.43432E+08
 
   -0.40234E+08         0.88036E+06         0.00000E+00
    0.88036E+06        -0.50007E+08         0.00000E+00
    0.00000E+00         0.00000E+00        -0.43434E+08
 
   -0.40340E+08         0.97552E+06         0.00000E+00
    0.97552E+06        -0.50009E+08         0.00000E+00
    0.00000E+00         0.00000E+00        -0.43435E+08
 
   -0.40445E+08         0.10695E+07         0.00000E+00
    0.10695E+07        -0.50010E+08         0.00000E+00
    0.00000E+00         0.00000E+00        -0.43437E+08
 
   -0.40547E+08         0.11625E+07         0.00000E+00
    0.11625E+07        -0.50012E+08         0.00000E+00
    0.00000E+00         0.00000E+00        -0.43439E+08
 
   -0.40647E+08         0.12545E+07         0.00000E+00
    0.12545E+07        -0.50014E+08         0.00000E+00
    0.00000E+00         0.00000E+00        -0.43441E+08
 
   -0.40745E+08         0.13458E+07         0.00000E+00
    0.13458E+07        -0.50016E+08         0.00000E+00
    0.00000E+00         0.00000E+00        -0.43443E+08
 
   -0.40841E+08         0.14364E+07         0.00000E+00
    0.14364E+07        -0.50018E+08         0.00000E+00
    0.00000E+00         0.00000E+00        -0.43445E+08
 
   -0.40935E+08         0.15265E+07         0.00000E+00
    0.15265E+07        -0.50020E+08         0.00000E+00
    0.00000E+00         0.00000E+00        -0.43448E+08
 
   -0.41028E+08         0.16162E+07         0.00000E+00
    0.16162E+07        -0.50022E+08         0.00000E+00
    0.00000E+00         0.00000E+00        -0.43450E+08
 
   -0.41118E+08         0.17055E+07         0.00000E+00
    0.17055E+07        -0.50024E+08         0.00000E+00
    0.00000E+00         0.00000E+00        -0.43452E+08
 
   -0.41207E+08         0.17946E+07         0.00000E+00
    0.17946E+07        -0.50025E+08         0.00000E+00
    0.00000E+00         0.00000E+00        -0.43455E+08
 
   -0.41294E+08         0.18835E+07         0.00000E+00
    0.18835E+07        -0.50027E+08         0.00000E+00
    0.00000E+00         0.00000E+00        -0.43457E+08
 
   -0.41379E+08         0.19723E+07         0.00000E+00
    0.19723E+07        -0.50028E+08         0.00000E+00
    0.00000E+00         0.00000E+00        -0.43459E+08
 
   -0.41463E+08         0.20612E+07         0.00000E+00
    0.20612E+07        -0.50028E+08         0.00000E+00
    0.00000E+00         0.00000E+00        -0.43462E+08
 
   -0.41545E+08         0.21501E+07         0.00000E+00
    0.21501E+07        -0.50028E+08         0.00000E+00
    0.00000E+00         0.00000E+00        -0.43464E+08
 
   -0.41626E+08         0.22392E+07         0.00000E+00
    0.22392E+07        -0.50028E+08         0.00000E+00
    0.00000E+00         0.00000E+00        -0.43466E+08
 
   -0.41705E+08         0.23284E+07         0.00000E+00
    0.23284E+07        -0.50027E+08         0.00000E+00
    0.00000E+00         0.00000E+00        -0.43469E+08
 
   -0.41783E+08         0.24180E+07         0.00000E+00
    0.24180E+07        -0.50025E+08         0.00000E+00
    0.00000E+00         0.00000E+00        -0.43471E+08
 
   -0.41860E+08         0.25078E+07         0.00000E+00
    0.25078E+07        -0.50023E+08         0.00000E+00
    0.00000E+00         0.00000E+00        -0.43473E+08
 
   -0.41936E+08         0.25980E+07         0.00000E+00
    0.25980E+07        -0.50020E+08         0.00000E+00
    0.00000E+00         0.00000E+00        -0.43476E+08
 
   -0.42011E+08         0.26886E+07         0.00000E+00
    0.26886E+07        -0.50017E+08         0.00000E+00
    0.00000E+00         0.00000E+00        -0.43478E+08
 
   -0.42084E+08         0.27797E+07         0.00000E+00
    0.27797E+07        -0.50012E+08         0.00000E+00
    0.00000E+00         0.00000E+00        -0.43480E+08
 
   -0.42157E+08         0.28712E+07         0.00000E+00
    0.28712E+07        -0.50006E+08         0.00000E+00
    0.00000E+00         0.00000E+00        -0.43482E+08
 
   -0.42229E+08         0.29632E+07         0.00000E+00
    0.29632E+07        -0.50000E+08         0.00000E+00
    0.00000E+00         0.00000E+00        -0.43484E+08
 
   -0.42301E+08         0.30558E+07         0.00000E+00
    0.30558E+07        -0.49992E+08         0.00000E+00
    0.00000E+00         0.00000E+00        -0.43486E+08
 
   -0.42371E+08         0.31489E+07         0.00000E+00
    0.31489E+07        -0.49984E+08         0.00000E+00
    0.00000E+00         0.00000E+00        -0.43488E+08
 
   -0.42441E+08         0.32426E+07         0.00000E+00
    0.32426E+07        -0.49974E+08         0.00000E+00
    0.00000E+00         0.00000E+00        -0.43489E+08
 
   -0.42511E+08         0.33368E+07         0.00000E+00
    0.33368E+07        -0.49963E+08         0.00000E+00
    0.00000E+00         0.00000E+00        -0.43491E+08
 
   -0.42580E+08         0.34316E+07         0.00000E+00
    0.34316E+07        -0.49951E+08         0.00000E+00
    0.00000E+00         0.00000E+00        -0.43493E+08
 
   -0.42648E+08         0.35271E+07         0.00000E+00
    0.35271E+07        -0.49938E+08         0.00000E+00
    0.00000E+00         0.00000E+00        -0.43494E+08
 
   -0.42717E+08         0.36231E+07         0.00000E+00
    0.36231E+07        -0.49923E+08         0.00000E+00
    0.00000E+00         0.00000E+00        -0.43496E+08
 
   -0.42785E+08         0.37198E+07         0.00000E+00
    0.37198E+07        -0.49906E+08         0.00000E+00
    0.00000E+00         0.00000E+00        -0.43497E+08
 
   -0.42853E+08         0.38170E+07         0.00000E+00
    0.38170E+07        -0.49889E+08         0.00000E+00
    0.00000E+00         0.00000E+00        -0.43498E+08
 
   -0.42921E+08         0.39149E+07         0.00000E+00
    0.39149E+07        -0.49869E+08         0.00000E+00
    0.00000E+00         0.00000E+00        -0.43499E+08
 
   -0.42989E+08         0.40134E+07         0.00000E+00
    0.40134E+07        -0.49849E+08         0.00000E+00
    0.00000E+00         0.00000E+00        -0.43500E+08
 
   -0.43057E+08         0.41124E+07         0.00000E+00
    0.41124E+07        -0.49826E+08         0.00000E+00
    0.00000E+00         0.00000E+00        -0.43501E+08
 
   -0.43125E+08         0.42120E+07         0.00000E+00
    0.42120E+07        -0.49802E+08         0.00000E+00
    0.00000E+00         0.00000E+00        -0.43502E+08
 
   -0.43193E+08         0.43122E+07         0.00000E+00
    0.43122E+07        -0.49776E+08         0.00000E+00
    0.00000E+00         0.00000E+00        -0.43503E+08
 
   -0.43261E+08         0.44130E+07         0.00000E+00
    0.44130E+07        -0.49749E+08         0.00000E+00
    0.00000E+00         0.00000E+00        -0.43503E+08
 
   -0.43330E+08         0.45142E+07         0.00000E+00
    0.45142E+07        -0.49719E+08         0.00000E+00
    0.00000E+00         0.00000E+00        -0.43503E+08
 
   -0.43399E+08         0.46160E+07         0.00000E+00
    0.46160E+07        -0.49688E+08         0.00000E+00
    0.00000E+00         0.00000E+00        -0.43504E+08
 
   -0.43469E+08         0.47183E+07         0.00000E+00
    0.47183E+07        -0.49655E+08         0.00000E+00
    0.00000E+00         0.00000E+00        -0.43504E+08
 
   -0.38755E+08         0.58039E+05         0.00000E+00
    0.58039E+05        -0.50000E+08         0.00000E+00
    0.00000E+00         0.00000E+00        -0.42901E+08
 
   -0.38890E+08         0.16632E+06         0.00000E+00
    0.16632E+06        -0.50001E+08         0.00000E+00
    0.00000E+00         0.00000E+00        -0.42901E+08
 
   -0.39023E+08         0.27207E+06         0.00000E+00
    0.27207E+06        -0.50002E+08         0.00000E+00
    0.00000E+00         0.00000E+00        -0.42901E+08
 
   -0.39153E+08         0.37552E+06         0.00000E+00
    0.37552E+06        -0.50004E+08         0.00000E+00
    0.00000E+00         0.00000E+00        -0.42902E+08
 
   -0.39280E+08         0.47686E+06         0.00000E+00
    0.47686E+06        -0.50006E+08         0.00000E+00
    0.00000E+00         0.00000E+00        -0.42903E+08
 
   -0.39404E+08         0.57632E+06         0.00000E+00
    0.57632E+06        -0.50009E+08         0.00000E+00
    0.00000E+00         0.00000E+00        -0.42904E+08
 
   -0.39525E+08         0.67408E+06         0.00000E+00
    0.67408E+06        -0.50012E+08         0.00000E+00
    0.00000E+00         0.00000E+00        -0.42905E+08
 
   -0.39643E+08         0.77034E+06         0.00000E+00
    0.77034E+06        -0.50016E+08         0.00000E+00
    0.00000E+00         0.00000E+00        -0.42906E+08
 
   -0.39758E+08         0.86527E+06         0.00000E+00
    0.86527E+06        -0.50020E+08         0.00000E+00
    0.00000E+00         0.00000E+00        -0.42907E+08
 
   -0.39870E+08         0.95907E+06         0.00000E+00
    0.95907E+06        -0.50025E+08         0.00000E+00
    0.00000E+00         0.00000E+00        -0.42909E+08
 
   -0.39979E+08         0.10519E+07         0.00000E+00
    0.10519E+07        -0.50030E+08         0.00000E+00
    0.00000E+00         0.00000E+00        -0.42910E+08
 
   -0.40086E+08         0.11439E+07         0.00000E+00
    0.11439E+07        -0.50035E+08         0.00000E+00
    0.00000E+00         0.00000E+00        -0.42912E+08
 
   -0.40190E+08         0.12352E+07         0.00000E+00
    0.12352E+07        -0.50041E+08         0.00000E+00
    0.00000E+00         0.00000E+00        -0.42914E+08
 
   -0.40291E+08         0.13260E+07         0.00000E+00
    0.13260E+07        -0.50047E+08         0.00000E+00
    0.00000E+00         0.00000E+00        -0.42915E+08
 
   -0.40389E+08         0.14164E+07         0.00000E+00
    0.14164E+07        -0.50053E+08         0.00000E+00
    0.00000E+00         0.00000E+00        -0.42917E+08
 
   -0.40485E+08         0.15065E+07         0.00000E+00
    0.15065E+07        -0.50059E+08         0.00000E+00
    0.00000E+00         0.00000E+00        -0.42919E+08
 
   -0.40579E+08         0.15965E+07         0.00000E+00
    0.15965E+07        -0.50065E+08         0.00000E+00
    0.00000E+00         0.00000E+00        -0.42921E+08
 
   -0.40670E+08         0.16864E+07         0.00000E+00
    0.16864E+07        -0.50072E+08         0.00000E+00
    0.00000E+00         0.00000E+00        -0.42923E+08
 
   -0.40759E+08         0.17765E+07         0.00000E+00
    0.17765E+07        -0.50078E+08         0.00000E+00
    0.00000E+00         0.00000E+00        -0.42925E+08
 
   -0.40845E+08         0.18666E+07         0.00000E+00
    0.18666E+07        -0.50083E+08         0.00000E+00
    0.00000E+00         0.00000E+00        -0.42927E+08
 
   -0.40930E+08         0.19571E+07         0.00000E+00
    0.19571E+07        -0.50089E+08         0.00000E+00
    0.00000E+00         0.00000E+00        -0.42929E+08
 
   -0.41013E+08         0.20478E+07         0.00000E+00
    0.20478E+07        -0.50094E+08         0.00000E+00
    0.00000E+00         0.00000E+00        -0.42931E+08
 
   -0.41094E+08         0.21390E+07         0.00000E+00
    0.21390E+07        -0.50099E+08         0.00000E+00
    0.00000E+00         0.00000E+00        -0.42933E+08
 
   -0.41173E+08         0.22306E+07         0.00000E+00
    0.22306E+07        -0.50104E+08         0.00000E+00
    0.00000E+00         0.00000E+00        -0.42935E+08
 
   -0.41250E+08         0.23228E+07         0.00000E+00
    0.23228E+07        -0.50108E+08         0.00000E+00
    0.00000E+00         0.00000E+00        -0.42936E+08
 
   -0.41326E+08         0.24156E+07         0.00000E+00
    0.24156E+07        -0.50111E+08         0.00000E+00
    0.00000E+00         0.00000E+00        -0.42938E+08
 
   -0.41400E+08         0.25090E+07         0.00000E+00
    0.25090E+07        -0.50114E+08         0.00000E+00
    0.00000E+00         0.00000E+00        -0.42940E+08
 
   -0.41474E+08         0.26031E+07         0.00000E+00
    0.26031E+07        -0.50115E+08         0.00000E+00
    0.00000E+00         0.00000E+00        -0.42942E+08
 
   -0.41545E+08         0.26980E+07         0.00000E+00
    0.26980E+07        -0.50116E+08         0.00000E+00
    0.00000E+00         0.00000E+00        -0.42944E+08
 
   -0.41616E+08         0.27936E+07         0.00000E+00
    0.27936E+07        -0.50117E+08         0.00000E+00
    0.00000E+00         0.00000E+00        -0.42945E+08
 
   -0.41686E+08         0.28900E+07         0.00000E+00
    0.28900E+07        -0.50116E+08         0.00000E+00
    0.00000E+00         0.00000E+00        -0.42947E+08
 
   -0.41754E+08         0.29873E+07         0.00000E+00
    0.29873E+07        -0.50114E+08         0.00000E+00
    0.00000E+00         0.00000E+00        -0.42949E+08
 
   -0.41822E+08         0.30853E+07         0.00000E+00
    0.30853E+07        -0.50111E+08         0.00000E+00
    0.00000E+00         0.00000E+00        -0.42950E+08
 
   -0.41889E+08         0.31843E+07         0.00000E+00
    0.31843E+07        -0.50106E+08         0.00000E+00
    0.00000E+00         0.00000E+00        -0.42952E+08
 
   -0.41956E+08         0.32841E+07         0.00000E+00
    0.32841E+07        -0.50101E+08         0.00000E+00
    0.00000E+00         0.00000E+00        -0.42953E+08
 
   -0.42021E+08         0.33848E+07         0.00000E+00
    0.33848E+07        -0.50094E+08         0.00000E+00
    0.00000E+00         0.00000E+00        -0.42955E+08
 
   -0.42087E+08         0.34864E+07         0.00000E+00
    0.34864E+07        -0.50086E+08         0.00000E+00
    0.00000E+00         0.00000E+00        -0.42956E+08
 
   -0.42152E+08         0.35889E+07         0.00000E+00
    0.35889E+07        -0.50076E+08         0.00000E+00
    0.00000E+00         0.00000E+00        -0.42957E+08
 
   -0.42216E+08         0.36922E+07         0.00000E+00
    0.36922E+07        -0.50065E+08         0.00000E+00
    0.00000E+00         0.00000E+00        -0.42958E+08
 
   -0.42281E+08         0.37965E+07         0.00000E+00
    0.37965E+07        -0.50052E+08         0.00000E+00
    0.00000E+00         0.00000E+00        -0.42959E+08
 
   -0.42345E+08         0.39016E+07         0.00000E+00
    0.39016E+07        -0.50038E+08         0.00000E+00
    0.00000E+00         0.00000E+00        -0.42960E+08
 
   -0.42409E+08         0.40076E+07         0.00000E+00
    0.40076E+07        -0.50021E+08         0.00000E+00
    0.00000E+00         0.00000E+00        -0.42961E+08
 
   -0.42474E+08         0.41144E+07         0.00000E+00
    0.41144E+07        -0.50004E+08         0.00000E+00
    0.00000E+00         0.00000E+00        -0.42962E+08
 
   -0.42538E+08         0.42221E+07         0.00000E+00
    0.42221E+07        -0.49984E+08         0.00000E+00
    0.00000E+00         0.00000E+00        -0.42962E+08
 
   -0.42603E+08         0.43307E+07         0.00000E+00
    0.43307E+07        -0.49963E+08         0.00000E+00
    0.00000E+00         0.00000E+00        -0.42963E+08
 
   -0.42667E+08         0.44400E+07         0.00000E+00
    0.44400E+07        -0.49939E+08         0.00000E+00
    0.00000E+00         0.00000E+00        -0.42964E+08
 
   -0.42733E+08         0.45501E+07         0.00000E+00
    0.45501E+07        -0.49914E+08         0.00000E+00
    0.00000E+00         0.00000E+00        -0.42964E+08
 
   -0.42798E+08         0.46610E+07         0.00000E+00
    0.46610E+07        -0.49887E+08         0.00000E+00
    0.00000E+00         0.00000E+00        -0.42964E+08
 
   -0.42864E+08         0.47726E+07         0.00000E+00
    0.47726E+07        -0.49857E+08         0.00000E+00
    0.00000E+00         0.00000E+00        -0.42964E+08
 
   -0.42931E+08         0.48849E+07         0.00000E+00
    0.48849E+07        -0.49826E+08         0.00000E+00
    0.00000E+00         0.00000E+00        -0.42965E+08
 
   -0.38215E+08         0.56114E+05         0.00000E+00
    0.56114E+05        -0.50000E+08         0.00000E+00
    0.00000E+00         0.00000E+00        -0.42325E+08
 
   -0.38364E+08         0.16041E+06         0.00000E+00
    0.16041E+06        -0.50001E+08         0.00000E+00
    0.00000E+00         0.00000E+00        -0.42325E+08
 
   -0.38509E+08         0.26219E+06         0.00000E+00
    0.26219E+06        -0.50003E+08         0.00000E+00
    0.00000E+00         0.00000E+00        -0.42325E+08
 
   -0.38650E+08         0.36172E+06         0.00000E+00
    0.36172E+06        -0.50007E+08         0.00000E+00
    0.00000E+00         0.00000E+00        -0.42326E+08
 
   -0.38787E+08         0.45926E+06         0.00000E+00
    0.45926E+06        -0.50011E+08         0.00000E+00
    0.00000E+00         0.00000E+00        -0.42326E+08
 
   -0.38919E+08         0.55505E+06         0.00000E+00
    0.55505E+06        -0.50016E+08         0.00000E+00
    0.00000E+00         0.00000E+00        -0.42327E+08
 
   -0.39048E+08         0.64932E+06         0.00000E+00
    0.64932E+06        -0.50022E+08         0.00000E+00
    0.00000E+00         0.00000E+00        -0.42328E+08
 
   -0.39172E+08         0.74230E+06         0.00000E+00
    0.74230E+06        -0.50029E+08         0.00000E+00
    0.00000E+00         0.00000E+00        -0.42329E+08
 
   -0.39293E+08         0.83421E+06         0.00000E+00
    0.83421E+06        -0.50036E+08         0.00000E+00
    0.00000E+00         0.00000E+00        -0.42330E+08
 
   -0.39409E+08         0.92523E+06         0.00000E+00
    0.92523E+06        -0.50045E+08         0.00000E+00
    0.00000E+00         0.00000E+00        -0.42331E+08
 
   -0.39522E+08         0.10156E+07         0.00000E+00
    0.10156E+07        -0.50054E+08         0.00000E+00
    0.00000E+00         0.00000E+00        -0.42332E+08
 
   -0.39632E+08         0.11054E+07         0.00000E+00
    0.11054E+07        -0.50063E+08         0.00000E+00
    0.00000E+00         0.00000E+00        -0.42333E+08
 
   -0.39738E+08         0.11949E+07         0.00000E+00
    0.11949E+07        -0.50074E+08         0.00000E+00
    0.00000E+00         0.00000E+00        -0.42335E+08
 
   -0.39840E+08         0.12842E+07         0.00000E+00
    0.12842E+07        -0.50084E+08         0.00000E+00
    0.00000E+00         0.00000E+00        -0.42336E+08
 
   -0.39940E+08         0.13735E+07         0.00000E+00
    0.13735E+07        -0.50095E+08         0.00000E+00
    0.00000E+00         0.00000E+00        -0.42337E+08
 
   -0.40036E+08         0.14629E+07         0.00000E+00
    0.14629E+07        -0.50106E+08         0.00000E+00
    0.00000E+00         0.00000E+00        -0.42339E+08
 
   -0.40129E+08         0.15525E+07         0.00000E+00
    0.15525E+07        -0.50118E+08         0.00000E+00
    0.00000E+00         0.00000E+00        -0.42340E+08
 
   -0.40219E+08         0.16425E+07         0.00000E+00
    0.16425E+07        -0.50129E+08         0.00000E+00
    0.00000E+00         0.00000E+00        -0.42342E+08
 
   -0.40306E+08         0.17330E+07         0.00000E+00
    0.17330E+07        -0.50141E+08         0.00000E+00
    0.00000E+00         0.00000E+00        -0.42343E+08
 
   -0.40391E+08         0.18241E+07         0.00000E+00
    0.18241E+07        -0.50152E+08         0.00000E+00
    0.00000E+00         0.00000E+00        -0.42344E+08
 
   -0.40473E+08         0.19158E+07         0.00000E+00
    0.19158E+07        -0.50164E+08         0.00000E+00
    0.00000E+00         0.00000E+00        -0.42346E+08
 
   -0.40553E+08         0.20082E+07         0.00000E+00
    0.20082E+07        -0.50175E+08         0.00000E+00
    0.00000E+00         0.00000E+00        -0.42347E+08
 
   -0.40631E+08         0.21015E+07         0.00000E+00
    0.21015E+07        -0.50185E+08         0.00000E+00
    0.00000E+00         0.00000E+00        -0.42349E+08
 
   -0.40706E+08         0.21957E+07         0.00000E+00
    0.21957E+07        -0.50196E+08         0.00000E+00
    0.00000E+00         0.00000E+00        -0.42350E+08
 
   -0.40780E+08         0.22908E+07         0.00000E+00
    0.22908E+07        -0.50205E+08         0.00000E+00
    0.00000E+00         0.00000E+00        -0.42351E+08
 
   -0.40851E+08         0.23869E+07         0.00000E+00
    0.23869E+07        -0.50214E+08         0.00000E+00
    0.00000E+00         0.00000E+00        -0.42353E+08
 
   -0.40922E+08         0.24841E+07         0.00000E+00
    0.24841E+07        -0.50223E+08         0.00000E+00
    0.00000E+00         0.00000E+00        -0.42354E+08
 
   -0.40990E+08         0.25824E+07         0.00000E+00
    0.25824E+07        -0.50230E+08         0.00000E+00
    0.00000E+00         0.00000E+00        -0.42355E+08
 
   -0.41057E+08         0.26818E+07         0.00000E+00
    0.26818E+07        -0.50237E+08         0.00000E+00
    0.00000E+00         0.00000E+00        -0.42357E+08
 
   -0.41123E+08         0.27823E+07         0.00000E+00
    0.27823E+07        -0.50242E+08         0.00000E+00
    0.00000E+00         0.00000E+00        -0.42358E+08
 
   -0.41188E+08         0.28841E+07         0.00000E+00
    0.28841E+07        -0.50247E+08         0.00000E+00
    0.00000E+00         0.00000E+00        -0.42359E+08
 
   -0.41251E+08         0.29870E+07         0.00000E+00
    0.29870E+07        -0.50250E+08         0.00000E+00
    0.00000E+00         0.00000E+00        -0.42360E+08
 
   -0.41314E+08         0.30912E+07         0.00000E+00
    0.30912E+07        -0.50252E+08         0.00000E+00
    0.00000E+00         0.00000E+00        -0.42361E+08
 
   -0.41376E+08         0.31965E+07         0.00000E+00
    0.31965E+07        -0.50253E+08         0.00000E+00
    0.00000E+00         0.00000E+00        -0.42362E+08
 
   -0.41437E+08         0.33031E+07         0.00000E+00
    0.33031E+07        -0.50252E+08         0.00000E+00
    0.00000E+00         0.00000E+00        -0.42363E+08
 
   -0.41497E+08         0.34109E+07         0.00000E+00
    0.34109E+07        -0.50250E+08         0.00000E+00
    0.00000E+00         0.00000E+00        -0.42364E+08
 
   -0.41557E+08         0.35200E+07         0.00000E+00
    0.35200E+07        -0.50247E+08         0.00000E+00
    0.00000E+00         0.00000E+00        -0.42365E+08
 
   -0.41617E+08         0.36302E+07         0.00000E+00
    0.36302E+07        -0.50242E+08         0.00000E+00
    0.00000E+00         0.00000E+00        -0.42366E+08
 
   -0.41677E+08         0.37417E+07         0.00000E+00
    0.37417E+07        -0.50235E+08         0.00000E+00
    0.00000E+00         0.00000E+00        -0.42367E+08
 
   -0.41736E+08         0.38544E+07         0.00000E+00
    0.38544E+07        -0.50226E+08         0.00000E+00
    0.00000E+00         0.00000E+00        -0.42368E+08
 
   -0.41795E+08         0.39682E+07         0.00000E+00
    0.39682E+07        -0.50216E+08         0.00000E+00
    0.00000E+00         0.00000E+00        -0.42368E+08
 
   -0.41854E+08         0.40832E+07         0.00000E+00
    0.40832E+07        -0.50203E+08         0.00000E+00
    0.00000E+00         0.00000E+00        -0.42369E+08
 
   -0.41914E+08         0.41994E+07         0.00000E+00
    0.41994E+07        -0.50189E+08         0.00000E+00
    0.00000E+00         0.00000E+00        -0.42369E+08
 
   -0.41973E+08         0.43167E+07         0.00000E+00
    0.43167E+07        -0.50173E+08         0.00000E+00
    0.00000E+00         0.00000E+00        -0.42370E+08
 
   -0.42033E+08         0.44351E+07         0.00000E+00
    0.44351E+07        -0.50155E+08         0.00000E+00
    0.00000E+00         0.00000E+00        -0.42370E+08
 
   -0.42093E+08         0.45546E+07         0.00000E+00
    0.45546E+07        -0.50135E+08         0.00000E+00
    0.00000E+00         0.00000E+00        -0.42371E+08
 
   -0.42154E+08         0.46751E+07         0.00000E+00
    0.46751E+07        -0.50112E+08         0.00000E+00
    0.00000E+00         0.00000E+00        -0.42371E+08
 
   -0.42215E+08         0.47966E+07         0.00000E+00
    0.47966E+07        -0.50087E+08         0.00000E+00
    0.00000E+00         0.00000E+00        -0.42371E+08
 
   -0.42277E+08         0.49192E+07         0.00000E+00
    0.49192E+07        -0.50060E+08         0.00000E+00
    0.00000E+00         0.00000E+00        -0.42371E+08
 
   -0.42340E+08         0.50427E+07         0.00000E+00
    0.50427E+07        -0.50031E+08         0.00000E+00
    0.00000E+00         0.00000E+00        -0.42371E+08
 
   -0.37702E+08         0.52688E+05         0.00000E+00
    0.52688E+05        -0.50001E+08         0.00000E+00
    0.00000E+00         0.00000E+00        -0.41692E+08
 
   -0.37864E+08         0.15031E+06         0.00000E+00
    0.15031E+06        -0.50002E+08         0.00000E+00
    0.00000E+00         0.00000E+00        -0.41692E+08
 
   -0.38021E+08         0.24555E+06         0.00000E+00
    0.24555E+06        -0.50006E+08         0.00000E+00
    0.00000E+00         0.00000E+00        -0.41693E+08
 
   -0.38172E+08         0.33873E+06         0.00000E+00
    0.33873E+06        -0.50010E+08         0.00000E+00
    0.00000E+00         0.00000E+00        -0.41693E+08
 
   -0.38317E+08         0.43016E+06         0.00000E+00
    0.43016E+06        -0.50017E+08         0.00000E+00
    0.00000E+00         0.00000E+00        -0.41693E+08
 
   -0.38457E+08         0.52011E+06         0.00000E+00
    0.52011E+06        -0.50025E+08         0.00000E+00
    0.00000E+00         0.00000E+00        -0.41694E+08
 
   -0.38592E+08         0.60885E+06         0.00000E+00
    0.60885E+06        -0.50034E+08         0.00000E+00
    0.00000E+00         0.00000E+00        -0.41694E+08
 
   -0.38721E+08         0.69665E+06         0.00000E+00
    0.69665E+06        -0.50044E+08         0.00000E+00
    0.00000E+00         0.00000E+00        -0.41695E+08
 
   -0.38846E+08         0.78375E+06         0.00000E+00
    0.78375E+06        -0.50056E+08         0.00000E+00
    0.00000E+00         0.00000E+00        -0.41695E+08
 
   -0.38966E+08         0.87037E+06         0.00000E+00
    0.87037E+06        -0.50069E+08         0.00000E+00
    0.00000E+00         0.00000E+00        -0.41696E+08
 
   -0.39081E+08         0.95673E+06         0.00000E+00
    0.95673E+06        -0.50083E+08         0.00000E+00
    0.00000E+00         0.00000E+00        -0.41697E+08
 
   -0.39191E+08         0.10430E+07         0.00000E+00
    0.10430E+07        -0.50097E+08         0.00000E+00
    0.00000E+00         0.00000E+00        -0.41697E+08
 
   -0.39297E+08         0.11294E+07         0.00000E+00
    0.11294E+07        -0.50113E+08         0.00000E+00
    0.00000E+00         0.00000E+00        -0.41698E+08
 
   -0.39399E+08         0.12162E+07         0.00000E+00
    0.12162E+07        -0.50129E+08         0.00000E+00
    0.00000E+00         0.00000E+00        -0.41699E+08
 
   -0.39497E+08         0.13034E+07         0.00000E+00
    0.13034E+07        -0.50146E+08         0.00000E+00
    0.00000E+00         0.00000E+00        -0.41700E+08
 
   -0.39591E+08         0.13912E+07         0.00000E+00
    0.13912E+07        -0.50163E+08         0.00000E+00
    0.00000E+00         0.00000E+00        -0.41701E+08
 
   -0.39681E+08         0.14797E+07         0.00000E+00
    0.14797E+07        -0.50181E+08         0.00000E+00
    0.00000E+00         0.00000E+00        -0.41701E+08
 
   -0.39768E+08         0.15691E+07         0.00000E+00
    0.15691E+07        -0.50199E+08         0.00000E+00
    0.00000E+00         0.00000E+00        -0.41702E+08
 
   -0.39851E+08         0.16595E+07         0.00000E+00
    0.16595E+07        -0.50217E+08         0.00000E+00
    0.00000E+00         0.00000E+00        -0.41703E+08
 
   -0.39932E+08         0.17510E+07         0.00000E+00
    0.17510E+07        -0.50235E+08         0.00000E+00
    0.00000E+00         0.00000E+00        -0.41704E+08
 
   -0.40009E+08         0.18437E+07         0.00000E+00
    0.18437E+07        -0.50253E+08         0.00000E+00
    0.00000E+00         0.00000E+00        -0.41705E+08
 
   -0.40084E+08         0.19376E+07         0.00000E+00
    0.19376E+07        -0.50270E+08         0.00000E+00
    0.00000E+00         0.00000E+00        -0.41705E+08
 
   -0.40156E+08         0.20329E+07         0.00000E+00
    0.20329E+07        -0.50288E+08         0.00000E+00
    0.00000E+00         0.00000E+00        -0.41706E+08
 
   -0.40226E+08         0.21296E+07         0.00000E+00
    0.21296E+07        -0.50304E+08         0.00000E+00
    0.00000E+00         0.00000E+00        -0.41707E+08
 
   -0.40293E+08         0.22277E+07         0.00000E+00
    0.22277E+07        -0.50321E+08         0.00000E+00
    0.00000E+00         0.00000E+00        -0.41708E+08
 
   -0.40359E+08         0.23274E+07         0.00000E+00
    0.23274E+07        -0.50336E+08         0.00000E+00
    0.00000E+00         0.00000E+00        -0.41709E+08
 
   -0.40422E+08         0.24286E+07         0.00000E+00
    0.24286E+07        -0.50351E+08         0.00000E+00
    0.00000E+00         0.00000E+00        -0.41709E+08
 
   -0.40484E+08         0.25313E+07         0.00000E+00
    0.25313E+07        -0.50365E+08         0.00000E+00
    0.00000E+00         0.00000E+00        -0.41710E+08
 
   -0.40544E+08         0.26356E+07         0.00000E+00
    0.26356E+07        -0.50378E+08         0.00000E+00
    0.00000E+00         0.00000E+00        -0.41711E+08
 
   -0.40603E+08         0.27416E+07         0.00000E+00
    0.27416E+07        -0.50390E+08         0.00000E+00
    0.00000E+00         0.00000E+00        -0.41711E+08
 
   -0.40661E+08         0.28492E+07         0.00000E+00
    0.28492E+07        -0.50401E+08         0.00000E+00
    0.00000E+00         0.00000E+00        -0.41712E+08
 
   -0.40717E+08         0.29584E+07         0.00000E+00
    0.29584E+07        -0.50411E+08         0.00000E+00
    0.00000E+00         0.00000E+00        -0.41713E+08
 
   -0.40773E+08         0.30692E+07         0.00000E+00
    0.30692E+07        -0.50419E+08         0.00000E+00
    0.00000E+00         0.00000E+00        -0.41713E+08
 
   -0.40828E+08         0.31817E+07         0.00000E+00
    0.31817E+07        -0.50426E+08         0.00000E+00
    0.00000E+00         0.00000E+00        -0.41714E+08
 
   -0.40882E+08         0.32958E+07         0.00000E+00
    0.32958E+07        -0.50431E+08         0.00000E+00
    0.00000E+00         0.00000E+00        -0.41714E+08
 
   -0.40935E+08         0.34114E+07         0.00000E+00
    0.34114E+07        -0.50434E+08         0.00000E+00
    0.00000E+00         0.00000E+00        -0.41715E+08
 
   -0.40988E+08         0.35287E+07         0.00000E+00
    0.35287E+07        -0.50436E+08         0.00000E+00
    0.00000E+00         0.00000E+00        -0.41715E+08
 
   -0.41041E+08         0.36476E+07         0.00000E+00
    0.36476E+07        -0.50436E+08         0.00000E+00
    0.00000E+00         0.00000E+00        -0.41716E+08
 
   -0.41093E+08         0.37680E+07         0.00000E+00
    0.37680E+07        -0.50434E+08         0.00000E+00
    0.00000E+00         0.00000E+00        -0.41716E+08
 
   -0.41146E+08         0.38900E+07         0.00000E+00
    0.38900E+07        -0.50431E+08         0.00000E+00
    0.00000E+00         0.00000E+00        -0.41716E+08
 
   -0.41198E+08         0.40135E+07         0.00000E+00
    0.40135E+07        -0.50425E+08         0.00000E+00
    0.00000E+00         0.00000E+00        -0.41717E+08
 
   -0.41251E+08         0.41385E+07         0.00000E+00
    0.41385E+07        -0.50417E+08         0.00000E+00
    0.00000E+00         0.00000E+00        -0.41717E+08
 
   -0.41304E+08         0.42649E+07         0.00000E+00
    0.42649E+07        -0.50407E+08         0.00000E+00
    0.00000E+00         0.00000E+00        -0.41717E+08
 
   -0.41357E+08         0.43928E+07         0.00000E+00
    0.43928E+07        -0.50395E+08         0.00000E+00
    0.00000E+00         0.00000E+00        -0.41717E+08
 
   -0.41411E+08         0.45221E+07         0.00000E+00
    0.45221E+07        -0.50381E+08         0.00000E+00
    0.00000E+00         0.00000E+00        -0.41717E+08
 
   -0.41465E+08         0.46528E+07         0.00000E+00
    0.46528E+07        -0.50365E+08         0.00000E+00
    0.00000E+00         0.00000E+00        -0.41718E+08
 
   -0.41520E+08         0.47848E+07         0.00000E+00
    0.47848E+07        -0.50346E+08         0.00000E+00
    0.00000E+00         0.00000E+00        -0.41718E+08
 
   -0.41575E+08         0.49181E+07         0.00000E+00
    0.49181E+07        -0.50324E+08         0.00000E+00
    0.00000E+00         0.00000E+00        -0.41718E+08
 
   -0.41632E+08         0.50527E+07         0.00000E+00
    0.50527E+07        -0.50300E+08         0.00000E+00
    0.00000E+00         0.00000E+00        -0.41718E+08
 
   -0.41689E+08         0.51885E+07         0.00000E+00
    0.51885E+07        -0.50274E+08         0.00000E+00
    0.00000E+00         0.00000E+00        -0.41718E+08
 
   -0.37231E+08         0.47400E+05         0.00000E+00
    0.47400E+05        -0.50001E+08         0.00000E+00
    0.00000E+00         0.00000E+00        -0.40996E+08
 
   -0.37405E+08         0.13509E+06         0.00000E+00
    0.13509E+06        -0.50003E+08         0.00000E+00
    0.00000E+00         0.00000E+00        -0.40996E+08
 
   -0.37572E+08         0.22071E+06         0.00000E+00
    0.22071E+06        -0.50008E+08         0.00000E+00
    0.00000E+00         0.00000E+00        -0.40997E+08
 
   -0.37732E+08         0.30464E+06         0.00000E+00
    0.30464E+06        -0.50015E+08         0.00000E+00
    0.00000E+00         0.00000E+00        -0.40997E+08
 
   -0.37884E+08         0.38722E+06         0.00000E+00
    0.38722E+06        -0.50024E+08         0.00000E+00
    0.00000E+00         0.00000E+00        -0.40997E+08
 
   -0.38030E+08         0.46877E+06         0.00000E+00
    0.46877E+06        -0.50035E+08         0.00000E+00
    0.00000E+00         0.00000E+00        -0.40997E+08
 
   -0.38169E+08         0.54961E+06         0.00000E+00
    0.54961E+06        -0.50048E+08         0.00000E+00
    0.00000E+00         0.00000E+00        -0.40997E+08
 
   -0.38301E+08         0.63001E+06         0.00000E+00
    0.63001E+06        -0.50063E+08         0.00000E+00
    0.00000E+00         0.00000E+00        -0.40997E+08
 
   -0.38427E+08         0.71025E+06         0.00000E+00
    0.71025E+06        -0.50079E+08         0.00000E+00
    0.00000E+00         0.00000E+00        -0.40997E+08
 
   -0.38547E+08         0.79059E+06         0.00000E+00
    0.79059E+06        -0.50097E+08         0.00000E+00
    0.00000E+00         0.00000E+00        -0.40997E+08
 
   -0.38662E+08         0.87125E+06         0.00000E+00
    0.87125E+06        -0.50117E+08         0.00000E+00
    0.00000E+00         0.00000E+00        -0.40997E+08
 
   -0.38770E+08         0.95245E+06         0.00000E+00
    0.95245E+06        -0.50137E+08         0.00000E+00
    0.00000E+00         0.00000E+00        -0.40997E+08
 
   -0.38874E+08         0.10344E+07         0.00000E+00
    0.10344E+07        -0.50159E+08         0.00000E+00
    0.00000E+00         0.00000E+00        -0.40998E+08
 
   -0.38972E+08         0.11173E+07         0.00000E+00
    0.11173E+07        -0.50182E+08         0.00000E+00
    0.00000E+00         0.00000E+00        -0.40998E+08
 
   -0.39066E+08         0.12013E+07         0.00000E+00
    0.12013E+07        -0.50205E+08         0.00000E+00
    0.00000E+00         0.00000E+00        -0.40998E+08
 
   -0.39155E+08         0.12865E+07         0.00000E+00
    0.12865E+07        -0.50230E+08         0.00000E+00
    0.00000E+00         0.00000E+00        -0.40998E+08
 
   -0.39240E+08         0.13731E+07         0.00000E+00
    0.13731E+07        -0.50254E+08         0.00000E+00
    0.00000E+00         0.00000E+00        -0.40998E+08
 
   -0.39320E+08         0.14613E+07         0.00000E+00
    0.14613E+07        -0.50280E+08         0.00000E+00
    0.00000E+00         0.00000E+00        -0.40998E+08
 
   -0.39397E+08         0.15511E+07         0.00000E+00
    0.15511E+07        -0.50305E+08         0.00000E+00
    0.00000E+00         0.00000E+00        -0.40998E+08
 
   -0.39470E+08         0.16426E+07         0.00000E+00
    0.16426E+07        -0.50331E+08         0.00000E+00
    0.00000E+00         0.00000E+00        -0.40998E+08
 
   -0.39540E+08         0.17359E+07         0.00000E+00
    0.17359E+07        -0.50356E+08         0.00000E+00
    0.00000E+00         0.00000E+00        -0.40999E+08
 
   -0.39607E+08         0.18312E+07         0.00000E+00
    0.18312E+07        -0.50381E+08         0.00000E+00
    0.00000E+00         0.00000E+00        -0.40999E+08
 
   -0.39670E+08         0.19284E+07         0.00000E+00
    0.19284E+07        -0.50407E+08         0.00000E+00
    0.00000E+00         0.00000E+00        -0.40999E+08
 
   -0.39731E+08         0.20276E+07         0.00000E+00
    0.20276E+07        -0.50431E+08         0.00000E+00
    0.00000E+00         0.00000E+00        -0.40999E+08
 
   -0.39790E+08         0.21288E+07         0.00000E+00
    0.21288E+07        -0.50455E+08         0.00000E+00
    0.00000E+00         0.00000E+00        -0.40999E+08
 
   -0.39846E+08         0.22322E+07         0.00000E+00
    0.22322E+07        -0.50478E+08         0.00000E+00
    0.00000E+00         0.00000E+00        -0.40999E+08
 
   -0.39901E+08         0.23377E+07         0.00000E+00
    0.23377E+07        -0.50501E+08         0.00000E+00
    0.00000E+00         0.00000E+00        -0.40999E+08
 
   -0.39953E+08         0.24453E+07         0.00000E+00
    0.24453E+07        -0.50522E+08         0.00000E+00
    0.00000E+00         0.00000E+00        -0.40999E+08
 
   -0.40004E+08         0.25550E+07         0.00000E+00
    0.25550E+07        -0.50543E+08         0.00000E+00
    0.00000E+00         0.00000E+00        -0.40999E+08
 
   -0.40054E+08         0.26669E+07         0.00000E+00
    0.26669E+07        -0.50562E+08         0.00000E+00
    0.00000E+00         0.00000E+00        -0.40999E+08
 
   -0.40102E+08         0.27810E+07         0.00000E+00
    0.27810E+07        -0.50580E+08         0.00000E+00
    0.00000E+00         0.00000E+00        -0.40999E+08
 
   -0.40149E+08         0.28971E+07         0.00000E+00
    0.28971E+07        -0.50597E+08         0.00000E+00
    0.00000E+00         0.00000E+00        -0.40999E+08
 
   -0.40196E+08         0.30153E+07         0.00000E+00
    0.30153E+07        -0.50612E+08         0.00000E+00
    0.00000E+00         0.00000E+00        -0.40999E+08
 
   -0.40241E+08         0.31357E+07         0.00000E+00
    0.31357E+07        -0.50625E+08         0.00000E+00
    0.00000E+00         0.00000E+00        -0.40999E+08
 
   -0.40286E+08         0.32581E+07         0.00000E+00
    0.32581E+07        -0.50637E+08         0.00000E+00
    0.00000E+00         0.00000E+00        -0.40999E+08
 
   -0.40330E+08         0.33825E+07         0.00000E+00
    0.33825E+07        -0.50647E+08         0.00000E+00
    0.00000E+00         0.00000E+00        -0.40999E+08
 
   -0.40375E+08         0.35089E+07         0.00000E+00
    0.35089E+07        -0.50655E+08         0.00000E+00
    0.00000E+00         0.00000E+00        -0.40999E+08
 
   -0.40419E+08         0.36373E+07         0.00000E+00
    0.36373E+07        -0.50661E+08         0.00000E+00
    0.00000E+00         0.00000E+00        -0.40999E+08
 
   -0.40462E+08         0.37676E+07         0.00000E+00
    0.37676E+07        -0.50665E+08         0.00000E+00
    0.00000E+00         0.00000E+00        -0.40999E+08
 
   -0.40506E+08         0.38998E+07         0.00000E+00
    0.38998E+07        -0.50667E+08         0.00000E+00
    0.00000E+00         0.00000E+00        -0.40999E+08
 
   -0.40550E+08         0.40339E+07         0.00000E+00
    0.40339E+07        -0.50667E+08         0.00000E+00
    0.00000E+00         0.00000E+00        -0.40999E+08
 
   -0.40595E+08         0.41698E+07         0.00000E+00
    0.41698E+07        -0.50664E+08         0.00000E+00
    0.00000E+00         0.00000E+00        -0.40999E+08
 
   -0.40640E+08         0.43075E+07         0.00000E+00
    0.43075E+07        -0.50659E+08         0.00000E+00
    0.00000E+00         0.00000E+00        -0.40999E+08
 
   -0.40685E+08         0.44470E+07         0.00000E+00
    0.44470E+07        -0.50652E+08         0.00000E+00
    0.00000E+00         0.00000E+00        -0.40999E+08
 
   -0.40731E+08         0.45882E+07         0.00000E+00
    0.45882E+07        -0.50643E+08         0.00000E+00
    0.00000E+00         0.00000E+00        -0.40999E+08
 
   -0.40777E+08         0.47311E+07         0.00000E+00
    0.47311E+07        -0.50630E+08         0.00000E+00
    0.00000E+00         0.00000E+00        -0.40999E+08
 
   -0.40825E+08         0.48757E+07         0.00000E+00
    0.48757E+07        -0.50616E+08         0.00000E+00
    0.00000E+00         0.00000E+00        -0.40998E+08
 
   -0.40873E+08         0.50220E+07         0.00000E+00
    0.50220E+07        -0.50598E+08         0.00000E+00
    0.00000E+00         0.00000E+00        -0.40998E+08
 
   -0.40922E+08         0.51698E+07         0.00000E+00
    0.51698E+07        -0.50578E+08         0.00000E+00
    0.00000E+00         0.00000E+00        -0.40998E+08
 
   -0.40973E+08         0.53191E+07         0.00000E+00
    0.53191E+07        -0.50555E+08         0.00000E+00
    0.00000E+00         0.00000E+00        -0.40998E+08
 
   -0.36820E+08         0.39858E+05         0.00000E+00
    0.39858E+05        -0.50001E+08         0.00000E+00
    0.00000E+00         0.00000E+00        -0.40230E+08
 
   -0.37004E+08         0.11376E+06         0.00000E+00
    0.11376E+06        -0.50004E+08         0.00000E+00
    0.00000E+00         0.00000E+00        -0.40230E+08
 
   -0.37179E+08         0.18616E+06         0.00000E+00
    0.18616E+06        -0.50011E+08         0.00000E+00
    0.00000E+00         0.00000E+00        -0.40230E+08
 
   -0.37345E+08         0.25745E+06         0.00000E+00
    0.25745E+06        -0.50020E+08         0.00000E+00
    0.00000E+00         0.00000E+00        -0.40230E+08
 
   -0.37501E+08         0.32803E+06         0.00000E+00
    0.32803E+06        -0.50033E+08         0.00000E+00
    0.00000E+00         0.00000E+00        -0.40229E+08
 
   -0.37650E+08         0.39825E+06         0.00000E+00
    0.39825E+06        -0.50047E+08         0.00000E+00
    0.00000E+00         0.00000E+00        -0.40229E+08
 
   -0.37790E+08         0.46846E+06         0.00000E+00
    0.46846E+06        -0.50065E+08         0.00000E+00
    0.00000E+00         0.00000E+00        -0.40229E+08
 
   -0.37922E+08         0.53896E+06         0.00000E+00
    0.53896E+06        -0.50085E+08         0.00000E+00
    0.00000E+00         0.00000E+00        -0.40228E+08
 
   -0.38047E+08         0.61005E+06         0.00000E+00
    0.61005E+06        -0.50106E+08         0.00000E+00
    0.00000E+00         0.00000E+00        -0.40228E+08
 
   -0.38164E+08         0.68200E+06         0.00000E+00
    0.68200E+06        -0.50130E+08         0.00000E+00
    0.00000E+00         0.00000E+00        -0.40227E+08
 
   -0.38274E+08         0.75505E+06         0.00000E+00
    0.75505E+06        -0.50156E+08         0.00000E+00
    0.00000E+00         0.00000E+00        -0.40227E+08
 
   -0.38378E+08         0.82943E+06         0.00000E+00
    0.82943E+06        -0.50183E+08         0.00000E+00
    0.00000E+00         0.00000E+00        -0.40226E+08
 
   -0.38475E+08         0.90536E+06         0.00000E+00
    0.90536E+06        -0.50212E+08         0.00000E+00
    0.00000E+00         0.00000E+00        -0.40226E+08
 
   -0.38567E+08         0.98301E+06         0.00000E+00
    0.98301E+06        -0.50242E+08         0.00000E+00
    0.00000E+00         0.00000E+00        -0.40225E+08
 
   -0.38652E+08         0.10626E+07         0.00000E+00
    0.10626E+07        -0.50273E+08         0.00000E+00
    0.00000E+00         0.00000E+00        -0.40224E+08
 
   -0.38733E+08         0.11442E+07         0.00000E+00
    0.11442E+07        -0.50306E+08         0.00000E+00
    0.00000E+00         0.00000E+00        -0.40224E+08
 
   -0.38808E+08         0.12280E+07         0.00000E+00
    0.12280E+07        -0.50338E+08         0.00000E+00
    0.00000E+00         0.00000E+00        -0.40223E+08
 
   -0.38879E+08         0.13141E+07         0.00000E+00
    0.13141E+07        -0.50372E+08         0.00000E+00
    0.00000E+00         0.00000E+00        -0.40222E+08
 
   -0.38945E+08         0.14027E+07         0.00000E+00
    0.14027E+07        -0.50406E+08         0.00000E+00
    0.00000E+00         0.00000E+00        -0.40222E+08
 
   -0.39008E+08         0.14937E+07         0.00000E+00
    0.14937E+07        -0.50440E+08         0.00000E+00
    0.00000E+00         0.00000E+00        -0.40221E+08
 
   -0.39066E+08         0.15874E+07         0.00000E+00
    0.15874E+07        -0.50474E+08         0.00000E+00
    0.00000E+00         0.00000E+00        -0.40220E+08
 
   -0.39122E+08         0.16837E+07         0.00000E+00
    0.16837E+07        -0.50508E+08         0.00000E+00
    0.00000E+00         0.00000E+00        -0.40220E+08
 
   -0.39174E+08         0.17827E+07         0.00000E+00
    0.17827E+07        -0.50542E+08         0.00000E+00
    0.00000E+00         0.00000E+00        -0.40219E+08
 
   -0.39223E+08         0.18845E+07         0.00000E+00
    0.18845E+07        -0.50575E+08         0.00000E+00
    0.00000E+00         0.00000E+00        -0.40218E+08
 
   -0.39269E+08         0.19891E+07         0.00000E+00
    0.19891E+07        -0.50608E+08         0.00000E+00
    0.00000E+00         0.00000E+00        -0.40218E+08
 
   -0.39313E+08         0.20964E+07         0.00000E+00
    0.20964E+07        -0.50640E+08         0.00000E+00
    0.00000E+00         0.00000E+00        -0.40217E+08
 
   -0.39356E+08         0.22065E+07         0.00000E+00
    0.22065E+07        -0.50671E+08         0.00000E+00
    0.00000E+00         0.00000E+00        -0.40216E+08
 
   -0.39396E+08         0.23195E+07         0.00000E+00
    0.23195E+07        -0.50701E+08         0.00000E+00
    0.00000E+00         0.00000E+00        -0.40216E+08
 
   -0.39435E+08         0.24352E+07         0.00000E+00
    0.24352E+07        -0.50730E+08         0.00000E+00
    0.00000E+00         0.00000E+00        -0.40215E+08
 
   -0.39472E+08         0.25536E+07         0.00000E+00
    0.25536E+07        -0.50757E+08         0.00000E+00
    0.00000E+00         0.00000E+00        -0.40215E+08
 
   -0.39508E+08         0.26748E+07         0.00000E+00
    0.26748E+07        -0.50783E+08         0.00000E+00
    0.00000E+00         0.00000E+00        -0.40214E+08
 
   -0.39543E+08         0.27987E+07         0.00000E+00
    0.27987E+07        -0.50808E+08         0.00000E+00
    0.00000E+00         0.00000E+00        -0.40213E+08
 
   -0.39578E+08         0.29252E+07         0.00000E+00
    0.29252E+07        -0.50831E+08         0.00000E+00
    0.00000E+00         0.00000E+00        -0.40213E+08
 
   -0.39612E+08         0.30542E+07         0.00000E+00
    0.30542E+07        -0.50852E+08         0.00000E+00
    0.00000E+00         0.00000E+00        -0.40212E+08
 
   -0.39645E+08         0.31859E+07         0.00000E+00
    0.31859E+07        -0.50871E+08         0.00000E+00
    0.00000E+00         0.00000E+00        -0.40212E+08
 
   -0.39679E+08         0.33200E+07         0.00000E+00
    0.33200E+07        -0.50888E+08         0.00000E+00
    0.00000E+00         0.00000E+00        -0.40211E+08
 
   -0.39712E+08         0.34565E+07         0.00000E+00
    0.34565E+07        -0.50903E+08         0.00000E+00
    0.00000E+00         0.00000E+00        -0.40211E+08
 
   -0.39745E+08         0.35954E+07         0.00000E+00
    0.35954E+07        -0.50916E+08         0.00000E+00
    0.00000E+00         0.00000E+00        -0.40210E+08
 
   -0.39779E+08         0.37366E+07         0.00000E+00
    0.37366E+07        -0.50927E+08         0.00000E+00
    0.00000E+00         0.00000E+00        -0.40210E+08
 
   -0.39812E+08         0.38800E+07         0.00000E+00
    0.38800E+07        -0.50935E+08         0.00000E+00
    0.00000E+00         0.00000E+00        -0.40209E+08
 
   -0.39846E+08         0.40257E+07         0.00000E+00
    0.40257E+07        -0.50941E+08         0.00000E+00
    0.00000E+00         0.00000E+00        -0.40209E+08
 
   -0.39881E+08         0.41735E+07         0.00000E+00
    0.41735E+07        -0.50945E+08         0.00000E+00
    0.00000E+00         0.00000E+00        -0.40208E+08
 
   -0.39916E+08         0.43235E+07         0.00000E+00
    0.43235E+07        -0.50946E+08         0.00000E+00
    0.00000E+00         0.00000E+00        -0.40208E+08
 
   -0.39951E+08         0.44755E+07         0.00000E+00
    0.44755E+07        -0.50944E+08         0.00000E+00
    0.00000E+00         0.00000E+00        -0.40208E+08
 
   -0.39988E+08         0.46297E+07         0.00000E+00
    0.46297E+07        -0.50940E+08         0.00000E+00
    0.00000E+00         0.00000E+00        -0.40207E+08
 
   -0.40025E+08         0.47859E+07         0.00000E+00
    0.47859E+07        -0.50933E+08         0.00000E+00
    0.00000E+00         0.00000E+00        -0.40207E+08
 
   -0.40063E+08         0.49441E+07         0.00000E+00
    0.49441E+07        -0.50923E+08         0.00000E+00
    0.00000E+00         0.00000E+00        -0.40207E+08
 
   -0.40103E+08         0.51042E+07         0.00000E+00
    0.51042E+07        -0.50911E+08         0.00000E+00
    0.00000E+00         0.00000E+00        -0.40207E+08
 
   -0.40143E+08         0.52663E+07         0.00000E+00
    0.52663E+07        -0.50895E+08         0.00000E+00
    0.00000E+00         0.00000E+00        -0.40206E+08
 
   -0.40185E+08         0.54305E+07         0.00000E+00
    0.54305E+07        -0.50877E+08         0.00000E+00
    0.00000E+00         0.00000E+00        -0.40206E+08
 
   -0.36490E+08         0.29667E+05         0.00000E+00
    0.29667E+05        -0.50001E+08         0.00000E+00
    0.00000E+00         0.00000E+00        -0.39385E+08
 
   -0.36681E+08         0.85380E+05         0.00000E+00
    0.85380E+05        -0.50006E+08         0.00000E+00
    0.00000E+00         0.00000E+00        -0.39385E+08
 
   -0.36860E+08         0.14044E+06         0.00000E+00
    0.14044E+06        -0.50014E+08         0.00000E+00
    0.00000E+00         0.00000E+00        -0.39385E+08
 
   -0.37028E+08         0.19529E+06         0.00000E+00
    0.19529E+06        -0.50026E+08         0.00000E+00
    0.00000E+00         0.00000E+00        -0.39384E+08
 
   -0.37186E+08         0.25035E+06         0.00000E+00
    0.25035E+06        -0.50042E+08         0.00000E+00
    0.00000E+00         0.00000E+00        -0.39384E+08
 
   -0.37333E+08         0.30599E+06         0.00000E+00
    0.30599E+06        -0.50061E+08         0.00000E+00
    0.00000E+00         0.00000E+00        -0.39383E+08
 
   -0.37470E+08         0.36259E+06         0.00000E+00
    0.36259E+06        -0.50083E+08         0.00000E+00
    0.00000E+00         0.00000E+00        -0.39382E+08
 
   -0.37597E+08         0.42045E+06         0.00000E+00
    0.42045E+06        -0.50109E+08         0.00000E+00
    0.00000E+00         0.00000E+00        -0.39381E+08
 
   -0.37716E+08         0.47988E+06         0.00000E+00
    0.47988E+06        -0.50137E+08         0.00000E+00
    0.00000E+00         0.00000E+00        -0.39380E+08
 
   -0.37826E+08         0.54116E+06         0.00000E+00
    0.54116E+06        -0.50167E+08         0.00000E+00
    0.00000E+00         0.00000E+00        -0.39379E+08
 
   -0.37928E+08         0.60453E+06         0.00000E+00
    0.60453E+06        -0.50200E+08         0.00000E+00
    0.00000E+00         0.00000E+00        -0.39377E+08
 
   -0.38022E+08         0.67023E+06         0.00000E+00
    0.67023E+06        -0.50234E+08         0.00000E+00
    0.00000E+00         0.00000E+00        -0.39376E+08
 
   -0.38109E+08         0.73845E+06         0.00000E+00
    0.73845E+06        -0.50271E+08         0.00000E+00
    0.00000E+00         0.00000E+00        -0.39375E+08
 
   -0.38188E+08         0.80939E+06         0.00000E+00
    0.80939E+06        -0.50309E+08         0.00000E+00
    0.00000E+00         0.00000E+00        -0.39373E+08
 
   -0.38262E+08         0.88321E+06         0.00000E+00
    0.88321E+06        -0.50348E+08         0.00000E+00
    0.00000E+00         0.00000E+00        -0.39372E+08
 
   -0.38329E+08         0.96005E+06         0.00000E+00
    0.96005E+06        -0.50389E+08         0.00000E+00
    0.00000E+00         0.00000E+00        -0.39370E+08
 
   -0.38391E+08         0.10400E+07         0.00000E+00
    0.10400E+07        -0.50431E+08         0.00000E+00
    0.00000E+00         0.00000E+00        -0.39369E+08
 
   -0.38448E+08         0.11233E+07         0.00000E+00
    0.11233E+07        -0.50473E+08         0.00000E+00
    0.00000E+00         0.00000E+00        -0.39367E+08
 
   -0.38500E+08         0.12099E+07         0.00000E+00
    0.12099E+07        -0.50516E+08         0.00000E+00
    0.00000E+00         0.00000E+00        -0.39366E+08
 
   -0.38547E+08         0.13000E+07         0.00000E+00
    0.13000E+07        -0.50560E+08         0.00000E+00
    0.00000E+00         0.00000E+00        -0.39364E+08
 
   -0.38590E+08         0.13935E+07         0.00000E+00
    0.13935E+07        -0.50603E+08         0.00000E+00
    0.00000E+00         0.00000E+00        -0.39363E+08
 
   -0.38630E+08         0.14906E+07         0.00000E+00
    0.14906E+07        -0.50647E+08         0.00000E+00
    0.00000E+00         0.00000E+00        -0.39361E+08
 
   -0.38666E+08         0.15913E+07         0.00000E+00
    0.15913E+07        -0.50690E+08         0.00000E+00
    0.00000E+00         0.00000E+00        -0.39360E+08
 
   -0.38700E+08         0.16955E+07         0.00000E+00
    0.16955E+07        -0.50733E+08         0.00000E+00
    0.00000E+00         0.00000E+00        -0.39358E+08
 
   -0.38730E+08         0.18034E+07         0.00000E+00
    0.18034E+07        -0.50775E+08         0.00000E+00
    0.00000E+00         0.00000E+00        -0.39357E+08
 
   -0.38758E+08         0.19149E+07         0.00000E+00
    0.19149E+07        -0.50817E+08         0.00000E+00
    0.00000E+00         0.00000E+00        -0.39356E+08
 
   -0.38785E+08         0.20300E+07         0.00000E+00
    0.20300E+07        -0.50858E+08         0.00000E+00
    0.00000E+00         0.00000E+00        -0.39354E+08
 
   -0.38809E+08         0.21486E+07         0.00000E+00
    0.21486E+07        -0.50897E+08         0.00000E+00
    0.00000E+00         0.00000E+00        -0.39353E+08
 
   -0.38832E+08         0.22708E+07         0.00000E+00
    0.22708E+07        -0.50936E+08         0.00000E+00
    0.00000E+00         0.00000E+00        -0.39352E+08
 
   -0.38854E+08         0.23964E+07         0.00000E+00
    0.23964E+07        -0.50972E+08         0.00000E+00
    0.00000E+00         0.00000E+00        -0.39350E+08
 
   -0.38875E+08         0.25255E+07         0.00000E+00
    0.25255E+07        -0.51008E+08         0.00000E+00
    0.00000E+00         0.00000E+00        -0.39349E+08
 
   -0.38896E+08         0.26578E+07         0.00000E+00
    0.26578E+07        -0.51042E+08         0.00000E+00
    0.00000E+00         0.00000E+00        -0.39348E+08
 
   -0.38916E+08         0.27935E+07         0.00000E+00
    0.27935E+07        -0.51073E+08         0.00000E+00
    0.00000E+00         0.00000E+00        -0.39347E+08
 
   -0.38935E+08         0.29323E+07         0.00000E+00
    0.29323E+07        -0.51103E+08         0.00000E+00
    0.00000E+00         0.00000E+00        -0.39346E+08
 
   -0.38955E+08         0.30742E+07         0.00000E+00
    0.30742E+07        -0.51131E+08         0.00000E+00
    0.00000E+00         0.00000E+00        -0.39345E+08
 
   -0.38975E+08         0.32191E+07         0.00000E+00
    0.32191E+07        -0.51157E+08         0.00000E+00
    0.00000E+00         0.00000E+00        -0.39344E+08
 
   -0.38995E+08         0.33669E+07         0.00000E+00
    0.33669E+07        -0.51180E+08         0.00000E+00
    0.00000E+00         0.00000E+00        -0.39343E+08
 
   -0.39016E+08         0.35175E+07         0.00000E+00
    0.35175E+07        -0.51201E+08         0.00000E+00
    0.00000E+00         0.00000E+00        -0.39342E+08
 
   -0.39037E+08         0.36707E+07         0.00000E+00
    0.36707E+07        -0.51219E+08         0.00000E+00
    0.00000E+00         0.00000E+00        -0.39341E+08
 
   -0.39058E+08         0.38266E+07         0.00000E+00
    0.38266E+07        -0.51235E+08         0.00000E+00
    0.00000E+00         0.00000E+00        -0.39340E+08
 
   -0.39081E+08         0.39849E+07         0.00000E+00
    0.39849E+07        -0.51248E+08         0.00000E+00
    0.00000E+00         0.00000E+00        -0.39339E+08
 
   -0.39104E+08         0.41457E+07         0.00000E+00
    0.41457E+07        -0.51258E+08         0.00000E+00
    0.00000E+00         0.00000E+00        -0.39339E+08
 
   -0.39127E+08         0.43088E+07         0.00000E+00
    0.43088E+07        -0.51266E+08         0.00000E+00
    0.00000E+00         0.00000E+00        -0.39338E+08
 
   -0.39152E+08         0.44743E+07         0.00000E+00
    0.44743E+07        -0.51271E+08         0.00000E+00
    0.00000E+00         0.00000E+00        -0.39337E+08
 
   -0.39177E+08         0.46420E+07         0.00000E+00
    0.46420E+07        -0.51273E+08         0.00000E+00
    0.00000E+00         0.00000E+00        -0.39337E+08
 
   -0.39203E+08         0.48122E+07         0.00000E+00
    0.48122E+07        -0.51272E+08         0.00000E+00
    0.00000E+00         0.00000E+00        -0.39336E+08
 
   -0.39231E+08         0.49849E+07         0.00000E+00
    0.49849E+07        -0.51269E+08         0.00000E+00
    0.00000E+00         0.00000E+00        -0.39336E+08
 
   -0.39259E+08         0.51601E+07         0.00000E+00
    0.51601E+07        -0.51262E+08         0.00000E+00
    0.00000E+00         0.00000E+00        -0.39336E+08
 
   -0.39289E+08         0.53377E+07         0.00000E+00
    0.53377E+07        -0.51253E+08         0.00000E+00
    0.00000E+00         0.00000E+00        -0.39336E+08
 
   -0.39320E+08         0.55170E+07         0.00000E+00
    0.55170E+07        -0.51239E+08         0.00000E+00
    0.00000E+00         0.00000E+00        -0.39335E+08
 
   -0.36266E+08         0.16489E+05         0.00000E+00
    0.16489E+05        -0.50002E+08         0.00000E+00
    0.00000E+00         0.00000E+00        -0.38454E+08
 
   -0.36458E+08         0.49178E+05         0.00000E+00
    0.49178E+05        -0.50007E+08         0.00000E+00
    0.00000E+00         0.00000E+00        -0.38454E+08
 
   -0.36636E+08         0.82456E+05         0.00000E+00
    0.82456E+05        -0.50018E+08         0.00000E+00
    0.00000E+00         0.00000E+00        -0.38453E+08
 
   -0.36802E+08         0.11678E+06         0.00000E+00
    0.11678E+06        -0.50033E+08         0.00000E+00
    0.00000E+00         0.00000E+00        -0.38452E+08
 
   -0.36954E+08         0.15257E+06         0.00000E+00
    0.15257E+06        -0.50052E+08         0.00000E+00
    0.00000E+00         0.00000E+00        -0.38451E+08
 
   -0.37094E+08         0.19021E+06         0.00000E+00
    0.19021E+06        -0.50076E+08         0.00000E+00
    0.00000E+00         0.00000E+00        -0.38450E+08
 
   -0.37223E+08         0.23005E+06         0.00000E+00
    0.23005E+06        -0.50103E+08         0.00000E+00
    0.00000E+00         0.00000E+00        -0.38448E+08
 
   -0.37340E+08         0.27241E+06         0.00000E+00
    0.27241E+06        -0.50134E+08         0.00000E+00
    0.00000E+00         0.00000E+00        -0.38447E+08
 
   -0.37447E+08         0.31758E+06         0.00000E+00
    0.31758E+06        -0.50168E+08         0.00000E+00
    0.00000E+00         0.00000E+00        -0.38445E+08
 
   -0.37544E+08         0.36583E+06         0.00000E+00
    0.36583E+06        -0.50205E+08         0.00000E+00
    0.00000E+00         0.00000E+00        -0.38443E+08
 
   -0.37632E+08         0.41739E+06         0.00000E+00
    0.41739E+06        -0.50245E+08         0.00000E+00
    0.00000E+00         0.00000E+00        -0.38441E+08
 
   -0.37711E+08         0.47246E+06         0.00000E+00
    0.47246E+06        -0.50288E+08         0.00000E+00
    0.00000E+00         0.00000E+00        -0.38439E+08
 
   -0.37782E+08         0.53124E+06         0.00000E+00
    0.53124E+06        -0.50332E+08         0.00000E+00
    0.00000E+00         0.00000E+00        -0.38437E+08
 
   -0.37845E+08         0.59390E+06         0.00000E+00
    0.59390E+06        -0.50379E+08         0.00000E+00
    0.00000E+00         0.00000E+00        -0.38434E+08
 
   -0.37901E+08         0.66057E+06         0.00000E+00
    0.66057E+06        -0.50427E+08         0.00000E+00
    0.00000E+00         0.00000E+00        -0.38432E+08
 
   -0.37951E+08         0.73139E+06         0.00000E+00
    0.73139E+06        -0.50476E+08         0.00000E+00
    0.00000E+00         0.00000E+00        -0.38430E+08
 
   -0.37994E+08         0.80646E+06         0.00000E+00
    0.80646E+06        -0.50527E+08         0.00000E+00
    0.00000E+00         0.00000E+00        -0.38427E+08
 
   -0.38031E+08         0.88587E+06         0.00000E+00
    0.88587E+06        -0.50579E+08         0.00000E+00
    0.00000E+00         0.00000E+00        -0.38425E+08
 
   -0.38063E+08         0.96970E+06         0.00000E+00
    0.96970E+06        -0.50631E+08         0.00000E+00
    0.00000E+00         0.00000E+00        -0.38423E+08
 
   -0.38091E+08         0.10580E+07         0.00000E+00
    0.10580E+07        -0.50684E+08         0.00000E+00
    0.00000E+00         0.00000E+00        -0.38420E+08
 
   -0.38114E+08         0.11508E+07         0.00000E+00
    0.11508E+07        -0.50738E+08         0.00000E+00
    0.00000E+00         0.00000E+00        -0.38418E+08
 
   -0.38134E+08         0.12482E+07         0.00000E+00
    0.12482E+07        -0.50791E+08         0.00000E+00
    0.00000E+00         0.00000E+00        -0.38416E+08
 
   -0.38150E+08         0.13501E+07         0.00000E+00
    0.13501E+07        -0.50845E+08         0.00000E+00
    0.00000E+00         0.00000E+00        -0.38413E+08
 
   -0.38162E+08         0.14565E+07         0.00000E+00
    0.14565E+07        -0.50898E+08         0.00000E+00
    0.00000E+00         0.00000E+00        -0.38411E+08
 
   -0.38173E+08         0.15676E+07         0.00000E+00
    0.15676E+07        -0.50951E+08         0.00000E+00
    0.00000E+00         0.00000E+00        -0.38409E+08
 
   -0.38181E+08         0.16831E+07         0.00000E+00
    0.16831E+07        -0.51003E+08         0.00000E+00
    0.00000E+00         0.00000E+00        -0.38407E+08
 
   -0.38187E+08         0.18031E+07         0.00000E+00
    0.18031E+07        -0.51054E+08         0.00000E+00
    0.00000E+00         0.00000E+00        -0.38405E+08
 
   -0.38192E+08         0.19276E+07         0.00000E+00
    0.19276E+07        -0.51104E+08         0.00000E+00
    0.00000E+00         0.00000E+00        -0.38403E+08
 
   -0.38195E+08         0.20564E+07         0.00000E+00
    0.20564E+07        -0.51153E+08         0.00000E+00
    0.00000E+00         0.00000E+00        -0.38401E+08
 
   -0.38198E+08         0.21895E+07         0.00000E+00
    0.21895E+07        -0.51200E+08         0.00000E+00
    0.00000E+00         0.00000E+00        -0.38399E+08
 
   -0.38200E+08         0.23268E+07         0.00000E+00
    0.23268E+07        -0.51246E+08         0.00000E+00
    0.00000E+00         0.00000E+00        -0.38397E+08
 
   -0.38202E+08         0.24682E+07         0.00000E+00
    0.24682E+07        -0.51291E+08         0.00000E+00
    0.00000E+00         0.00000E+00        -0.38396E+08
 
   -0.38205E+08         0.26137E+07         0.00000E+00
    0.26137E+07        -0.51333E+08         0.00000E+00
    0.00000E+00         0.00000E+00        -0.38394E+08
 
   -0.38207E+08         0.27630E+07         0.00000E+00
    0.27630E+07        -0.51373E+08         0.00000E+00
    0.00000E+00         0.00000E+00        -0.38393E+08
 
   -0.38210E+08         0.29161E+07         0.00000E+00
    0.29161E+07        -0.51411E+08         0.00000E+00
    0.00000E+00         0.00000E+00        -0.38391E+08
 
   -0.38214E+08         0.30728E+07         0.00000E+00
    0.30728E+07        -0.51447E+08         0.00000E+00
    0.00000E+00         0.00000E+00        -0.38390E+08
 
   -0.38218E+08         0.32329E+07         0.00000E+00
    0.32329E+07        -0.51480E+08         0.00000E+00
    0.00000E+00         0.00000E+00        -0.38389E+08
 
   -0.38224E+08         0.33964E+07         0.00000E+00
    0.33964E+07        -0.51511E+08         0.00000E+00
    0.00000E+00         0.00000E+00        -0.38387E+08
 
   -0.38230E+08         0.35630E+07         0.00000E+00
    0.35630E+07        -0.51539E+08         0.00000E+00
    0.00000E+00         0.00000E+00        -0.38386E+08
 
   -0.38238E+08         0.37326E+07         0.00000E+00
    0.37326E+07        -0.51564E+08         0.00000E+00
    0.00000E+00         0.00000E+00        -0.38385E+08
 
   -0.38248E+08         0.39051E+07         0.00000E+00
    0.39051E+07        -0.51586E+08         0.00000E+00
    0.00000E+00         0.00000E+00        -0.38384E+08
 
   -0.38258E+08         0.40803E+07         0.00000E+00
    0.40803E+07        -0.51605E+08         0.00000E+00
    0.00000E+00         0.00000E+00        -0.38383E+08
 
   -0.38270E+08         0.42580E+07         0.00000E+00
    0.42580E+07        -0.51621E+08         0.00000E+00
    0.00000E+00         0.00000E+00        -0.38383E+08
 
   -0.38282E+08         0.44383E+07         0.00000E+00
    0.44383E+07        -0.51634E+08         0.00000E+00
    0.00000E+00         0.00000E+00        -0.38382E+08
 
   -0.38296E+08         0.46208E+07         0.00000E+00
    0.46208E+07        -0.51644E+08         0.00000E+00
    0.00000E+00         0.00000E+00        -0.38381E+08
 
   -0.38310E+08         0.48052E+07         0.00000E+00
    0.48052E+07        -0.51650E+08         0.00000E+00
    0.00000E+00         0.00000E+00        -0.38381E+08
 
   -0.38325E+08         0.49918E+07         0.00000E+00
    0.49918E+07        -0.51653E+08         0.00000E+00
    0.00000E+00         0.00000E+00        -0.38380E+08
 
   -0.38339E+08         0.51808E+07         0.00000E+00
    0.51808E+07        -0.51655E+08         0.00000E+00
    0.00000E+00         0.00000E+00        -0.38380E+08
 
   -0.38354E+08         0.53735E+07         0.00000E+00
    0.53735E+07        -0.51654E+08         0.00000E+00
    0.00000E+00         0.00000E+00        -0.38380E+08
 
   -0.38370E+08         0.55727E+07         0.00000E+00
    0.55727E+07        -0.51650E+08         0.00000E+00
    0.00000E+00         0.00000E+00        -0.38379E+08
 
   -0.36172E+08         0.12906E+03         0.00000E+00
    0.12906E+03        -0.50002E+08         0.00000E+00
    0.00000E+00         0.00000E+00        -0.37428E+08
 
   -0.36359E+08         0.48106E+04         0.00000E+00
    0.48106E+04        -0.50009E+08         0.00000E+00
    0.00000E+00         0.00000E+00        -0.37427E+08
 
   -0.36529E+08         0.11772E+05         0.00000E+00
    0.11772E+05        -0.50021E+08         0.00000E+00
    0.00000E+00         0.00000E+00        -0.37427E+08
 
   -0.36684E+08         0.21449E+05         0.00000E+00
    0.21449E+05        -0.50039E+08         0.00000E+00
    0.00000E+00         0.00000E+00        -0.37425E+08
 
   -0.36824E+08         0.34233E+05         0.00000E+00
    0.34233E+05        -0.50062E+08         0.00000E+00
    0.00000E+00         0.00000E+00        -0.37424E+08
 
   -0.36950E+08         0.50478E+05         0.00000E+00
    0.50478E+05        -0.50090E+08         0.00000E+00
    0.00000E+00         0.00000E+00        -0.37422E+08
 
   -0.37063E+08         0.70503E+05         0.00000E+00
    0.70503E+05        -0.50123E+08         0.00000E+00
    0.00000E+00         0.00000E+00        -0.37420E+08
 
   -0.37164E+08         0.94591E+05         0.00000E+00
    0.94591E+05        -0.50159E+08         0.00000E+00
    0.00000E+00         0.00000E+00        -0.37418E+08
 
   -0.37253E+08         0.12300E+06         0.00000E+00
    0.12300E+06        -0.50199E+08         0.00000E+00
    0.00000E+00         0.00000E+00        -0.37415E+08
 
   -0.37330E+08         0.15594E+06         0.00000E+00
    0.15594E+06        -0.50243E+08         0.00000E+00
    0.00000E+00         0.00000E+00        -0.37412E+08
 
   -0.37398E+08         0.19363E+06         0.00000E+00
    0.19363E+06        -0.50290E+08         0.00000E+00
    0.00000E+00         0.00000E+00        -0.37410E+08
 
   -0.37455E+08         0.23622E+06         0.00000E+00
    0.23622E+06        -0.50339E+08         0.00000E+00
    0.00000E+00         0.00000E+00        -0.37407E+08
 
   -0.37504E+08         0.28387E+06         0.00000E+00
    0.28387E+06        -0.50392E+08         0.00000E+00
    0.00000E+00         0.00000E+00        -0.37404E+08
 
   -0.37544E+08         0.33671E+06         0.00000E+00
    0.33671E+06        -0.50446E+08         0.00000E+00
    0.00000E+00         0.00000E+00        -0.37400E+08
 
   -0.37577E+08         0.39484E+06         0.00000E+00
    0.39484E+06        -0.50502E+08         0.00000E+00
    0.00000E+00         0.00000E+00        -0.37397E+08
 
   -0.37602E+08         0.45836E+06         0.00000E+00
    0.45836E+06        -0.50560E+08         0.00000E+00
    0.00000E+00         0.00000E+00        -0.37394E+08
 
   -0.37621E+08         0.52733E+06         0.00000E+00
    0.52733E+06        -0.50620E+08         0.00000E+00
    0.00000E+00         0.00000E+00        -0.37391E+08
 
   -0.37634E+08         0.60181E+06         0.00000E+00
    0.60181E+06        -0.50680E+08         0.00000E+00
    0.00000E+00         0.00000E+00        -0.37388E+08
 
   -0.37641E+08         0.68184E+06         0.00000E+00
    0.68184E+06        -0.50742E+08         0.00000E+00
    0.00000E+00         0.00000E+00        -0.37384E+08
 
   -0.37643E+08         0.76745E+06         0.00000E+00
    0.76745E+06        -0.50805E+08         0.00000E+00
    0.00000E+00         0.00000E+00        -0.37381E+08
 
   -0.37641E+08         0.85866E+06         0.00000E+00
    0.85866E+06        -0.50868E+08         0.00000E+00
    0.00000E+00         0.00000E+00        -0.37378E+08
 
   -0.37636E+08         0.95546E+06         0.00000E+00
    0.95546E+06        -0.50931E+08         0.00000E+00
    0.00000E+00         0.00000E+00        -0.37375E+08
 
   -0.37626E+08         0.10578E+07         0.00000E+00
    0.10578E+07        -0.50994E+08         0.00000E+00
    0.00000E+00         0.00000E+00        -0.37372E+08
 
   -0.37614E+08         0.11658E+07         0.00000E+00
    0.11658E+07        -0.51058E+08         0.00000E+00
    0.00000E+00         0.00000E+00        -0.37369E+08
 
   -0.37599E+08         0.12792E+07         0.00000E+00
    0.12792E+07        -0.51121E+08         0.00000E+00
    0.00000E+00         0.00000E+00        -0.37366E+08
 
   -0.37583E+08         0.13982E+07         0.00000E+00
    0.13982E+07        -0.51183E+08         0.00000E+00
    0.00000E+00         0.00000E+00        -0.37364E+08
 
   -0.37564E+08         0.15226E+07         0.00000E+00
    0.15226E+07        -0.51245E+08         0.00000E+00
    0.00000E+00         0.00000E+00        -0.37361E+08
 
   -0.37545E+08         0.16523E+07         0.00000E+00
    0.16523E+07        -0.51306E+08         0.00000E+00
    0.00000E+00         0.00000E+00        -0.37358E+08
 
   -0.37524E+08         0.17872E+07         0.00000E+00
    0.17872E+07        -0.51366E+08         0.00000E+00
    0.00000E+00         0.00000E+00        -0.37356E+08
 
   -0.37504E+08         0.19274E+07         0.00000E+00
    0.19274E+07        -0.51425E+08         0.00000E+00
    0.00000E+00         0.00000E+00        -0.37354E+08
 
   -0.37483E+08         0.20726E+07         0.00000E+00
    0.20726E+07        -0.51482E+08         0.00000E+00
    0.00000E+00         0.00000E+00        -0.37352E+08
 
   -0.37463E+08         0.22227E+07         0.00000E+00
    0.22227E+07        -0.51538E+08         0.00000E+00
    0.00000E+00         0.00000E+00        -0.37349E+08
 
   -0.37443E+08         0.23777E+07         0.00000E+00
    0.23777E+07        -0.51592E+08         0.00000E+00
    0.00000E+00         0.00000E+00        -0.37348E+08
 
   -0.37425E+08         0.25374E+07         0.00000E+00
    0.25374E+07        -0.51645E+08         0.00000E+00
    0.00000E+00         0.00000E+00        -0.37346E+08
 
   -0.37408E+08         0.27015E+07         0.00000E+00
    0.27015E+07        -0.51695E+08         0.00000E+00
    0.00000E+00         0.00000E+00        -0.37344E+08
 
   -0.37392E+08         0.28699E+07         0.00000E+00
    0.28699E+07        -0.51743E+08         0.00000E+00
    0.00000E+00         0.00000E+00        -0.37343E+08
 
   -0.37378E+08         0.30425E+07         0.00000E+00
    0.30425E+07        -0.51789E+08         0.00000E+00
    0.00000E+00         0.00000E+00        -0.37341E+08
 
   -0.37365E+08         0.32192E+07         0.00000E+00
    0.32192E+07        -0.51833E+08         0.00000E+00
    0.00000E+00         0.00000E+00        -0.37340E+08
 
   -0.37355E+08         0.33996E+07         0.00000E+00
    0.33996E+07        -0.51873E+08         0.00000E+00
    0.00000E+00         0.00000E+00        -0.37339E+08
 
   -0.37348E+08         0.35838E+07         0.00000E+00
    0.35838E+07        -0.51912E+08         0.00000E+00
    0.00000E+00         0.00000E+00        -0.37338E+08
 
   -0.37342E+08         0.37711E+07         0.00000E+00
    0.37711E+07        -0.51947E+08         0.00000E+00
    0.00000E+00         0.00000E+00        -0.37337E+08
 
   -0.37339E+08         0.39611E+07         0.00000E+00
    0.39611E+07        -0.51979E+08         0.00000E+00
    0.00000E+00         0.00000E+00        -0.37336E+08
 
   -0.37337E+08         0.41539E+07         0.00000E+00
    0.41539E+07        -0.52009E+08         0.00000E+00
    0.00000E+00         0.00000E+00        -0.37335E+08
 
   -0.37336E+08         0.43493E+07         0.00000E+00
    0.43493E+07        -0.52037E+08         0.00000E+00
    0.00000E+00         0.00000E+00        -0.37335E+08
 
   -0.37336E+08         0.45478E+07         0.00000E+00
    0.45478E+07        -0.52063E+08         0.00000E+00
    0.00000E+00         0.00000E+00        -0.37334E+08
 
   -0.37337E+08         0.47508E+07         0.00000E+00
    0.47508E+07        -0.52085E+08         0.00000E+00
    0.00000E+00         0.00000E+00        -0.37334E+08
 
   -0.37340E+08         0.49567E+07         0.00000E+00
    0.49567E+07        -0.52102E+08         0.00000E+00
    0.00000E+00         0.00000E+00        -0.37333E+08
 
   -0.37344E+08         0.51643E+07         0.00000E+00
    0.51643E+07        -0.52110E+08         0.00000E+00
    0.00000E+00         0.00000E+00        -0.37333E+08
 
   -0.37347E+08         0.53708E+07         0.00000E+00
    0.53708E+07        -0.52113E+08         0.00000E+00
    0.00000E+00         0.00000E+00        -0.37333E+08
 
   -0.37340E+08         0.55688E+07         0.00000E+00
    0.55688E+07        -0.52116E+08         0.00000E+00
    0.00000E+00         0.00000E+00        -0.37333E+08
 
   -0.36236E+08        -0.19364E+05         0.00000E+00
   -0.19364E+05        -0.50002E+08         0.00000E+00
    0.00000E+00         0.00000E+00        -0.36298E+08
 
   -0.36407E+08        -0.47416E+05         0.00000E+00
   -0.47416E+05        -0.50010E+08         0.00000E+00
    0.00000E+00         0.00000E+00        -0.36298E+08
 
   -0.36560E+08        -0.70998E+05         0.00000E+00
   -0.70998E+05        -0.50024E+08         0.00000E+00
    0.00000E+00         0.00000E+00        -0.36297E+08
 
   -0.36695E+08        -0.89748E+05         0.00000E+00
   -0.89748E+05        -0.50045E+08         0.00000E+00
    0.00000E+00         0.00000E+00        -0.36295E+08
 
   -0.36814E+08        -0.10334E+06         0.00000E+00
   -0.10334E+06        -0.50071E+08         0.00000E+00
    0.00000E+00         0.00000E+00        -0.36293E+08
 
   -0.36917E+08        -0.11150E+06         0.00000E+00
   -0.11150E+06        -0.50103E+08         0.00000E+00
    0.00000E+00         0.00000E+00        -0.36291E+08
 
   -0.37006E+08        -0.11397E+06         0.00000E+00
   -0.11397E+06        -0.50140E+08         0.00000E+00
    0.00000E+00         0.00000E+00        -0.36288E+08
 
   -0.37081E+08        -0.11054E+06         0.00000E+00
   -0.11054E+06        -0.50181E+08         0.00000E+00
    0.00000E+00         0.00000E+00        -0.36285E+08
 
   -0.37144E+08        -0.10103E+06         0.00000E+00
   -0.10103E+06        -0.50227E+08         0.00000E+00
    0.00000E+00         0.00000E+00        -0.36282E+08
 
   -0.37194E+08        -0.85290E+05         0.00000E+00
   -0.85290E+05        -0.50276E+08         0.00000E+00
    0.00000E+00         0.00000E+00        -0.36279E+08
 
   -0.37233E+08        -0.63187E+05         0.00000E+00
   -0.63187E+05        -0.50328E+08         0.00000E+00
    0.00000E+00         0.00000E+00        -0.36275E+08
 
   -0.37263E+08        -0.34619E+05         0.00000E+00
   -0.34619E+05        -0.50384E+08         0.00000E+00
    0.00000E+00         0.00000E+00        -0.36271E+08
 
   -0.37282E+08         0.49776E+03         0.00000E+00
    0.49776E+03        -0.50443E+08         0.00000E+00
    0.00000E+00         0.00000E+00        -0.36267E+08
 
   -0.37293E+08         0.42227E+05         0.00000E+00
    0.42227E+05        -0.50503E+08         0.00000E+00
    0.00000E+00         0.00000E+00        -0.36263E+08
 
   -0.37295E+08         0.90615E+05         0.00000E+00
    0.90615E+05        -0.50566E+08         0.00000E+00
    0.00000E+00         0.00000E+00        -0.36259E+08
 
   -0.37290E+08         0.14569E+06         0.00000E+00
    0.14569E+06        -0.50631E+08         0.00000E+00
    0.00000E+00         0.00000E+00        -0.36255E+08
 
   -0.37279E+08         0.20747E+06         0.00000E+00
    0.20747E+06        -0.50698E+08         0.00000E+00
    0.00000E+00         0.00000E+00        -0.36251E+08
 
   -0.37261E+08         0.27597E+06         0.00000E+00
    0.27597E+06        -0.50766E+08         0.00000E+00
    0.00000E+00         0.00000E+00        -0.36247E+08
 
   -0.37238E+08         0.35116E+06         0.00000E+00
    0.35116E+06        -0.50835E+08         0.00000E+00
    0.00000E+00         0.00000E+00        -0.36244E+08
 
   -0.37209E+08         0.43304E+06         0.00000E+00
    0.43304E+06        -0.50906E+08         0.00000E+00
    0.00000E+00         0.00000E+00        -0.36240E+08
 
   -0.37177E+08         0.52157E+06         0.00000E+00
    0.52157E+06        -0.50976E+08         0.00000E+00
    0.00000E+00         0.00000E+00        -0.36236E+08
 
   -0.37141E+08         0.61673E+06         0.00000E+00
    0.61673E+06        -0.51048E+08         0.00000E+00
    0.00000E+00         0.00000E+00        -0.36232E+08
 
   -0.37101E+08         0.71846E+06         0.00000E+00
    0.71846E+06        -0.51120E+08         0.00000E+00
    0.00000E+00         0.00000E+00        -0.36228E+08
 
   -0.37059E+08         0.82671E+06         0.00000E+00
    0.82671E+06        -0.51192E+08         0.00000E+00
    0.00000E+00         0.00000E+00        -0.36225E+08
 
   -0.37014E+08         0.94141E+06         0.00000E+00
    0.94141E+06        -0.51264E+08         0.00000E+00
    0.00000E+00         0.00000E+00        -0.36222E+08
 
   -0.36968E+08         0.10625E+07         0.00000E+00
    0.10625E+07        -0.51335E+08         0.00000E+00
    0.00000E+00         0.00000E+00        -0.36218E+08
 
   -0.36921E+08         0.11899E+07         0.00000E+00
    0.11899E+07        -0.51407E+08         0.00000E+00
    0.00000E+00         0.00000E+00        -0.36215E+08
 
   -0.36873E+08         0.13235E+07         0.00000E+00
    0.13235E+07        -0.51478E+08         0.00000E+00
    0.00000E+00         0.00000E+00        -0.36212E+08
 
   -0.36824E+08         0.14632E+07         0.00000E+00
    0.14632E+07        -0.51548E+08         0.00000E+00
    0.00000E+00         0.00000E+00        -0.36210E+08
 
   -0.36776E+08         0.16089E+07         0.00000E+00
    0.16089E+07        -0.51617E+08         0.00000E+00
    0.00000E+00         0.00000E+00        -0.36207E+08
 
   -0.36729E+08         0.17605E+07         0.00000E+00
    0.17605E+07        -0.51686E+08         0.00000E+00
    0.00000E+00         0.00000E+00        -0.36205E+08
 
   -0.36682E+08         0.19178E+07         0.00000E+00
    0.19178E+07        -0.51753E+08         0.00000E+00
    0.00000E+00         0.00000E+00        -0.36202E+08
 
   -0.36637E+08         0.20806E+07         0.00000E+00
    0.20806E+07        -0.51819E+08         0.00000E+00
    0.00000E+00         0.00000E+00        -0.36200E+08
 
   -0.36594E+08         0.22488E+07         0.00000E+00
    0.22488E+07        -0.51884E+08         0.00000E+00
    0.00000E+00         0.00000E+00        -0.36198E+08
 
   -0.36553E+08         0.24222E+07         0.00000E+00
    0.24222E+07        -0.51947E+08         0.00000E+00
    0.00000E+00         0.00000E+00        -0.36197E+08
 
   -0.36515E+08         0.26007E+07         0.00000E+00
    0.26007E+07        -0.52008E+08         0.00000E+00
    0.00000E+00         0.00000E+00        -0.36195E+08
 
   -0.36479E+08         0.27838E+07         0.00000E+00
    0.27838E+07        -0.52068E+08         0.00000E+00
    0.00000E+00         0.00000E+00        -0.36194E+08
 
   -0.36447E+08         0.29709E+07         0.00000E+00
    0.29709E+07        -0.52125E+08         0.00000E+00
    0.00000E+00         0.00000E+00        -0.36193E+08
 
   -0.36418E+08         0.31619E+07         0.00000E+00
    0.31619E+07        -0.52182E+08         0.00000E+00
    0.00000E+00         0.00000E+00        -0.36192E+08
 
   -0.36392E+08         0.33565E+07         0.00000E+00
    0.33565E+07        -0.52237E+08         0.00000E+00
    0.00000E+00         0.00000E+00        -0.36191E+08
 
   -0.36368E+08         0.35555E+07         0.00000E+00
    0.35555E+07        -0.52292E+08         0.00000E+00
    0.00000E+00         0.00000E+00        -0.36191E+08
 
   -0.36349E+08         0.37598E+07         0.00000E+00
    0.37598E+07        -0.52345E+08         0.00000E+00
    0.00000E+00         0.00000E+00        -0.36190E+08
 
   -0.36335E+08         0.39670E+07         0.00000E+00
    0.39670E+07        -0.52391E+08         0.00000E+00
    0.00000E+00         0.00000E+00        -0.36190E+08
 
   -0.36326E+08         0.41769E+07         0.00000E+00
    0.41769E+07        -0.52432E+08         0.00000E+00
    0.00000E+00         0.00000E+00        -0.36190E+08
 
   -0.36324E+08         0.43844E+07         0.00000E+00
    0.43844E+07        -0.52471E+08         0.00000E+00
    0.00000E+00         0.00000E+00        -0.36189E+08
 
   -0.36321E+08         0.45835E+07         0.00000E+00
    0.45835E+07        -0.52512E+08         0.00000E+00
    0.00000E+00         0.00000E+00        -0.36189E+08
 
   -0.36309E+08         0.47818E+07         0.00000E+00
    0.47818E+07        -0.52570E+08         0.00000E+00
    0.00000E+00         0.00000E+00        -0.36190E+08
 
   -0.36286E+08         0.49850E+07         0.00000E+00
    0.49850E+07        -0.52661E+08         0.00000E+00
    0.00000E+00         0.00000E+00        -0.36190E+08
 
   -0.36307E+08         0.51737E+07         0.00000E+00
    0.51737E+07        -0.52743E+08         0.00000E+00
    0.00000E+00         0.00000E+00        -0.36246E+08
 
   -0.36345E+08         0.53558E+07         0.00000E+00
    0.53558E+07        -0.52824E+08         0.00000E+00
    0.00000E+00         0.00000E+00        -0.36325E+08
 
   -0.36480E+08        -0.41628E+05         0.00000E+00
   -0.41628E+05        -0.50003E+08         0.00000E+00
    0.00000E+00         0.00000E+00        -0.35058E+08
 
   -0.36623E+08        -0.10634E+06         0.00000E+00
   -0.10634E+06        -0.50011E+08         0.00000E+00
    0.00000E+00         0.00000E+00        -0.35057E+08
 
   -0.36746E+08        -0.16390E+06         0.00000E+00
   -0.16390E+06        -0.50027E+08         0.00000E+00
    0.00000E+00         0.00000E+00        -0.35056E+08
 
   -0.36851E+08        -0.21405E+06         0.00000E+00
   -0.21405E+06        -0.50050E+08         0.00000E+00
    0.00000E+00         0.00000E+00        -0.35054E+08
 
   -0.36937E+08        -0.25659E+06         0.00000E+00
   -0.25659E+06        -0.50078E+08         0.00000E+00
    0.00000E+00         0.00000E+00        -0.35051E+08
 
   -0.37007E+08        -0.29134E+06         0.00000E+00
   -0.29134E+06        -0.50113E+08         0.00000E+00
    0.00000E+00         0.00000E+00        -0.35049E+08
 
   -0.37061E+08        -0.31818E+06         0.00000E+00
   -0.31818E+06        -0.50153E+08         0.00000E+00
    0.00000E+00         0.00000E+00        -0.35045E+08
 
   -0.37102E+08        -0.33702E+06         0.00000E+00
   -0.33702E+06        -0.50197E+08         0.00000E+00
    0.00000E+00         0.00000E+00        -0.35042E+08
 
   -0.37128E+08        -0.34777E+06         0.00000E+00
   -0.34777E+06        -0.50246E+08         0.00000E+00
    0.00000E+00         0.00000E+00        -0.35038E+08
 
   -0.37143E+08        -0.35039E+06         0.00000E+00
   -0.35039E+06        -0.50299E+08         0.00000E+00
    0.00000E+00         0.00000E+00        -0.35034E+08
 
   -0.37146E+08        -0.34487E+06         0.00000E+00
   -0.34487E+06        -0.50355E+08         0.00000E+00
    0.00000E+00         0.00000E+00        -0.35030E+08
 
   -0.37138E+08        -0.33119E+06         0.00000E+00
   -0.33119E+06        -0.50415E+08         0.00000E+00
    0.00000E+00         0.00000E+00        -0.35025E+08
 
   -0.37121E+08        -0.30938E+06         0.00000E+00
   -0.30938E+06        -0.50477E+08         0.00000E+00
    0.00000E+00         0.00000E+00        -0.35021E+08
 
   -0.37095E+08        -0.27946E+06         0.00000E+00
   -0.27946E+06        -0.50542E+08         0.00000E+00
    0.00000E+00         0.00000E+00        -0.35016E+08
 
   -0.37061E+08        -0.24149E+06         0.00000E+00
   -0.24149E+06        -0.50609E+08         0.00000E+00
    0.00000E+00         0.00000E+00        -0.35011E+08
 
   -0.37020E+08        -0.19552E+06         0.00000E+00
   -0.19552E+06        -0.50678E+08         0.00000E+00
    0.00000E+00         0.00000E+00        -0.35007E+08
 
   -0.36971E+08        -0.14161E+06         0.00000E+00
   -0.14161E+06        -0.50749E+08         0.00000E+00
    0.00000E+00         0.00000E+00        -0.35002E+08
 
   -0.36917E+08        -0.79828E+05         0.00000E+00
   -0.79828E+05        -0.50821E+08         0.00000E+00
    0.00000E+00         0.00000E+00        -0.34997E+08
 
   -0.36858E+08        -0.10264E+05         0.00000E+00
   -0.10264E+05        -0.50895E+08         0.00000E+00
    0.00000E+00         0.00000E+00        -0.34993E+08
 
   -0.36794E+08         0.67005E+05         0.00000E+00
    0.67005E+05        -0.50969E+08         0.00000E+00
    0.00000E+00         0.00000E+00        -0.34989E+08
 
   -0.36726E+08         0.15189E+06         0.00000E+00
    0.15189E+06        -0.51045E+08         0.00000E+00
    0.00000E+00         0.00000E+00        -0.34984E+08
 
   -0.36654E+08         0.24431E+06         0.00000E+00
    0.24431E+06        -0.51121E+08         0.00000E+00
    0.00000E+00         0.00000E+00        -0.34980E+08
 
   -0.36580E+08         0.34417E+06         0.00000E+00
    0.34417E+06        -0.51198E+08         0.00000E+00
    0.00000E+00         0.00000E+00        -0.34976E+08
 
   -0.36503E+08         0.45138E+06         0.00000E+00
    0.45138E+06        -0.51275E+08         0.00000E+00
    0.00000E+00         0.00000E+00        -0.34972E+08
 
   -0.36425E+08         0.56583E+06         0.00000E+00
    0.56583E+06        -0.51353E+08         0.00000E+00
    0.00000E+00         0.00000E+00        -0.34968E+08
 
   -0.36345E+08         0.68745E+06         0.00000E+00
    0.68745E+06        -0.51430E+08         0.00000E+00
    0.00000E+00         0.00000E+00        -0.34965E+08
 
   -0.36264E+08         0.81613E+06         0.00000E+00
    0.81613E+06        -0.51508E+08         0.00000E+00
    0.00000E+00         0.00000E+00        -0.34961E+08
 
   -0.36184E+08         0.95176E+06         0.00000E+00
    0.95176E+06        -0.51585E+08         0.00000E+00
    0.00000E+00         0.00000E+00        -0.34958E+08
 
   -0.36104E+08         0.10942E+07         0.00000E+00
    0.10942E+07        -0.51662E+08         0.00000E+00
    0.00000E+00         0.00000E+00        -0.34955E+08
 
   -0.36024E+08         0.12433E+07         0.00000E+00
    0.12433E+07        -0.51739E+08         0.00000E+00
    0.00000E+00         0.00000E+00        -0.34953E+08
 
   -0.35946E+08         0.13989E+07         0.00000E+00
    0.13989E+07        -0.51815E+08         0.00000E+00
    0.00000E+00         0.00000E+00        -0.34950E+08
 
   -0.35870E+08         0.15610E+07         0.00000E+00
    0.15610E+07        -0.51891E+08         0.00000E+00
    0.00000E+00         0.00000E+00        -0.34948E+08
 
   -0.35796E+08         0.17295E+07         0.00000E+00
    0.17295E+07        -0.51966E+08         0.00000E+00
    0.00000E+00         0.00000E+00        -0.34946E+08
 
   -0.35726E+08         0.19038E+07         0.00000E+00
    0.19038E+07        -0.52039E+08         0.00000E+00
    0.00000E+00         0.00000E+00        -0.34945E+08
 
   -0.35659E+08         0.20833E+07         0.00000E+00
    0.20833E+07        -0.52111E+08         0.00000E+00
    0.00000E+00         0.00000E+00        -0.34943E+08
 
   -0.35595E+08         0.22677E+07         0.00000E+00
    0.22677E+07        -0.52184E+08         0.00000E+00
    0.00000E+00         0.00000E+00        -0.34942E+08
 
   -0.35535E+08         0.24578E+07         0.00000E+00
    0.24578E+07        -0.52256E+08         0.00000E+00
    0.00000E+00         0.00000E+00        -0.34941E+08
 
   -0.35480E+08         0.26543E+07         0.00000E+00
    0.26543E+07        -0.52327E+08         0.00000E+00
    0.00000E+00         0.00000E+00        -0.34940E+08
 
   -0.35432E+08         0.28559E+07         0.00000E+00
    0.28559E+07        -0.52393E+08         0.00000E+00
    0.00000E+00         0.00000E+00        -0.34940E+08
 
   -0.35394E+08         0.30615E+07         0.00000E+00
    0.30615E+07        -0.52452E+08         0.00000E+00
    0.00000E+00         0.00000E+00        -0.34940E+08
 
   -0.35363E+08         0.32648E+07         0.00000E+00
    0.32648E+07        -0.52509E+08         0.00000E+00
    0.00000E+00         0.00000E+00        -0.34940E+08
 
   -0.35336E+08         0.34610E+07         0.00000E+00
    0.34610E+07        -0.52566E+08         0.00000E+00
    0.00000E+00         0.00000E+00        -0.34940E+08
 
   -0.35307E+08         0.36583E+07         0.00000E+00
    0.36583E+07        -0.52648E+08         0.00000E+00
    0.00000E+00         0.00000E+00        -0.34940E+08
 
   -0.35272E+08         0.38558E+07         0.00000E+00
    0.38558E+07        -0.52752E+08         0.00000E+00
    0.00000E+00         0.00000E+00        -0.34943E+08
 
   -0.35289E+08         0.40433E+07         0.00000E+00
    0.40433E+07        -0.52842E+08         0.00000E+00
    0.00000E+00         0.00000E+00        -0.35010E+08
 
   -0.35311E+08         0.42302E+07         0.00000E+00
    0.42302E+07        -0.52931E+08         0.00000E+00
    0.00000E+00         0.00000E+00        -0.35084E+08
 
   -0.35358E+08         0.44074E+07         0.00000E+00
    0.44074E+07        -0.53010E+08         0.00000E+00
    0.00000E+00         0.00000E+00        -0.35187E+08
 
   -0.35456E+08         0.45616E+07         0.00000E+00
    0.45616E+07        -0.53069E+08         0.00000E+00
    0.00000E+00         0.00000E+00        -0.35342E+08
 
   -0.35573E+08         0.47110E+07         0.00000E+00
    0.47110E+07        -0.53155E+08         0.00000E+00
    0.00000E+00         0.00000E+00        -0.35512E+08
 
   -0.35698E+08         0.48476E+07         0.00000E+00
    0.48476E+07        -0.53255E+08         0.00000E+00
    0.00000E+00         0.00000E+00        -0.35681E+08
 
   -0.36922E+08        -0.65950E+05         0.00000E+00
   -0.65950E+05        -0.50003E+08         0.00000E+00
    0.00000E+00         0.00000E+00        -0.33699E+08
 
   -0.37023E+08        -0.16995E+06         0.00000E+00
   -0.16995E+06        -0.50012E+08         0.00000E+00
    0.00000E+00         0.00000E+00        -0.33698E+08
 
   -0.37102E+08        -0.26357E+06         0.00000E+00
   -0.26357E+06        -0.50028E+08         0.00000E+00
    0.00000E+00         0.00000E+00        -0.33697E+08
 
   -0.37161E+08        -0.34678E+06         0.00000E+00
   -0.34678E+06        -0.50052E+08         0.00000E+00
    0.00000E+00         0.00000E+00        -0.33694E+08
 
   -0.37202E+08        -0.41952E+06         0.00000E+00
   -0.41952E+06        -0.50082E+08         0.00000E+00
    0.00000E+00         0.00000E+00        -0.33692E+08
 
   -0.37226E+08        -0.48179E+06         0.00000E+00
   -0.48179E+06        -0.50118E+08         0.00000E+00
    0.00000E+00         0.00000E+00        -0.33688E+08
 
   -0.37235E+08        -0.53362E+06         0.00000E+00
   -0.53362E+06        -0.50159E+08         0.00000E+00
    0.00000E+00         0.00000E+00        -0.33685E+08
 
   -0.37229E+08        -0.57508E+06         0.00000E+00
   -0.57508E+06        -0.50205E+08         0.00000E+00
    0.00000E+00         0.00000E+00        -0.33681E+08
 
   -0.37210E+08        -0.60623E+06         0.00000E+00
   -0.60623E+06        -0.50254E+08         0.00000E+00
    0.00000E+00         0.00000E+00        -0.33676E+08
 
   -0.37179E+08        -0.62718E+06         0.00000E+00
   -0.62718E+06        -0.50308E+08         0.00000E+00
    0.00000E+00         0.00000E+00        -0.33672E+08
 
   -0.37137E+08        -0.63807E+06         0.00000E+00
   -0.63807E+06        -0.50365E+08         0.00000E+00
    0.00000E+00         0.00000E+00        -0.33667E+08
 
   -0.37085E+08        -0.63903E+06         0.00000E+00
   -0.63903E+06        -0.50425E+08         0.00000E+00
    0.00000E+00         0.00000E+00        -0.33662E+08
 
   -0.37023E+08        -0.63021E+06         0.00000E+00
   -0.63021E+06        -0.50488E+08         0.00000E+00
    0.00000E+00         0.00000E+00        -0.33657E+08
 
   -0.36953E+08        -0.61179E+06         0.00000E+00
   -0.61179E+06        -0.50553E+08         0.00000E+00
    0.00000E+00         0.00000E+00        -0.33652E+08
 
   -0.36875E+08        -0.58392E+06         0.00000E+00
   -0.58392E+06        -0.50620E+08         0.00000E+00
    0.00000E+00         0.00000E+00        -0.33647E+08
 
   -0.36791E+08        -0.54679E+06         0.00000E+00
   -0.54679E+06        -0.50689E+08         0.00000E+00
    0.00000E+00         0.00000E+00        -0.33642E+08
 
   -0.36701E+08        -0.50058E+06         0.00000E+00
   -0.50058E+06        -0.50759E+08         0.00000E+00
    0.00000E+00         0.00000E+00        -0.33637E+08
 
   -0.36605E+08        -0.44545E+06         0.00000E+00
   -0.44545E+06        -0.50831E+08         0.00000E+00
    0.00000E+00         0.00000E+00        -0.33632E+08
 
   -0.36505E+08        -0.38160E+06         0.00000E+00
   -0.38160E+06        -0.50904E+08         0.00000E+00
    0.00000E+00         0.00000E+00        -0.33627E+08
 
   -0.36400E+08        -0.30919E+06         0.00000E+00
   -0.30919E+06        -0.50978E+08         0.00000E+00
    0.00000E+00         0.00000E+00        -0.33623E+08
 
   -0.36292E+08        -0.22838E+06         0.00000E+00
   -0.22838E+06        -0.51052E+08         0.00000E+00
    0.00000E+00         0.00000E+00        -0.33618E+08
 
   -0.36182E+08        -0.13932E+06         0.00000E+00
   -0.13932E+06        -0.51128E+08         0.00000E+00
    0.00000E+00         0.00000E+00        -0.33614E+08
 
   -0.36069E+08        -0.42164E+05         0.00000E+00
   -0.42164E+05        -0.51204E+08         0.00000E+00
    0.00000E+00         0.00000E+00        -0.33609E+08
 
   -0.35954E+08         0.62961E+05         0.00000E+00
    0.62961E+05        -0.51281E+08         0.00000E+00
    0.00000E+00         0.00000E+00        -0.33605E+08
 
   -0.35838E+08         0.17591E+06         0.00000E+00
    0.17591E+06        -0.51358E+08         0.00000E+00
    0.00000E+00         0.00000E+00        -0.33602E+08
 
   -0.35721E+08         0.29654E+06         0.00000E+00
    0.29654E+06        -0.51435E+08         0.00000E+00
    0.00000E+00         0.00000E+00        -0.33598E+08
 
   -0.35605E+08         0.42474E+06         0.00000E+00
    0.42474E+06        -0.51513E+08         0.00000E+00
    0.00000E+00         0.00000E+00        -0.33595E+08
 
   -0.35488E+08         0.56043E+06         0.00000E+00
    0.56043E+06        -0.51590E+08         0.00000E+00
    0.00000E+00         0.00000E+00        -0.33592E+08
 
   -0.35372E+08         0.70363E+06         0.00000E+00
    0.70363E+06        -0.51669E+08         0.00000E+00
    0.00000E+00         0.00000E+00        -0.33589E+08
 
   -0.35259E+08         0.85425E+06         0.00000E+00
    0.85425E+06        -0.51747E+08         0.00000E+00
    0.00000E+00         0.00000E+00        -0.33586E+08
 
   -0.35147E+08         0.10119E+07         0.00000E+00
    0.10119E+07        -0.51824E+08         0.00000E+00
    0.00000E+00         0.00000E+00        -0.33584E+08
 
   -0.35038E+08         0.11762E+07         0.00000E+00
    0.11762E+07        -0.51901E+08         0.00000E+00
    0.00000E+00         0.00000E+00        -0.33582E+08
 
   -0.34932E+08         0.13468E+07         0.00000E+00
    0.13468E+07        -0.51979E+08         0.00000E+00
    0.00000E+00         0.00000E+00        -0.33581E+08
 
   -0.34829E+08         0.15251E+07         0.00000E+00
    0.15251E+07        -0.52057E+08         0.00000E+00
    0.00000E+00         0.00000E+00        -0.33580E+08
 
   -0.34732E+08         0.17120E+07         0.00000E+00
    0.17120E+07        -0.52135E+08         0.00000E+00
    0.00000E+00         0.00000E+00        -0.33579E+08
 
   -0.34643E+08         0.19062E+07         0.00000E+00
    0.19062E+07        -0.52204E+08         0.00000E+00
    0.00000E+00         0.00000E+00        -0.33578E+08
 
   -0.34564E+08         0.21031E+07         0.00000E+00
    0.21031E+07        -0.52270E+08         0.00000E+00
    0.00000E+00         0.00000E+00        -0.33578E+08
 
   -0.34492E+08         0.22966E+07         0.00000E+00
    0.22966E+07        -0.52334E+08         0.00000E+00
    0.00000E+00         0.00000E+00        -0.33578E+08
 
   -0.34419E+08         0.24911E+07         0.00000E+00
    0.24911E+07        -0.52417E+08         0.00000E+00
    0.00000E+00         0.00000E+00        -0.33578E+08
 
   -0.34345E+08         0.26882E+07         0.00000E+00
    0.26882E+07        -0.52525E+08         0.00000E+00
    0.00000E+00         0.00000E+00        -0.33584E+08
 
   -0.34324E+08         0.28824E+07         0.00000E+00
    0.28824E+07        -0.52615E+08         0.00000E+00
    0.00000E+00         0.00000E+00        -0.33657E+08
 
   -0.34302E+08         0.30814E+07         0.00000E+00
    0.30814E+07        -0.52704E+08         0.00000E+00
    0.00000E+00         0.00000E+00        -0.33735E+08
 
   -0.34319E+08         0.32747E+07         0.00000E+00
    0.32747E+07        -0.52772E+08         0.00000E+00
    0.00000E+00         0.00000E+00        -0.33859E+08
 
   -0.34371E+08         0.34560E+07         0.00000E+00
    0.34560E+07        -0.52824E+08         0.00000E+00
    0.00000E+00         0.00000E+00        -0.34023E+08
 
   -0.34445E+08         0.36371E+07         0.00000E+00
    0.36371E+07        -0.52902E+08         0.00000E+00
    0.00000E+00         0.00000E+00        -0.34205E+08
 
   -0.34526E+08         0.38063E+07         0.00000E+00
    0.38063E+07        -0.52984E+08         0.00000E+00
    0.00000E+00         0.00000E+00        -0.34385E+08
 
   -0.34620E+08         0.39637E+07         0.00000E+00
    0.39637E+07        -0.53071E+08         0.00000E+00
    0.00000E+00         0.00000E+00        -0.34554E+08
 
   -0.34730E+08         0.41173E+07         0.00000E+00
    0.41173E+07        -0.53161E+08         0.00000E+00
    0.00000E+00         0.00000E+00        -0.34712E+08
 
   -0.34849E+08         0.42678E+07         0.00000E+00
    0.42678E+07        -0.53243E+08         0.00000E+00
    0.00000E+00         0.00000E+00        -0.34854E+08
 
   -0.34980E+08         0.44204E+07         0.00000E+00
    0.44204E+07        -0.53319E+08         0.00000E+00
    0.00000E+00         0.00000E+00        -0.34984E+08
 
   -0.37573E+08        -0.91412E+05         0.00000E+00
   -0.91412E+05        -0.50003E+08         0.00000E+00
    0.00000E+00         0.00000E+00        -0.32217E+08
 
   -0.37612E+08        -0.23535E+06         0.00000E+00
   -0.23535E+06        -0.50012E+08         0.00000E+00
    0.00000E+00         0.00000E+00        -0.32216E+08
 
   -0.37630E+08        -0.36538E+06         0.00000E+00
   -0.36538E+06        -0.50028E+08         0.00000E+00
    0.00000E+00         0.00000E+00        -0.32214E+08
 
   -0.37629E+08        -0.48154E+06         0.00000E+00
   -0.48154E+06        -0.50052E+08         0.00000E+00
    0.00000E+00         0.00000E+00        -0.32212E+08
 
   -0.37611E+08        -0.58399E+06         0.00000E+00
   -0.58399E+06        -0.50081E+08         0.00000E+00
    0.00000E+00         0.00000E+00        -0.32209E+08
 
   -0.37576E+08        -0.67295E+06         0.00000E+00
   -0.67295E+06        -0.50116E+08         0.00000E+00
    0.00000E+00         0.00000E+00        -0.32205E+08
 
   -0.37525E+08        -0.74865E+06         0.00000E+00
   -0.74865E+06        -0.50156E+08         0.00000E+00
    0.00000E+00         0.00000E+00        -0.32201E+08
 
   -0.37462E+08        -0.81137E+06         0.00000E+00
   -0.81137E+06        -0.50200E+08         0.00000E+00
    0.00000E+00         0.00000E+00        -0.32197E+08
 
   -0.37386E+08        -0.86139E+06         0.00000E+00
   -0.86139E+06        -0.50248E+08         0.00000E+00
    0.00000E+00         0.00000E+00        -0.32193E+08
 
   -0.37299E+08        -0.89900E+06         0.00000E+00
   -0.89900E+06        -0.50299E+08         0.00000E+00
    0.00000E+00         0.00000E+00        -0.32188E+08
 
   -0.37202E+08        -0.92452E+06         0.00000E+00
   -0.92452E+06        -0.50353E+08         0.00000E+00
    0.00000E+00         0.00000E+00        -0.32183E+08
 
   -0.37096E+08        -0.93828E+06         0.00000E+00
   -0.93828E+06        -0.50409E+08         0.00000E+00
    0.00000E+00         0.00000E+00        -0.32178E+08
 
   -0.36982E+08        -0.94062E+06         0.00000E+00
   -0.94062E+06        -0.50468E+08         0.00000E+00
    0.00000E+00         0.00000E+00        -0.32173E+08
 
   -0.36861E+08        -0.93187E+06         0.00000E+00
   -0.93187E+06        -0.50528E+08         0.00000E+00
    0.00000E+00         0.00000E+00        -0.32168E+08
 
   -0.36733E+08        -0.91237E+06         0.00000E+00
   -0.91237E+06        -0.50589E+08         0.00000E+00
    0.00000E+00         0.00000E+00        -0.32163E+08
 
   -0.36600E+08        -0.88244E+06         0.00000E+00
   -0.88244E+06        -0.50652E+08         0.00000E+00
    0.00000E+00         0.00000E+00        -0.32158E+08
 
   -0.36463E+08        -0.84242E+06         0.00000E+00
   -0.84242E+06        -0.50716E+08         0.00000E+00
    0.00000E+00         0.00000E+00        -0.32153E+08
 
   -0.36321E+08        -0.79262E+06         0.00000E+00
   -0.79262E+06        -0.50781E+08         0.00000E+00
    0.00000E+00         0.00000E+00        -0.32148E+08
 
   -0.36176E+08        -0.73335E+06         0.00000E+00
   -0.73335E+06        -0.50847E+08         0.00000E+00
    0.00000E+00         0.00000E+00        -0.32143E+08
 
   -0.36027E+08        -0.66491E+06         0.00000E+00
   -0.66491E+06        -0.50913E+08         0.00000E+00
    0.00000E+00         0.00000E+00        -0.32138E+08
 
   -0.35877E+08        -0.58756E+06         0.00000E+00
   -0.58756E+06        -0.50980E+08         0.00000E+00
    0.00000E+00         0.00000E+00        -0.32134E+08
 
   -0.35724E+08        -0.50158E+06         0.00000E+00
   -0.50158E+06        -0.51048E+08         0.00000E+00
    0.00000E+00         0.00000E+00        -0.32130E+08
 
   -0.35570E+08        -0.40718E+06         0.00000E+00
   -0.40718E+06        -0.51116E+08         0.00000E+00
    0.00000E+00         0.00000E+00        -0.32126E+08
 
   -0.35415E+08        -0.30453E+06         0.00000E+00
   -0.30453E+06        -0.51184E+08         0.00000E+00
    0.00000E+00         0.00000E+00        -0.32122E+08
 
   -0.35260E+08        -0.19372E+06         0.00000E+00
   -0.19372E+06        -0.51253E+08         0.00000E+00
    0.00000E+00         0.00000E+00        -0.32118E+08
 
   -0.35104E+08        -0.74857E+05         0.00000E+00
   -0.74857E+05        -0.51322E+08         0.00000E+00
    0.00000E+00         0.00000E+00        -0.32115E+08
 
   -0.34949E+08         0.51922E+05         0.00000E+00
    0.51922E+05        -0.51392E+08         0.00000E+00
    0.00000E+00         0.00000E+00        -0.32112E+08
 
   -0.34794E+08         0.18639E+06         0.00000E+00
    0.18639E+06        -0.51462E+08         0.00000E+00
    0.00000E+00         0.00000E+00        -0.32110E+08
 
   -0.34641E+08         0.32810E+06         0.00000E+00
    0.32810E+06        -0.51532E+08         0.00000E+00
    0.00000E+00         0.00000E+00        -0.32107E+08
 
   -0.34489E+08         0.47733E+06         0.00000E+00
    0.47733E+06        -0.51603E+08         0.00000E+00
    0.00000E+00         0.00000E+00        -0.32105E+08
 
   -0.34339E+08         0.63521E+06         0.00000E+00
    0.63521E+06        -0.51675E+08         0.00000E+00
    0.00000E+00         0.00000E+00        -0.32104E+08
 
   -0.34193E+08         0.80267E+06         0.00000E+00
    0.80267E+06        -0.51748E+08         0.00000E+00
    0.00000E+00         0.00000E+00        -0.32102E+08
 
   -0.34054E+08         0.97886E+06         0.00000E+00
    0.97886E+06        -0.51815E+08         0.00000E+00
    0.00000E+00         0.00000E+00        -0.32102E+08
 
   -0.33921E+08         0.11580E+07         0.00000E+00
    0.11580E+07        -0.51879E+08         0.00000E+00
    0.00000E+00         0.00000E+00        -0.32101E+08
 
   -0.33789E+08         0.13372E+07         0.00000E+00
    0.13372E+07        -0.51942E+08         0.00000E+00
    0.00000E+00         0.00000E+00        -0.32101E+08
 
   -0.33653E+08         0.15215E+07         0.00000E+00
    0.15215E+07        -0.52038E+08         0.00000E+00
    0.00000E+00         0.00000E+00        -0.32101E+08
 
   -0.33558E+08         0.17094E+07         0.00000E+00
    0.17094E+07        -0.52128E+08         0.00000E+00
    0.00000E+00         0.00000E+00        -0.32163E+08
 
   -0.33470E+08         0.19057E+07         0.00000E+00
    0.19057E+07        -0.52214E+08         0.00000E+00
    0.00000E+00         0.00000E+00        -0.32242E+08
 
   -0.33409E+08         0.21055E+07         0.00000E+00
    0.21055E+07        -0.52283E+08         0.00000E+00
    0.00000E+00         0.00000E+00        -0.32364E+08
 
   -0.33393E+08         0.23006E+07         0.00000E+00
    0.23006E+07        -0.52333E+08         0.00000E+00
    0.00000E+00         0.00000E+00        -0.32539E+08
 
   -0.33399E+08         0.24970E+07         0.00000E+00
    0.24970E+07        -0.52409E+08         0.00000E+00
    0.00000E+00         0.00000E+00        -0.32737E+08
 
   -0.33417E+08         0.26848E+07         0.00000E+00
    0.26848E+07        -0.52488E+08         0.00000E+00
    0.00000E+00         0.00000E+00        -0.32933E+08
 
   -0.33453E+08         0.28652E+07         0.00000E+00
    0.28652E+07        -0.52572E+08         0.00000E+00
    0.00000E+00         0.00000E+00        -0.33122E+08
 
   -0.33510E+08         0.30433E+07         0.00000E+00
    0.30433E+07        -0.52659E+08         0.00000E+00
    0.00000E+00         0.00000E+00        -0.33303E+08
 
   -0.33583E+08         0.32192E+07         0.00000E+00
    0.32192E+07        -0.52742E+08         0.00000E+00
    0.00000E+00         0.00000E+00        -0.33469E+08
 
   -0.33672E+08         0.33976E+07         0.00000E+00
    0.33976E+07        -0.52821E+08         0.00000E+00
    0.00000E+00         0.00000E+00        -0.33624E+08
 
   -0.33774E+08         0.35790E+07         0.00000E+00
    0.35790E+07        -0.52894E+08         0.00000E+00
    0.00000E+00         0.00000E+00        -0.33768E+08
 
   -0.33884E+08         0.37616E+07         0.00000E+00
    0.37616E+07        -0.52959E+08         0.00000E+00
    0.00000E+00         0.00000E+00        -0.33903E+08
 
   -0.34004E+08         0.39464E+07         0.00000E+00
    0.39464E+07        -0.53016E+08         0.00000E+00
    0.00000E+00         0.00000E+00        -0.34028E+08
 
   -0.34132E+08         0.41317E+07         0.00000E+00
    0.41317E+07        -0.53066E+08         0.00000E+00
    0.00000E+00         0.00000E+00        -0.34144E+08
 
   -0.38431E+08        -0.11665E+06         0.00000E+00
   -0.11665E+06        -0.50002E+08         0.00000E+00
    0.00000E+00         0.00000E+00        -0.30608E+08
 
   -0.38390E+08        -0.29948E+06         0.00000E+00
   -0.29948E+06        -0.50011E+08         0.00000E+00
    0.00000E+00         0.00000E+00        -0.30608E+08
 
   -0.38328E+08        -0.46390E+06         0.00000E+00
   -0.46390E+06        -0.50027E+08         0.00000E+00
    0.00000E+00         0.00000E+00        -0.30606E+08
 
   -0.38249E+08        -0.61057E+06         0.00000E+00
   -0.61057E+06        -0.50049E+08         0.00000E+00
    0.00000E+00         0.00000E+00        -0.30604E+08
 
   -0.38154E+08        -0.74000E+06         0.00000E+00
   -0.74000E+06        -0.50076E+08         0.00000E+00
    0.00000E+00         0.00000E+00        -0.30601E+08
 
   -0.38044E+08        -0.85264E+06         0.00000E+00
   -0.85264E+06        -0.50108E+08         0.00000E+00
    0.00000E+00         0.00000E+00        -0.30597E+08
 
   -0.37921E+08        -0.94899E+06         0.00000E+00
   -0.94899E+06        -0.50143E+08         0.00000E+00
    0.00000E+00         0.00000E+00        -0.30593E+08
 
   -0.37787E+08        -0.10295E+07         0.00000E+00
   -0.10295E+07        -0.50182E+08         0.00000E+00
    0.00000E+00         0.00000E+00        -0.30589E+08
 
   -0.37642E+08        -0.10949E+07         0.00000E+00
   -0.10949E+07        -0.50224E+08         0.00000E+00
    0.00000E+00         0.00000E+00        -0.30585E+08
 
   -0.37489E+08        -0.11454E+07         0.00000E+00
   -0.11454E+07        -0.50269E+08         0.00000E+00
    0.00000E+00         0.00000E+00        -0.30581E+08
 
   -0.37327E+08        -0.11819E+07         0.00000E+00
   -0.11819E+07        -0.50315E+08         0.00000E+00
    0.00000E+00         0.00000E+00        -0.30576E+08
 
   -0.37159E+08        -0.12047E+07         0.00000E+00
   -0.12047E+07        -0.50362E+08         0.00000E+00
    0.00000E+00         0.00000E+00        -0.30571E+08
 
   -0.36985E+08        -0.12144E+07         0.00000E+00
   -0.12144E+07        -0.50411E+08         0.00000E+00
    0.00000E+00         0.00000E+00        -0.30567E+08
 
   -0.36806E+08        -0.12117E+07         0.00000E+00
   -0.12117E+07        -0.50460E+08         0.00000E+00
    0.00000E+00         0.00000E+00        -0.30562E+08
 
   -0.36622E+08        -0.11970E+07         0.00000E+00
   -0.11970E+07        -0.50510E+08         0.00000E+00
    0.00000E+00         0.00000E+00        -0.30557E+08
 
   -0.36436E+08        -0.11709E+07         0.00000E+00
   -0.11709E+07        -0.50561E+08         0.00000E+00
    0.00000E+00         0.00000E+00        -0.30552E+08
 
   -0.36247E+08        -0.11339E+07         0.00000E+00
   -0.11339E+07        -0.50612E+08         0.00000E+00
    0.00000E+00         0.00000E+00        -0.30548E+08
 
   -0.36056E+08        -0.10866E+07         0.00000E+00
   -0.10866E+07        -0.50662E+08         0.00000E+00
    0.00000E+00         0.00000E+00        -0.30543E+08
 
   -0.35863E+08        -0.10294E+07         0.00000E+00
   -0.10294E+07        -0.50713E+08         0.00000E+00
    0.00000E+00         0.00000E+00        -0.30539E+08
 
   -0.35668E+08        -0.96268E+06         0.00000E+00
   -0.96268E+06        -0.50764E+08         0.00000E+00
    0.00000E+00         0.00000E+00        -0.30535E+08
 
   -0.35473E+08        -0.88689E+06         0.00000E+00
   -0.88689E+06        -0.50816E+08         0.00000E+00
    0.00000E+00         0.00000E+00        -0.30531E+08
 
   -0.35278E+08        -0.80237E+06         0.00000E+00
   -0.80237E+06        -0.50867E+08         0.00000E+00
    0.00000E+00         0.00000E+00        -0.30528E+08
 
   -0.35083E+08        -0.70947E+06         0.00000E+00
   -0.70947E+06        -0.50918E+08         0.00000E+00
    0.00000E+00         0.00000E+00        -0.30524E+08
 
   -0.34887E+08        -0.60860E+06         0.00000E+00
   -0.60860E+06        -0.50969E+08         0.00000E+00
    0.00000E+00         0.00000E+00        -0.30521E+08
 
   -0.34692E+08        -0.50014E+06         0.00000E+00
   -0.50014E+06        -0.51021E+08         0.00000E+00
    0.00000E+00         0.00000E+00        -0.30518E+08
 
   -0.34497E+08        -0.38410E+06         0.00000E+00
   -0.38410E+06        -0.51072E+08         0.00000E+00
    0.00000E+00         0.00000E+00        -0.30516E+08
 
   -0.34302E+08        -0.26025E+06         0.00000E+00
   -0.26025E+06        -0.51125E+08         0.00000E+00
    0.00000E+00         0.00000E+00        -0.30514E+08
 
   -0.34108E+08        -0.12800E+06         0.00000E+00
   -0.12800E+06        -0.51180E+08         0.00000E+00
    0.00000E+00         0.00000E+00        -0.30512E+08
 
   -0.33916E+08         0.13590E+05         0.00000E+00
    0.13590E+05        -0.51236E+08         0.00000E+00
    0.00000E+00         0.00000E+00        -0.30510E+08
 
   -0.33728E+08         0.16267E+06         0.00000E+00
    0.16267E+06        -0.51289E+08         0.00000E+00
    0.00000E+00         0.00000E+00        -0.30509E+08
 
   -0.33541E+08         0.31526E+06         0.00000E+00
    0.31526E+06        -0.51339E+08         0.00000E+00
    0.00000E+00         0.00000E+00        -0.30509E+08
 
   -0.33351E+08         0.47092E+06         0.00000E+00
    0.47092E+06        -0.51391E+08         0.00000E+00
    0.00000E+00         0.00000E+00        -0.30509E+08
 
   -0.33163E+08         0.63262E+06         0.00000E+00
    0.63262E+06        -0.51463E+08         0.00000E+00
    0.00000E+00         0.00000E+00        -0.30525E+08
 
   -0.33007E+08         0.80303E+06         0.00000E+00
    0.80303E+06        -0.51532E+08         0.00000E+00
    0.00000E+00         0.00000E+00        -0.30598E+08
 
   -0.32843E+08         0.98511E+06         0.00000E+00
    0.98511E+06        -0.51603E+08         0.00000E+00
    0.00000E+00         0.00000E+00        -0.30677E+08
 
   -0.32726E+08         0.11714E+07         0.00000E+00
    0.11714E+07        -0.51647E+08         0.00000E+00
    0.00000E+00         0.00000E+00        -0.30829E+08
 
   -0.32639E+08         0.13594E+07         0.00000E+00
    0.13594E+07        -0.51708E+08         0.00000E+00
    0.00000E+00         0.00000E+00        -0.31024E+08
 
   -0.32566E+08         0.15443E+07         0.00000E+00
    0.15443E+07        -0.51778E+08         0.00000E+00
    0.00000E+00         0.00000E+00        -0.31228E+08
 
   -0.32513E+08         0.17242E+07         0.00000E+00
    0.17242E+07        -0.51854E+08         0.00000E+00
    0.00000E+00         0.00000E+00        -0.31433E+08
 
   -0.32484E+08         0.19040E+07         0.00000E+00
    0.19040E+07        -0.51938E+08         0.00000E+00
    0.00000E+00         0.00000E+00        -0.31635E+08
 
   -0.32475E+08         0.20854E+07         0.00000E+00
    0.20854E+07        -0.52018E+08         0.00000E+00
    0.00000E+00         0.00000E+00        -0.31826E+08
 
   -0.32488E+08         0.22723E+07         0.00000E+00
    0.22723E+07        -0.52100E+08         0.00000E+00
    0.00000E+00         0.00000E+00        -0.32010E+08
 
   -0.32519E+08         0.24638E+07         0.00000E+00
    0.24638E+07        -0.52179E+08         0.00000E+00
    0.00000E+00         0.00000E+00        -0.32186E+08
 
   -0.32565E+08         0.26596E+07         0.00000E+00
    0.26596E+07        -0.52253E+08         0.00000E+00
    0.00000E+00         0.00000E+00        -0.32353E+08
 
   -0.32626E+08         0.28604E+07         0.00000E+00
    0.28604E+07        -0.52324E+08         0.00000E+00
    0.00000E+00         0.00000E+00        -0.32513E+08
 
   -0.32700E+08         0.30661E+07         0.00000E+00
    0.30661E+07        -0.52388E+08         0.00000E+00
    0.00000E+00         0.00000E+00        -0.32665E+08
 
   -0.32791E+08         0.32735E+07         0.00000E+00
    0.32735E+07        -0.52449E+08         0.00000E+00
    0.00000E+00         0.00000E+00        -0.32807E+08
 
   -0.32898E+08         0.34820E+07         0.00000E+00
    0.34820E+07        -0.52507E+08         0.00000E+00
    0.00000E+00         0.00000E+00        -0.32941E+08
 
   -0.33020E+08         0.36900E+07         0.00000E+00
    0.36900E+07        -0.52561E+08         0.00000E+00
    0.00000E+00         0.00000E+00        -0.33064E+08
 
   -0.33158E+08         0.38937E+07         0.00000E+00
    0.38937E+07        -0.52615E+08         0.00000E+00
    0.00000E+00         0.00000E+00        -0.33176E+08
 
   -0.39484E+08        -0.14162E+06         0.00000E+00
   -0.14162E+06        -0.50004E+08         0.00000E+00
    0.00000E+00         0.00000E+00        -0.28876E+08
 
   -0.39339E+08        -0.35753E+06         0.00000E+00
   -0.35753E+06        -0.50010E+08         0.00000E+00
    0.00000E+00         0.00000E+00        -0.28875E+08
 
   -0.39178E+08        -0.55163E+06         0.00000E+00
   -0.55163E+06        -0.50023E+08         0.00000E+00
    0.00000E+00         0.00000E+00        -0.28874E+08
 
   -0.39002E+08        -0.72408E+06         0.00000E+00
   -0.72408E+06        -0.50041E+08         0.00000E+00
    0.00000E+00         0.00000E+00        -0.28872E+08
 
   -0.38812E+08        -0.87548E+06         0.00000E+00
   -0.87548E+06        -0.50064E+08         0.00000E+00
    0.00000E+00         0.00000E+00        -0.28869E+08
 
   -0.38612E+08        -0.10066E+07         0.00000E+00
   -0.10066E+07        -0.50089E+08         0.00000E+00
    0.00000E+00         0.00000E+00        -0.28866E+08
 
   -0.38401E+08        -0.11183E+07         0.00000E+00
   -0.11183E+07        -0.50118E+08         0.00000E+00
    0.00000E+00         0.00000E+00        -0.28863E+08
 
   -0.38182E+08        -0.12112E+07         0.00000E+00
   -0.12112E+07        -0.50148E+08         0.00000E+00
    0.00000E+00         0.00000E+00        -0.28860E+08
 
   -0.37956E+08        -0.12860E+07         0.00000E+00
   -0.12860E+07        -0.50180E+08         0.00000E+00
    0.00000E+00         0.00000E+00        -0.28856E+08
 
   -0.37724E+08        -0.13437E+07         0.00000E+00
   -0.13437E+07        -0.50213E+08         0.00000E+00
    0.00000E+00         0.00000E+00        -0.28853E+08
 
   -0.37488E+08        -0.13848E+07         0.00000E+00
   -0.13848E+07        -0.50247E+08         0.00000E+00
    0.00000E+00         0.00000E+00        -0.28849E+08
 
   -0.37248E+08        -0.14104E+07         0.00000E+00
   -0.14104E+07        -0.50280E+08         0.00000E+00
    0.00000E+00         0.00000E+00        -0.28845E+08
 
   -0.37007E+08        -0.14214E+07         0.00000E+00
   -0.14214E+07        -0.50312E+08         0.00000E+00
    0.00000E+00         0.00000E+00        -0.28841E+08
 
   -0.36764E+08        -0.14186E+07         0.00000E+00
   -0.14186E+07        -0.50344E+08         0.00000E+00
    0.00000E+00         0.00000E+00        -0.28837E+08
 
   -0.36520E+08        -0.14030E+07         0.00000E+00
   -0.14030E+07        -0.50376E+08         0.00000E+00
    0.00000E+00         0.00000E+00        -0.28833E+08
 
   -0.36277E+08        -0.13754E+07         0.00000E+00
   -0.13754E+07        -0.50406E+08         0.00000E+00
    0.00000E+00         0.00000E+00        -0.28830E+08
 
   -0.36034E+08        -0.13367E+07         0.00000E+00
   -0.13367E+07        -0.50435E+08         0.00000E+00
    0.00000E+00         0.00000E+00        -0.28826E+08
 
   -0.35792E+08        -0.12876E+07         0.00000E+00
   -0.12876E+07        -0.50463E+08         0.00000E+00
    0.00000E+00         0.00000E+00        -0.28823E+08
 
   -0.35551E+08        -0.12287E+07         0.00000E+00
   -0.12287E+07        -0.50491E+08         0.00000E+00
    0.00000E+00         0.00000E+00        -0.28820E+08
 
   -0.35312E+08        -0.11609E+07         0.00000E+00
   -0.11609E+07        -0.50518E+08         0.00000E+00
    0.00000E+00         0.00000E+00        -0.28816E+08
 
   -0.35073E+08        -0.10845E+07         0.00000E+00
   -0.10845E+07        -0.50544E+08         0.00000E+00
    0.00000E+00         0.00000E+00        -0.28814E+08
 
   -0.34836E+08        -0.99997E+06         0.00000E+00
   -0.99997E+06        -0.50571E+08         0.00000E+00
    0.00000E+00         0.00000E+00        -0.28811E+08
 
   -0.34601E+08        -0.90754E+06         0.00000E+00
   -0.90754E+06        -0.50597E+08         0.00000E+00
    0.00000E+00         0.00000E+00        -0.28809E+08
 
   -0.34367E+08        -0.80709E+06         0.00000E+00
   -0.80709E+06        -0.50624E+08         0.00000E+00
    0.00000E+00         0.00000E+00        -0.28807E+08
 
   -0.34135E+08        -0.69896E+06         0.00000E+00
   -0.69896E+06        -0.50652E+08         0.00000E+00
    0.00000E+00         0.00000E+00        -0.28805E+08
 
   -0.33905E+08        -0.58459E+06         0.00000E+00
   -0.58459E+06        -0.50680E+08         0.00000E+00
    0.00000E+00         0.00000E+00        -0.28803E+08
 
   -0.33675E+08        -0.46508E+06         0.00000E+00
   -0.46508E+06        -0.50706E+08         0.00000E+00
    0.00000E+00         0.00000E+00        -0.28802E+08
 
   -0.33444E+08        -0.34130E+06         0.00000E+00
   -0.34130E+06        -0.50732E+08         0.00000E+00
    0.00000E+00         0.00000E+00        -0.28802E+08
 
   -0.33208E+08        -0.21319E+06         0.00000E+00
   -0.21319E+06        -0.50759E+08         0.00000E+00
    0.00000E+00         0.00000E+00        -0.28802E+08
 
   -0.32987E+08        -0.77954E+05         0.00000E+00
   -0.77954E+05        -0.50790E+08         0.00000E+00
    0.00000E+00         0.00000E+00        -0.28843E+08
 
   -0.32769E+08         0.66828E+05         0.00000E+00
    0.66828E+05        -0.50828E+08         0.00000E+00
    0.00000E+00         0.00000E+00        -0.28905E+08
 
   -0.32544E+08         0.22187E+06         0.00000E+00
    0.22187E+06        -0.50869E+08         0.00000E+00
    0.00000E+00         0.00000E+00        -0.28972E+08
 
   -0.32352E+08         0.38265E+06         0.00000E+00
    0.38265E+06        -0.50898E+08         0.00000E+00
    0.00000E+00         0.00000E+00        -0.29104E+08
 
   -0.32187E+08         0.54430E+06         0.00000E+00
    0.54430E+06        -0.50943E+08         0.00000E+00
    0.00000E+00         0.00000E+00        -0.29285E+08
 
   -0.32034E+08         0.70166E+06         0.00000E+00
    0.70166E+06        -0.50993E+08         0.00000E+00
    0.00000E+00         0.00000E+00        -0.29475E+08
 
   -0.31901E+08         0.85574E+06         0.00000E+00
    0.85574E+06        -0.51054E+08         0.00000E+00
    0.00000E+00         0.00000E+00        -0.29671E+08
 
   -0.31788E+08         0.10128E+07         0.00000E+00
    0.10128E+07        -0.51117E+08         0.00000E+00
    0.00000E+00         0.00000E+00        -0.29866E+08
 
   -0.31697E+08         0.11761E+07         0.00000E+00
    0.11761E+07        -0.51185E+08         0.00000E+00
    0.00000E+00         0.00000E+00        -0.30059E+08
 
   -0.31626E+08         0.13464E+07         0.00000E+00
    0.13464E+07        -0.51255E+08         0.00000E+00
    0.00000E+00         0.00000E+00        -0.30252E+08
 
   -0.31572E+08         0.15237E+07         0.00000E+00
    0.15237E+07        -0.51326E+08         0.00000E+00
    0.00000E+00         0.00000E+00        -0.30442E+08
 
   -0.31536E+08         0.17085E+07         0.00000E+00
    0.17085E+07        -0.51399E+08         0.00000E+00
    0.00000E+00         0.00000E+00        -0.30630E+08
 
   -0.31518E+08         0.19007E+07         0.00000E+00
    0.19007E+07        -0.51472E+08         0.00000E+00
    0.00000E+00         0.00000E+00        -0.30814E+08
 
   -0.31518E+08         0.21009E+07         0.00000E+00
    0.21009E+07        -0.51545E+08         0.00000E+00
    0.00000E+00         0.00000E+00        -0.30996E+08
 
   -0.31538E+08         0.23088E+07         0.00000E+00
    0.23088E+07        -0.51617E+08         0.00000E+00
    0.00000E+00         0.00000E+00        -0.31173E+08
 
   -0.31578E+08         0.25217E+07         0.00000E+00
    0.25217E+07        -0.51690E+08         0.00000E+00
    0.00000E+00         0.00000E+00        -0.31343E+08
 
   -0.31639E+08         0.27371E+07         0.00000E+00
    0.27371E+07        -0.51762E+08         0.00000E+00
    0.00000E+00         0.00000E+00        -0.31505E+08
 
   -0.31721E+08         0.29569E+07         0.00000E+00
    0.29569E+07        -0.51833E+08         0.00000E+00
    0.00000E+00         0.00000E+00        -0.31659E+08
 
   -0.31820E+08         0.31799E+07         0.00000E+00
    0.31799E+07        -0.51902E+08         0.00000E+00
    0.00000E+00         0.00000E+00        -0.31805E+08
 
   -0.31936E+08         0.34051E+07         0.00000E+00
    0.34051E+07        -0.51967E+08         0.00000E+00
    0.00000E+00         0.00000E+00        -0.31943E+08
 
   -0.32067E+08         0.36395E+07         0.00000E+00
    0.36395E+07        -0.52022E+08         0.00000E+00
    0.00000E+00         0.00000E+00        -0.32073E+08
 
   -0.40699E+08        -0.15699E+06         0.00000E+00
   -0.15699E+06        -0.49996E+08         0.00000E+00
    0.00000E+00         0.00000E+00        -0.27028E+08
 
   -0.40432E+08        -0.40194E+06         0.00000E+00
   -0.40194E+06        -0.50003E+08         0.00000E+00
    0.00000E+00         0.00000E+00        -0.27027E+08
 
   -0.40151E+08        -0.61926E+06         0.00000E+00
   -0.61926E+06        -0.50013E+08         0.00000E+00
    0.00000E+00         0.00000E+00        -0.27026E+08
 
   -0.39859E+08        -0.81139E+06         0.00000E+00
   -0.81139E+06        -0.50026E+08         0.00000E+00
    0.00000E+00         0.00000E+00        -0.27025E+08
 
   -0.39557E+08        -0.97906E+06         0.00000E+00
   -0.97906E+06        -0.50041E+08         0.00000E+00
    0.00000E+00         0.00000E+00        -0.27023E+08
 
   -0.39246E+08        -0.11225E+07         0.00000E+00
   -0.11225E+07        -0.50059E+08         0.00000E+00
    0.00000E+00         0.00000E+00        -0.27021E+08
 
   -0.38930E+08        -0.12419E+07         0.00000E+00
   -0.12419E+07        -0.50079E+08         0.00000E+00
    0.00000E+00         0.00000E+00        -0.27019E+08
 
   -0.38609E+08        -0.13380E+07         0.00000E+00
   -0.13380E+07        -0.50098E+08         0.00000E+00
    0.00000E+00         0.00000E+00        -0.27017E+08
 
   -0.38286E+08        -0.14122E+07         0.00000E+00
   -0.14122E+07        -0.50116E+08         0.00000E+00
    0.00000E+00         0.00000E+00        -0.27015E+08
 
   -0.37964E+08        -0.14661E+07         0.00000E+00
   -0.14661E+07        -0.50131E+08         0.00000E+00
    0.00000E+00         0.00000E+00        -0.27012E+08
 
   -0.37644E+08        -0.15017E+07         0.00000E+00
   -0.15017E+07        -0.50144E+08         0.00000E+00
    0.00000E+00         0.00000E+00        -0.27010E+08
 
   -0.37326E+08        -0.15202E+07         0.00000E+00
   -0.15202E+07        -0.50155E+08         0.00000E+00
    0.00000E+00         0.00000E+00        -0.27007E+08
 
   -0.37012E+08        -0.15232E+07         0.00000E+00
   -0.15232E+07        -0.50162E+08         0.00000E+00
    0.00000E+00         0.00000E+00        -0.27005E+08
 
   -0.36701E+08        -0.15120E+07         0.00000E+00
   -0.15120E+07        -0.50167E+08         0.00000E+00
    0.00000E+00         0.00000E+00        -0.27003E+08
 
   -0.36396E+08        -0.14879E+07         0.00000E+00
   -0.14879E+07        -0.50170E+08         0.00000E+00
    0.00000E+00         0.00000E+00        -0.27000E+08
 
   -0.36096E+08        -0.14521E+07         0.00000E+00
   -0.14521E+07        -0.50170E+08         0.00000E+00
    0.00000E+00         0.00000E+00        -0.26998E+08
 
   -0.35800E+08        -0.14058E+07         0.00000E+00
   -0.14058E+07        -0.50168E+08         0.00000E+00
    0.00000E+00         0.00000E+00        -0.26996E+08
 
   -0.35510E+08        -0.13500E+07         0.00000E+00
   -0.13500E+07        -0.50164E+08         0.00000E+00
    0.00000E+00         0.00000E+00        -0.26994E+08
 
   -0.35225E+08        -0.12855E+07         0.00000E+00
   -0.12855E+07        -0.50159E+08         0.00000E+00
    0.00000E+00         0.00000E+00        -0.26992E+08
 
   -0.34945E+08        -0.12134E+07         0.00000E+00
   -0.12134E+07        -0.50153E+08         0.00000E+00
    0.00000E+00         0.00000E+00        -0.26990E+08
 
   -0.34669E+08        -0.11344E+07         0.00000E+00
   -0.11344E+07        -0.50145E+08         0.00000E+00
    0.00000E+00         0.00000E+00        -0.26989E+08
 
   -0.34397E+08        -0.10494E+07         0.00000E+00
   -0.10494E+07        -0.50137E+08         0.00000E+00
    0.00000E+00         0.00000E+00        -0.26987E+08
 
   -0.34127E+08        -0.95891E+06         0.00000E+00
   -0.95891E+06        -0.50129E+08         0.00000E+00
    0.00000E+00         0.00000E+00        -0.26986E+08
 
   -0.33858E+08        -0.86377E+06         0.00000E+00
   -0.86377E+06        -0.50120E+08         0.00000E+00
    0.00000E+00         0.00000E+00        -0.26985E+08
 
   -0.33595E+08        -0.76335E+06         0.00000E+00
   -0.76335E+06        -0.50106E+08         0.00000E+00
    0.00000E+00         0.00000E+00        -0.27002E+08
 
   -0.33337E+08        -0.65698E+06         0.00000E+00
   -0.65698E+06        -0.50094E+08         0.00000E+00
    0.00000E+00         0.00000E+00        -0.27031E+08
 
   -0.33079E+08        -0.54424E+06         0.00000E+00
   -0.54424E+06        -0.50091E+08         0.00000E+00
    0.00000E+00         0.00000E+00        -0.27069E+08
 
   -0.32820E+08        -0.42443E+06         0.00000E+00
   -0.42443E+06        -0.50091E+08         0.00000E+00
    0.00000E+00         0.00000E+00        -0.27111E+08
 
   -0.32557E+08        -0.29801E+06         0.00000E+00
   -0.29801E+06        -0.50093E+08         0.00000E+00
    0.00000E+00         0.00000E+00        -0.27159E+08
 
   -0.32314E+08        -0.16845E+06         0.00000E+00
   -0.16845E+06        -0.50103E+08         0.00000E+00
    0.00000E+00         0.00000E+00        -0.27257E+08
 
   -0.32089E+08        -0.39909E+05         0.00000E+00
   -0.39909E+05        -0.50114E+08         0.00000E+00
    0.00000E+00         0.00000E+00        -0.27396E+08
 
   -0.31873E+08         0.83774E+05         0.00000E+00
    0.83774E+05        -0.50133E+08         0.00000E+00
    0.00000E+00         0.00000E+00        -0.27545E+08
 
   -0.31672E+08         0.20329E+06         0.00000E+00
    0.20329E+06        -0.50160E+08         0.00000E+00
    0.00000E+00         0.00000E+00        -0.27703E+08
 
   -0.31488E+08         0.32455E+06         0.00000E+00
    0.32455E+06        -0.50193E+08         0.00000E+00
    0.00000E+00         0.00000E+00        -0.27865E+08
 
   -0.31320E+08         0.45064E+06         0.00000E+00
    0.45064E+06        -0.50232E+08         0.00000E+00
    0.00000E+00         0.00000E+00        -0.28033E+08
 
   -0.31167E+08         0.58241E+06         0.00000E+00
    0.58241E+06        -0.50276E+08         0.00000E+00
    0.00000E+00         0.00000E+00        -0.28204E+08
 
   -0.31027E+08         0.72012E+06         0.00000E+00
    0.72012E+06        -0.50326E+08         0.00000E+00
    0.00000E+00         0.00000E+00        -0.28382E+08
 
   -0.30901E+08         0.86448E+06         0.00000E+00
    0.86448E+06        -0.50379E+08         0.00000E+00
    0.00000E+00         0.00000E+00        -0.28564E+08
 
   -0.30791E+08         0.10170E+07         0.00000E+00
    0.10170E+07        -0.50438E+08         0.00000E+00
    0.00000E+00         0.00000E+00        -0.28750E+08
 
   -0.30696E+08         0.11787E+07         0.00000E+00
    0.11787E+07        -0.50502E+08         0.00000E+00
    0.00000E+00         0.00000E+00        -0.28941E+08
 
   -0.30618E+08         0.13501E+07         0.00000E+00
    0.13501E+07        -0.50571E+08         0.00000E+00
    0.00000E+00         0.00000E+00        -0.29136E+08
 
   -0.30556E+08         0.15316E+07         0.00000E+00
    0.15316E+07        -0.50645E+08         0.00000E+00
    0.00000E+00         0.00000E+00        -0.29335E+08
 
   -0.30515E+08         0.17222E+07         0.00000E+00
    0.17222E+07        -0.50723E+08         0.00000E+00
    0.00000E+00         0.00000E+00        -0.29535E+08
 
   -0.30496E+08         0.19230E+07         0.00000E+00
    0.19230E+07        -0.50804E+08         0.00000E+00
    0.00000E+00         0.00000E+00        -0.29733E+08
 
   -0.30499E+08         0.21341E+07         0.00000E+00
    0.21341E+07        -0.50889E+08         0.00000E+00
    0.00000E+00         0.00000E+00        -0.29930E+08
 
   -0.30525E+08         0.23568E+07         0.00000E+00
    0.23568E+07        -0.50975E+08         0.00000E+00
    0.00000E+00         0.00000E+00        -0.30124E+08
 
   -0.30572E+08         0.25899E+07         0.00000E+00
    0.25899E+07        -0.51059E+08         0.00000E+00
    0.00000E+00         0.00000E+00        -0.30313E+08
 
   -0.30640E+08         0.28326E+07         0.00000E+00
    0.28326E+07        -0.51139E+08         0.00000E+00
    0.00000E+00         0.00000E+00        -0.30496E+08
 
   -0.30731E+08         0.30819E+07         0.00000E+00
    0.30819E+07        -0.51216E+08         0.00000E+00
    0.00000E+00         0.00000E+00        -0.30669E+08
 
   -0.30849E+08         0.33327E+07         0.00000E+00
    0.33327E+07        -0.51294E+08         0.00000E+00
    0.00000E+00         0.00000E+00        -0.30833E+08
 
   -0.42041E+08        -0.17454E+06         0.00000E+00
   -0.17454E+06        -0.50024E+08         0.00000E+00
    0.00000E+00         0.00000E+00        -0.25080E+08
 
   -0.41634E+08        -0.43782E+06         0.00000E+00
   -0.43782E+06        -0.50022E+08         0.00000E+00
    0.00000E+00         0.00000E+00        -0.25080E+08
 
   -0.41212E+08        -0.67567E+06         0.00000E+00
   -0.67567E+06        -0.50031E+08         0.00000E+00
    0.00000E+00         0.00000E+00        -0.25080E+08
 
   -0.40774E+08        -0.87950E+06         0.00000E+00
   -0.87950E+06        -0.50046E+08         0.00000E+00
    0.00000E+00         0.00000E+00        -0.25079E+08
 
   -0.40329E+08        -0.10475E+07         0.00000E+00
   -0.10475E+07        -0.50060E+08         0.00000E+00
    0.00000E+00         0.00000E+00        -0.25079E+08
 
   -0.39881E+08        -0.11816E+07         0.00000E+00
   -0.11816E+07        -0.50065E+08         0.00000E+00
    0.00000E+00         0.00000E+00        -0.25078E+08
 
   -0.39435E+08        -0.12856E+07         0.00000E+00
   -0.12856E+07        -0.50061E+08         0.00000E+00
    0.00000E+00         0.00000E+00        -0.25078E+08
 
   -0.38996E+08        -0.13634E+07         0.00000E+00
   -0.13634E+07        -0.50050E+08         0.00000E+00
    0.00000E+00         0.00000E+00        -0.25077E+08
 
   -0.38565E+08        -0.14181E+07         0.00000E+00
   -0.14181E+07        -0.50032E+08         0.00000E+00
    0.00000E+00         0.00000E+00        -0.25077E+08
 
   -0.38146E+08        -0.14515E+07         0.00000E+00
   -0.14515E+07        -0.50007E+08         0.00000E+00
    0.00000E+00         0.00000E+00        -0.25084E+08
 
   -0.37737E+08        -0.14660E+07         0.00000E+00
   -0.14660E+07        -0.49976E+08         0.00000E+00
    0.00000E+00         0.00000E+00        -0.25094E+08
 
   -0.37340E+08        -0.14646E+07         0.00000E+00
   -0.14646E+07        -0.49939E+08         0.00000E+00
    0.00000E+00         0.00000E+00        -0.25102E+08
 
   -0.36955E+08        -0.14491E+07         0.00000E+00
   -0.14491E+07        -0.49898E+08         0.00000E+00
    0.00000E+00         0.00000E+00        -0.25109E+08
 
   -0.36582E+08        -0.14215E+07         0.00000E+00
   -0.14215E+07        -0.49853E+08         0.00000E+00
    0.00000E+00         0.00000E+00        -0.25115E+08
 
   -0.36221E+08        -0.13833E+07         0.00000E+00
   -0.13833E+07        -0.49804E+08         0.00000E+00
    0.00000E+00         0.00000E+00        -0.25121E+08
 
   -0.35870E+08        -0.13359E+07         0.00000E+00
   -0.13359E+07        -0.49754E+08         0.00000E+00
    0.00000E+00         0.00000E+00        -0.25126E+08
 
   -0.35531E+08        -0.12807E+07         0.00000E+00
   -0.12807E+07        -0.49702E+08         0.00000E+00
    0.00000E+00         0.00000E+00        -0.25131E+08
 
   -0.35201E+08        -0.12187E+07         0.00000E+00
   -0.12187E+07        -0.49649E+08         0.00000E+00
    0.00000E+00         0.00000E+00        -0.25137E+08
 
   -0.34881E+08        -0.11507E+07         0.00000E+00
   -0.11507E+07        -0.49596E+08         0.00000E+00
    0.00000E+00         0.00000E+00        -0.25144E+08
 
   -0.34569E+08        -0.10772E+07         0.00000E+00
   -0.10772E+07        -0.49543E+08         0.00000E+00
    0.00000E+00         0.00000E+00        -0.25152E+08
 
   -0.34265E+08        -0.99884E+06         0.00000E+00
   -0.99884E+06        -0.49492E+08         0.00000E+00
    0.00000E+00         0.00000E+00        -0.25162E+08
 
   -0.33966E+08        -0.91584E+06         0.00000E+00
   -0.91584E+06        -0.49443E+08         0.00000E+00
    0.00000E+00         0.00000E+00        -0.25174E+08
 
   -0.33673E+08        -0.82843E+06         0.00000E+00
   -0.82843E+06        -0.49396E+08         0.00000E+00
    0.00000E+00         0.00000E+00        -0.25189E+08
 
   -0.33383E+08        -0.73680E+06         0.00000E+00
   -0.73680E+06        -0.49351E+08         0.00000E+00
    0.00000E+00         0.00000E+00        -0.25207E+08
 
   -0.33096E+08        -0.64221E+06         0.00000E+00
   -0.64221E+06        -0.49318E+08         0.00000E+00
    0.00000E+00         0.00000E+00        -0.25229E+08
 
   -0.32816E+08        -0.54525E+06         0.00000E+00
   -0.54525E+06        -0.49289E+08         0.00000E+00
    0.00000E+00         0.00000E+00        -0.25270E+08
 
   -0.32548E+08        -0.44809E+06         0.00000E+00
   -0.44809E+06        -0.49260E+08         0.00000E+00
    0.00000E+00         0.00000E+00        -0.25346E+08
 
   -0.32286E+08        -0.35321E+06         0.00000E+00
   -0.35321E+06        -0.49236E+08         0.00000E+00
    0.00000E+00         0.00000E+00        -0.25433E+08
 
   -0.32032E+08        -0.26258E+06         0.00000E+00
   -0.26258E+06        -0.49221E+08         0.00000E+00
    0.00000E+00         0.00000E+00        -0.25530E+08
 
   -0.31790E+08        -0.17549E+06         0.00000E+00
   -0.17549E+06        -0.49211E+08         0.00000E+00
    0.00000E+00         0.00000E+00        -0.25634E+08
 
   -0.31561E+08        -0.88212E+05         0.00000E+00
   -0.88212E+05        -0.49209E+08         0.00000E+00
    0.00000E+00         0.00000E+00        -0.25746E+08
 
   -0.31343E+08         0.68305E+03         0.00000E+00
    0.68305E+03        -0.49215E+08         0.00000E+00
    0.00000E+00         0.00000E+00        -0.25865E+08
 
   -0.31135E+08         0.91708E+05         0.00000E+00
    0.91708E+05        -0.49226E+08         0.00000E+00
    0.00000E+00         0.00000E+00        -0.25992E+08
 
   -0.30937E+08         0.18484E+06         0.00000E+00
    0.18484E+06        -0.49244E+08         0.00000E+00
    0.00000E+00         0.00000E+00        -0.26127E+08
 
   -0.30748E+08         0.28087E+06         0.00000E+00
    0.28087E+06        -0.49267E+08         0.00000E+00
    0.00000E+00         0.00000E+00        -0.26268E+08
 
   -0.30568E+08         0.38115E+06         0.00000E+00
    0.38115E+06        -0.49297E+08         0.00000E+00
    0.00000E+00         0.00000E+00        -0.26419E+08
 
   -0.30396E+08         0.48683E+06         0.00000E+00
    0.48683E+06        -0.49334E+08         0.00000E+00
    0.00000E+00         0.00000E+00        -0.26580E+08
 
   -0.30234E+08         0.59894E+06         0.00000E+00
    0.59894E+06        -0.49379E+08         0.00000E+00
    0.00000E+00         0.00000E+00        -0.26750E+08
 
   -0.30081E+08         0.71851E+06         0.00000E+00
    0.71851E+06        -0.49431E+08         0.00000E+00
    0.00000E+00         0.00000E+00        -0.26931E+08
 
   -0.29939E+08         0.84682E+06         0.00000E+00
    0.84682E+06        -0.49492E+08         0.00000E+00
    0.00000E+00         0.00000E+00        -0.27122E+08
 
   -0.29808E+08         0.98526E+06         0.00000E+00
    0.98526E+06        -0.49560E+08         0.00000E+00
    0.00000E+00         0.00000E+00        -0.27325E+08
 
   -0.29691E+08         0.11353E+07         0.00000E+00
    0.11353E+07        -0.49637E+08         0.00000E+00
    0.00000E+00         0.00000E+00        -0.27538E+08
 
   -0.29590E+08         0.12986E+07         0.00000E+00
    0.12986E+07        -0.49722E+08         0.00000E+00
    0.00000E+00         0.00000E+00        -0.27762E+08
 
   -0.29504E+08         0.14761E+07         0.00000E+00
    0.14761E+07        -0.49814E+08         0.00000E+00
    0.00000E+00         0.00000E+00        -0.27995E+08
 
   -0.29435E+08         0.16718E+07         0.00000E+00
    0.16718E+07        -0.49912E+08         0.00000E+00
    0.00000E+00         0.00000E+00        -0.28238E+08
 
   -0.29390E+08         0.18858E+07         0.00000E+00
    0.18858E+07        -0.50017E+08         0.00000E+00
    0.00000E+00         0.00000E+00        -0.28488E+08
 
   -0.29374E+08         0.21186E+07         0.00000E+00
    0.21186E+07        -0.50129E+08         0.00000E+00
    0.00000E+00         0.00000E+00        -0.28741E+08
 
   -0.29391E+08         0.23646E+07         0.00000E+00
    0.23646E+07        -0.50246E+08         0.00000E+00
    0.00000E+00         0.00000E+00        -0.28991E+08
 
   -0.29446E+08         0.26288E+07         0.00000E+00
    0.26288E+07        -0.50364E+08         0.00000E+00
    0.00000E+00         0.00000E+00        -0.29231E+08
 
   -0.29522E+08         0.28982E+07         0.00000E+00
    0.28982E+07        -0.50470E+08         0.00000E+00
    0.00000E+00         0.00000E+00        -0.29455E+08
 
   -0.43509E+08        -0.19720E+06         0.00000E+00
   -0.19720E+06        -0.49970E+08         0.00000E+00
    0.00000E+00         0.00000E+00        -0.23781E+08
 
   -0.42906E+08        -0.49687E+06         0.00000E+00
   -0.49687E+06        -0.50000E+08         0.00000E+00
    0.00000E+00         0.00000E+00        -0.23745E+08
 
   -0.42258E+08        -0.71801E+06         0.00000E+00
   -0.71801E+06        -0.49995E+08         0.00000E+00
    0.00000E+00         0.00000E+00        -0.23702E+08
 
   -0.41611E+08        -0.88087E+06         0.00000E+00
   -0.88087E+06        -0.49962E+08         0.00000E+00
    0.00000E+00         0.00000E+00        -0.23656E+08
 
   -0.40979E+08        -0.99904E+06         0.00000E+00
   -0.99904E+06        -0.49907E+08         0.00000E+00
    0.00000E+00         0.00000E+00        -0.23611E+08
 
   -0.40365E+08        -0.10792E+07         0.00000E+00
   -0.10792E+07        -0.49853E+08         0.00000E+00
    0.00000E+00         0.00000E+00        -0.23577E+08
 
   -0.39778E+08        -0.11284E+07         0.00000E+00
   -0.11284E+07        -0.49799E+08         0.00000E+00
    0.00000E+00         0.00000E+00        -0.23551E+08
 
   -0.39222E+08        -0.11545E+07         0.00000E+00
   -0.11545E+07        -0.49731E+08         0.00000E+00
    0.00000E+00         0.00000E+00        -0.23525E+08
 
   -0.38693E+08        -0.11631E+07         0.00000E+00
   -0.11631E+07        -0.49652E+08         0.00000E+00
    0.00000E+00         0.00000E+00        -0.23499E+08
 
   -0.38190E+08        -0.11597E+07         0.00000E+00
   -0.11597E+07        -0.49562E+08         0.00000E+00
    0.00000E+00         0.00000E+00        -0.23471E+08
 
   -0.37708E+08        -0.11451E+07         0.00000E+00
   -0.11451E+07        -0.49467E+08         0.00000E+00
    0.00000E+00         0.00000E+00        -0.23445E+08
 
   -0.37249E+08        -0.11194E+07         0.00000E+00
   -0.11194E+07        -0.49369E+08         0.00000E+00
    0.00000E+00         0.00000E+00        -0.23420E+08
 
   -0.36811E+08        -0.10849E+07         0.00000E+00
   -0.10849E+07        -0.49269E+08         0.00000E+00
    0.00000E+00         0.00000E+00        -0.23396E+08
 
   -0.36394E+08        -0.10436E+07         0.00000E+00
   -0.10436E+07        -0.49167E+08         0.00000E+00
    0.00000E+00         0.00000E+00        -0.23374E+08
 
   -0.35995E+08        -0.99733E+06         0.00000E+00
   -0.99733E+06        -0.49064E+08         0.00000E+00
    0.00000E+00         0.00000E+00        -0.23354E+08
 
   -0.35614E+08        -0.94712E+06         0.00000E+00
   -0.94712E+06        -0.48963E+08         0.00000E+00
    0.00000E+00         0.00000E+00        -0.23337E+08
 
   -0.35248E+08        -0.89368E+06         0.00000E+00
   -0.89368E+06        -0.48864E+08         0.00000E+00
    0.00000E+00         0.00000E+00        -0.23323E+08
 
   -0.34896E+08        -0.83751E+06         0.00000E+00
   -0.83751E+06        -0.48769E+08         0.00000E+00
    0.00000E+00         0.00000E+00        -0.23313E+08
 
   -0.34556E+08        -0.77909E+06         0.00000E+00
   -0.77909E+06        -0.48677E+08         0.00000E+00
    0.00000E+00         0.00000E+00        -0.23308E+08
 
   -0.34227E+08        -0.71885E+06         0.00000E+00
   -0.71885E+06        -0.48589E+08         0.00000E+00
    0.00000E+00         0.00000E+00        -0.23309E+08
 
   -0.33907E+08        -0.65723E+06         0.00000E+00
   -0.65723E+06        -0.48507E+08         0.00000E+00
    0.00000E+00         0.00000E+00        -0.23315E+08
 
   -0.33597E+08        -0.59472E+06         0.00000E+00
   -0.59472E+06        -0.48430E+08         0.00000E+00
    0.00000E+00         0.00000E+00        -0.23329E+08
 
   -0.33294E+08        -0.53201E+06         0.00000E+00
   -0.53201E+06        -0.48360E+08         0.00000E+00
    0.00000E+00         0.00000E+00        -0.23350E+08
 
   -0.33000E+08        -0.47002E+06         0.00000E+00
   -0.47002E+06        -0.48297E+08         0.00000E+00
    0.00000E+00         0.00000E+00        -0.23379E+08
 
   -0.32714E+08        -0.40936E+06         0.00000E+00
   -0.40936E+06        -0.48241E+08         0.00000E+00
    0.00000E+00         0.00000E+00        -0.23415E+08
 
   -0.32438E+08        -0.35064E+06         0.00000E+00
   -0.35064E+06        -0.48192E+08         0.00000E+00
    0.00000E+00         0.00000E+00        -0.23460E+08
 
   -0.32172E+08        -0.29294E+06         0.00000E+00
   -0.29294E+06        -0.48152E+08         0.00000E+00
    0.00000E+00         0.00000E+00        -0.23513E+08
 
   -0.31916E+08        -0.23594E+06         0.00000E+00
   -0.23594E+06        -0.48120E+08         0.00000E+00
    0.00000E+00         0.00000E+00        -0.23574E+08
 
   -0.31669E+08        -0.17951E+06         0.00000E+00
   -0.17951E+06        -0.48095E+08         0.00000E+00
    0.00000E+00         0.00000E+00        -0.23643E+08
 
   -0.31431E+08        -0.12350E+06         0.00000E+00
   -0.12350E+06        -0.48077E+08         0.00000E+00
    0.00000E+00         0.00000E+00        -0.23720E+08
 
   -0.31200E+08        -0.67888E+05         0.00000E+00
   -0.67888E+05        -0.48065E+08         0.00000E+00
    0.00000E+00         0.00000E+00        -0.23804E+08
 
   -0.30976E+08        -0.11900E+05         0.00000E+00
   -0.11900E+05        -0.48060E+08         0.00000E+00
    0.00000E+00         0.00000E+00        -0.23895E+08
 
   -0.30760E+08         0.45091E+05         0.00000E+00
    0.45091E+05        -0.48062E+08         0.00000E+00
    0.00000E+00         0.00000E+00        -0.23995E+08
 
   -0.30550E+08         0.10373E+06         0.00000E+00
    0.10373E+06        -0.48071E+08         0.00000E+00
    0.00000E+00         0.00000E+00        -0.24103E+08
 
   -0.30346E+08         0.16441E+06         0.00000E+00
    0.16441E+06        -0.48088E+08         0.00000E+00
    0.00000E+00         0.00000E+00        -0.24222E+08
 
   -0.30146E+08         0.22750E+06         0.00000E+00
    0.22750E+06        -0.48112E+08         0.00000E+00
    0.00000E+00         0.00000E+00        -0.24350E+08
 
   -0.29950E+08         0.29372E+06         0.00000E+00
    0.29372E+06        -0.48144E+08         0.00000E+00
    0.00000E+00         0.00000E+00        -0.24491E+08
 
   -0.29757E+08         0.36414E+06         0.00000E+00
    0.36414E+06        -0.48184E+08         0.00000E+00
    0.00000E+00         0.00000E+00        -0.24644E+08
 
   -0.29568E+08         0.43971E+06         0.00000E+00
    0.43971E+06        -0.48234E+08         0.00000E+00
    0.00000E+00         0.00000E+00        -0.24811E+08
 
   -0.29382E+08         0.52163E+06         0.00000E+00
    0.52163E+06        -0.48293E+08         0.00000E+00
    0.00000E+00         0.00000E+00        -0.24993E+08
 
   -0.29200E+08         0.61141E+06         0.00000E+00
    0.61141E+06        -0.48362E+08         0.00000E+00
    0.00000E+00         0.00000E+00        -0.25192E+08
 
   -0.29022E+08         0.71090E+06         0.00000E+00
    0.71090E+06        -0.48442E+08         0.00000E+00
    0.00000E+00         0.00000E+00        -0.25410E+08
 
   -0.28850E+08         0.82318E+06         0.00000E+00
    0.82318E+06        -0.48533E+08         0.00000E+00
    0.00000E+00         0.00000E+00        -0.25648E+08
 
   -0.28684E+08         0.95044E+06         0.00000E+00
    0.95044E+06        -0.48638E+08         0.00000E+00
    0.00000E+00         0.00000E+00        -0.25909E+08
 
   -0.28520E+08         0.10935E+07         0.00000E+00
    0.10935E+07        -0.48757E+08         0.00000E+00
    0.00000E+00         0.00000E+00        -0.26200E+08
 
   -0.28368E+08         0.12561E+07         0.00000E+00
    0.12561E+07        -0.48889E+08         0.00000E+00
    0.00000E+00         0.00000E+00        -0.26515E+08
 
   -0.28235E+08         0.14453E+07         0.00000E+00
    0.14453E+07        -0.49035E+08         0.00000E+00
    0.00000E+00         0.00000E+00        -0.26854E+08
 
   -0.28134E+08         0.16704E+07         0.00000E+00
    0.16704E+07        -0.49195E+08         0.00000E+00
    0.00000E+00         0.00000E+00        -0.27213E+08
 
   -0.28078E+08         0.19255E+07         0.00000E+00
    0.19255E+07        -0.49373E+08         0.00000E+00
    0.00000E+00         0.00000E+00        -0.27585E+08
 
   -0.28104E+08         0.22298E+07         0.00000E+00
    0.22298E+07        -0.49581E+08         0.00000E+00
    0.00000E+00         0.00000E+00        -0.27959E+08
 
   -0.44692E+08        -0.25500E+06         0.00000E+00
   -0.25500E+06        -0.49991E+08         0.00000E+00
    0.00000E+00         0.00000E+00        -0.26169E+08
 
   -0.43791E+08        -0.32488E+06         0.00000E+00
   -0.32488E+06        -0.49902E+08         0.00000E+00
    0.00000E+00         0.00000E+00        -0.25099E+08
 
   -0.42918E+08        -0.38112E+06         0.00000E+00
   -0.38112E+06        -0.49791E+08         0.00000E+00
    0.00000E+00         0.00000E+00        -0.24240E+08
 
   -0.42095E+08        -0.42302E+06         0.00000E+00
   -0.42302E+06        -0.49661E+08         0.00000E+00
    0.00000E+00         0.00000E+00        -0.23528E+08
 
   -0.41327E+08        -0.45359E+06         0.00000E+00
   -0.45359E+06        -0.49516E+08         0.00000E+00
    0.00000E+00         0.00000E+00        -0.22922E+08
 
   -0.40607E+08        -0.48022E+06         0.00000E+00
   -0.48022E+06        -0.49345E+08         0.00000E+00
    0.00000E+00         0.00000E+00        -0.22466E+08
 
   -0.39924E+08        -0.49551E+06         0.00000E+00
   -0.49551E+06        -0.49158E+08         0.00000E+00
    0.00000E+00         0.00000E+00        -0.22284E+08
 
   -0.39293E+08        -0.49975E+06         0.00000E+00
   -0.49975E+06        -0.48971E+08         0.00000E+00
    0.00000E+00         0.00000E+00        -0.22164E+08
 
   -0.38710E+08        -0.49669E+06         0.00000E+00
   -0.49669E+06        -0.48785E+08         0.00000E+00
    0.00000E+00         0.00000E+00        -0.22051E+08
 
   -0.38155E+08        -0.48623E+06         0.00000E+00
   -0.48623E+06        -0.48607E+08         0.00000E+00
    0.00000E+00         0.00000E+00        -0.21950E+08
 
   -0.37626E+08        -0.46768E+06         0.00000E+00
   -0.46768E+06        -0.48432E+08         0.00000E+00
    0.00000E+00         0.00000E+00        -0.21856E+08
 
   -0.37128E+08        -0.44534E+06         0.00000E+00
   -0.44534E+06        -0.48261E+08         0.00000E+00
    0.00000E+00         0.00000E+00        -0.21770E+08
 
   -0.36666E+08        -0.42202E+06         0.00000E+00
   -0.42202E+06        -0.48098E+08         0.00000E+00
    0.00000E+00         0.00000E+00        -0.21691E+08
 
   -0.36231E+08        -0.39841E+06         0.00000E+00
   -0.39841E+06        -0.47942E+08         0.00000E+00
    0.00000E+00         0.00000E+00        -0.21620E+08
 
   -0.35819E+08        -0.37465E+06         0.00000E+00
   -0.37465E+06        -0.47794E+08         0.00000E+00
    0.00000E+00         0.00000E+00        -0.21557E+08
 
   -0.35428E+08        -0.35061E+06         0.00000E+00
   -0.35061E+06        -0.47655E+08         0.00000E+00
    0.00000E+00         0.00000E+00        -0.21501E+08
 
   -0.35054E+08        -0.32639E+06         0.00000E+00
   -0.32639E+06        -0.47524E+08         0.00000E+00
    0.00000E+00         0.00000E+00        -0.21453E+08
 
   -0.34695E+08        -0.30216E+06         0.00000E+00
   -0.30216E+06        -0.47402E+08         0.00000E+00
    0.00000E+00         0.00000E+00        -0.21412E+08
 
   -0.34350E+08        -0.27801E+06         0.00000E+00
   -0.27801E+06        -0.47290E+08         0.00000E+00
    0.00000E+00         0.00000E+00        -0.21380E+08
 
   -0.34017E+08        -0.25397E+06         0.00000E+00
   -0.25397E+06        -0.47186E+08         0.00000E+00
    0.00000E+00         0.00000E+00        -0.21355E+08
 
   -0.33696E+08        -0.23018E+06         0.00000E+00
   -0.23018E+06        -0.47092E+08         0.00000E+00
    0.00000E+00         0.00000E+00        -0.21339E+08
 
   -0.33386E+08        -0.20685E+06         0.00000E+00
   -0.20685E+06        -0.47006E+08         0.00000E+00
    0.00000E+00         0.00000E+00        -0.21331E+08
 
   -0.33086E+08        -0.18413E+06         0.00000E+00
   -0.18413E+06        -0.46930E+08         0.00000E+00
    0.00000E+00         0.00000E+00        -0.21331E+08
 
   -0.32796E+08        -0.16209E+06         0.00000E+00
   -0.16209E+06        -0.46863E+08         0.00000E+00
    0.00000E+00         0.00000E+00        -0.21339E+08
 
   -0.32515E+08        -0.14087E+06         0.00000E+00
   -0.14087E+06        -0.46805E+08         0.00000E+00
    0.00000E+00         0.00000E+00        -0.21355E+08
 
   -0.32244E+08        -0.12045E+06         0.00000E+00
   -0.12045E+06        -0.46754E+08         0.00000E+00
    0.00000E+00         0.00000E+00        -0.21378E+08
 
   -0.31981E+08        -0.10078E+06         0.00000E+00
   -0.10078E+06        -0.46712E+08         0.00000E+00
    0.00000E+00         0.00000E+00        -0.21409E+08
 
   -0.31728E+08        -0.81460E+05         0.00000E+00
   -0.81460E+05        -0.46677E+08         0.00000E+00
    0.00000E+00         0.00000E+00        -0.21447E+08
 
   -0.31482E+08        -0.62216E+05         0.00000E+00
   -0.62216E+05        -0.46650E+08         0.00000E+00
    0.00000E+00         0.00000E+00        -0.21493E+08
 
   -0.31244E+08        -0.42941E+05         0.00000E+00
   -0.42941E+05        -0.46631E+08         0.00000E+00
    0.00000E+00         0.00000E+00        -0.21546E+08
 
   -0.31012E+08        -0.23533E+05         0.00000E+00
   -0.23533E+05        -0.46619E+08         0.00000E+00
    0.00000E+00         0.00000E+00        -0.21607E+08
 
   -0.30787E+08        -0.40548E+04         0.00000E+00
   -0.40548E+04        -0.46616E+08         0.00000E+00
    0.00000E+00         0.00000E+00        -0.21676E+08
 
   -0.30566E+08         0.15606E+05         0.00000E+00
    0.15606E+05        -0.46620E+08         0.00000E+00
    0.00000E+00         0.00000E+00        -0.21753E+08
 
   -0.30351E+08         0.35634E+05         0.00000E+00
    0.35634E+05        -0.46632E+08         0.00000E+00
    0.00000E+00         0.00000E+00        -0.21840E+08
 
   -0.30139E+08         0.56390E+05         0.00000E+00
    0.56390E+05        -0.46652E+08         0.00000E+00
    0.00000E+00         0.00000E+00        -0.21936E+08
 
   -0.29929E+08         0.78117E+05         0.00000E+00
    0.78117E+05        -0.46681E+08         0.00000E+00
    0.00000E+00         0.00000E+00        -0.22044E+08
 
   -0.29721E+08         0.10091E+06         0.00000E+00
    0.10091E+06        -0.46719E+08         0.00000E+00
    0.00000E+00         0.00000E+00        -0.22163E+08
 
   -0.29512E+08         0.12494E+06         0.00000E+00
    0.12494E+06        -0.46766E+08         0.00000E+00
    0.00000E+00         0.00000E+00        -0.22296E+08
 
   -0.29302E+08         0.15075E+06         0.00000E+00
    0.15075E+06        -0.46824E+08         0.00000E+00
    0.00000E+00         0.00000E+00        -0.22444E+08
 
   -0.29090E+08         0.17887E+06         0.00000E+00
    0.17887E+06        -0.46892E+08         0.00000E+00
    0.00000E+00         0.00000E+00        -0.22609E+08
 
   -0.28875E+08         0.20989E+06         0.00000E+00
    0.20989E+06        -0.46972E+08         0.00000E+00
    0.00000E+00         0.00000E+00        -0.22794E+08
 
   -0.28656E+08         0.24460E+06         0.00000E+00
    0.24460E+06        -0.47065E+08         0.00000E+00
    0.00000E+00         0.00000E+00        -0.23002E+08
 
   -0.28431E+08         0.28370E+06         0.00000E+00
    0.28370E+06        -0.47173E+08         0.00000E+00
    0.00000E+00         0.00000E+00        -0.23237E+08
 
   -0.28200E+08         0.32900E+06         0.00000E+00
    0.32900E+06        -0.47297E+08         0.00000E+00
    0.00000E+00         0.00000E+00        -0.23503E+08
 
   -0.27962E+08         0.38303E+06         0.00000E+00
    0.38303E+06        -0.47439E+08         0.00000E+00
    0.00000E+00         0.00000E+00        -0.23806E+08
 
   -0.27712E+08         0.44886E+06         0.00000E+00
    0.44886E+06        -0.47604E+08         0.00000E+00
    0.00000E+00         0.00000E+00        -0.24157E+08
 
   -0.27434E+08         0.52955E+06         0.00000E+00
    0.52955E+06        -0.47795E+08         0.00000E+00
    0.00000E+00         0.00000E+00        -0.24577E+08
 
   -0.27155E+08         0.63178E+06         0.00000E+00
    0.63178E+06        -0.48014E+08         0.00000E+00
    0.00000E+00         0.00000E+00        -0.25061E+08
 
   -0.26885E+08         0.76764E+06         0.00000E+00
    0.76764E+06        -0.48265E+08         0.00000E+00
    0.00000E+00         0.00000E+00        -0.25615E+08
 
   -0.26632E+08         0.93374E+06         0.00000E+00
    0.93374E+06        -0.48548E+08         0.00000E+00
    0.00000E+00         0.00000E+00        -0.26238E+08
 
SCALARS stresss double 
LOOKUP_TABLE default
  -54217634.6336913     
  -54667427.9541677     
  -55130260.8385855     
  -55575954.1107748     
  -55990641.6504223     
  -56334364.3752893     
  -56657477.2022812     
  -56969240.2298171     
  -57266850.6615188     
  -57551021.7428121     
  -57821776.1243680     
  -58080493.4934544     
  -58327803.9207263     
  -58564739.3014318     
  -58789648.8910961     
  -59004747.3972481     
  -59209870.8930518     
  -59405047.6754769     
  -59591015.9687149     
  -59767653.0347619     
  -59933716.8005077     
  -60094616.4053924     
  -60248563.5845832     
  -60393334.1270389     
  -60529579.3328187     
  -60657682.7096470     
  -60779854.7752216     
  -60892812.3304349     
  -60996308.6566024     
  -61090420.7903629     
  -61175191.8114083     
  -61250615.9050731     
  -61316713.7557093     
  -61373638.7760049     
  -61421599.7943402     
  -61460826.2168364     
  -61491499.8913998     
  -61513707.8338159     
  -61527313.1899689     
  -61531957.4004766     
  -61526960.1704970     
  -61511402.3169263     
  -61484074.5172075     
  -61443362.4529461     
  -61387102.2517727     
  -61312601.9307482     
  -61218753.0823226     
  -61094669.0667115     
  -60935124.0880082     
  -60742106.0829203     
  -55865566.1031159     
  -56017897.7603368     
  -56210893.8156481     
  -56411115.0534547     
  -56605457.4182685     
  -56805692.4427024     
  -57005903.7383564     
  -57204173.0385303     
  -57399007.0716341     
  -57590383.7192549     
  -57775006.4060023     
  -57954399.7249857     
  -58129097.9025480     
  -58298657.6583427     
  -58459408.8565013     
  -58614681.0619653     
  -58764685.6775376     
  -58908705.4541441     
  -59047331.6902332     
  -59180658.7203104     
  -59309178.7768846     
  -59434258.5561960     
  -59555521.9785609     
  -59672294.3393769     
  -59784792.5760668     
  -59893168.9964005     
  -59997337.4901632     
  -60096152.2903889     
  -60188945.6430290     
  -60275069.9958213     
  -60353985.6055641     
  -60424857.8166310     
  -60487001.9049105     
  -60539937.0840955     
  -60583414.9362521     
  -60617512.8490934     
  -60642413.9108940     
  -60658493.4044562     
  -60666041.0826067     
  -60664635.2317174     
  -60653928.4488387     
  -60632986.6306876     
  -60600198.5185730     
  -60553494.1938368     
  -60490358.8455023     
  -60408153.4796562     
  -60306479.2199799     
  -60180736.7398095     
  -60023935.7894472     
  -59817713.2644127     
  -56676502.5487139     
  -56791692.1599739     
  -56883891.2120989     
  -56970599.3565684     
  -57059826.2131483     
  -57150970.0187574     
  -57245298.1435604     
  -57342996.1752937     
  -57443718.3464840     
  -57547001.5637756     
  -57651552.2960989     
  -57757212.9401109     
  -57863984.3038278     
  -57970871.1020072     
  -58077915.9271193     
  -58184163.1592530     
  -58289423.4997042     
  -58393531.7745100     
  -58496676.9187964     
  -58598630.0154194     
  -58699010.5640978     
  -58797466.1762242     
  -58894090.2048695     
  -58988756.0626184     
  -59081151.0093087     
  -59170942.8074918     
  -59257814.3949638     
  -59341662.7085622     
  -59422161.7284715     
  -59498894.6522817     
  -59571240.3698548     
  -59638108.0537101     
  -59698204.2954711     
  -59749911.0002785     
  -59791459.4730964     
  -59821478.8802139     
  -59839869.8578150     
  -59846348.5327089     
  -59840988.6678461     
  -59825571.2188684     
  -59799272.3416514     
  -59761811.4959690     
  -59712654.4143175     
  -59650216.8888593     
  -59573166.5111770     
  -59479449.8632195     
  -59365828.7364817     
  -59232794.1242769     
  -59086401.2589180     
  -58940980.7764323     
  -57339533.0518285     
  -57260783.8136177     
  -57219559.4789415     
  -57200258.9989693     
  -57198898.4216575     
  -57212246.7767046     
  -57237026.1782770     
  -57271316.1543172     
  -57313532.0008326     
  -57362377.2135855     
  -57417040.4665567     
  -57476468.4516667     
  -57539669.6216548     
  -57606210.7898441     
  -57673648.8312916     
  -57741726.9241385     
  -57811743.8806359     
  -57883267.8353408     
  -57955700.6092774     
  -58028583.6545976     
  -58101575.8632554     
  -58174424.8891746     
  -58246847.6079374     
  -58318625.1834029     
  -58389620.8289792     
  -58459694.8180877     
  -58528741.0752366     
  -58596605.7527004     
  -58663154.7026589     
  -58728231.1502977     
  -58791521.0327103     
  -58852524.0184040     
  -58910437.7681123     
  -58963993.8455162     
  -59011137.9606411     
  -59048197.8625220     
  -59068257.4078597     
  -59070822.6111086     
  -59058689.3512435     
  -59026699.1579029     
  -58979666.1678193     
  -58919772.9168413     
  -58847979.7568634     
  -58767644.0190993     
  -58677151.5356905     
  -58576926.9506996     
  -58468430.1575935     
  -58351269.4355047     
  -58226659.3834610     
  -58096507.8386188     
  -57464707.0108422     
  -57376987.4572438     
  -57304613.9904038     
  -57244397.1369181     
  -57200600.9301487     
  -57170625.3202532     
  -57152583.6007824     
  -57144790.1692648     
  -57145879.8019159     
  -57154720.1506499     
  -57170342.0498690     
  -57191914.7244156     
  -57218752.1101615     
  -57250237.8206905     
  -57284452.1789597     
  -57321183.9010778     
  -57361585.1108639     
  -57404724.2034030     
  -57449977.8279019     
  -57496856.6836320     
  -57544951.5778418     
  -57593917.8937974     
  -57643463.9299485     
  -57693330.7440061     
  -57743309.6993994     
  -57793218.5083882     
  -57842873.9075863     
  -57892125.0277777     
  -57940825.3177906     
  -57988828.5038007     
  -58036013.6818240     
  -58082273.7571343     
  -58127509.5818191     
  -58171654.3491931     
  -58214690.3395343     
  -58255182.6603094     
  -58285135.1852244     
  -58308889.3454693     
  -58299197.7596897     
  -58274994.7949699     
  -58224466.6859093     
  -58151748.3754762     
  -58067172.8319513     
  -57965325.5817319     
  -57857665.2145593     
  -57747569.9824357     
  -57637825.6969963     
  -57531600.8438147     
  -57423743.3607164     
  -57309495.2305799     
  -57216774.3299478     
  -57178976.7408455     
  -57139644.9362074     
  -57102630.3040441     
  -57068566.4521767     
  -57038958.3617328     
  -57014444.0603436     
  -56995242.4483919     
  -56981294.3452241     
  -56972382.8093624     
  -56968203.3831374     
  -56968398.4328493     
  -56972561.1045237     
  -56980250.4282559     
  -56991270.2529054     
  -57005320.2626495     
  -57022014.7455734     
  -57041179.1524300     
  -57062531.7338462     
  -57085765.8735735     
  -57110576.6333813     
  -57136669.7125187     
  -57163765.9201825     
  -57191603.4304908     
  -57219932.3110241     
  -57248518.1937176     
  -57277146.4232248     
  -57305614.6146694     
  -57333738.7314057     
  -57361357.6087297     
  -57388335.6772237     
  -57414576.3385770     
  -57440042.2741305     
  -57464780.6340415     
  -57488970.0381911     
  -57511606.1573778     
  -57526549.9747298     
  -57542586.4477414     
  -57536130.9886408     
  -57530045.5675251     
  -57504750.6733208     
  -57470003.4281517     
  -57387009.3075496     
  -57294971.8240678     
  -57180026.1910150     
  -57056585.0752999     
  -56933587.3875959     
  -56806222.5583977     
  -56688304.7708066     
  -56581820.8842549     
  -56994442.0661890     
  -56952442.0137296     
  -56914360.2834277     
  -56879040.1969202     
  -56846542.5086541     
  -56816792.8051508     
  -56789915.7786014     
  -56766039.9813065     
  -56745250.8877065     
  -56727573.0531839     
  -56712972.5291983     
  -56701368.0889693     
  -56692650.5361152     
  -56686699.4896266     
  -56683321.0778287     
  -56682333.2297881     
  -56683563.1052381     
  -56686784.8434261     
  -56691801.9950381     
  -56698418.9481795     
  -56706436.2223451     
  -56715651.5993775     
  -56725861.6094658     
  -56736862.9536499     
  -56748455.1055537     
  -56760439.8471183     
  -56772620.2636723     
  -56784802.3090433     
  -56796792.3720166     
  -56808394.3582562     
  -56819405.7858526     
  -56829608.4861428     
  -56838751.9106354     
  -56846524.2533408     
  -56852495.8606088     
  -56856423.0697022     
  -56859432.5356611     
  -56858626.9859194     
  -56857369.1773791     
  -56854237.7218247     
  -56834725.9711284     
  -56815620.1897320     
  -56759665.0302045     
  -56706401.8357016     
  -56628876.5477431     
  -56541895.5937840     
  -56408678.1177127     
  -56274397.4529216     
  -56123351.1854284     
  -55976386.8713199     
  -56764387.0106327     
  -56720367.6939644     
  -56678532.3663148     
  -56639293.3812854     
  -56602629.8969416     
  -56568540.7439526     
  -56536975.2305790     
  -56507886.4694318     
  -56481232.1664845     
  -56456969.4699951     
  -56435048.9050395     
  -56415410.1272794     
  -56397977.4543013     
  -56382655.8851075     
  -56369349.4556497     
  -56357944.7586244     
  -56348314.9317211     
  -56340335.6694481     
  -56333866.8939571     
  -56328763.7503513     
  -56324878.4202904     
  -56322060.2381138     
  -56320155.9073810     
  -56319009.6930213     
  -56318463.1688550     
  -56318355.4873304     
  -56318523.4149753     
  -56318800.2812395     
  -56319015.4357732     
  -56318993.2715291     
  -56318551.9501833     
  -56317503.1764061     
  -56315654.5215534     
  -56312818.1049110     
  -56308836.3697995     
  -56303520.3022929     
  -56296297.4118968     
  -56287663.5922487     
  -56276391.0471821     
  -56262156.1815192     
  -56248184.0281827     
  -56229641.7768079     
  -56211822.0405146     
  -56190655.4225974     
  -56145942.6446998     
  -56098715.8369271     
  -56011025.5646861     
  -55923393.4074713     
  -55804162.9822722     
  -55651491.0382430     
  -56527612.7593579     
  -56479143.4680918     
  -56433386.9292950     
  -56390122.7533840     
  -56349283.1194315     
  -56310797.6777624     
  -56274606.6018220     
  -56240645.5987870     
  -56208846.9382346     
  -56179140.5955942     
  -56151454.5724997     
  -56125714.3392069     
  -56101842.6751591     
  -56079760.3278076     
  -56059381.2084074     
  -56040616.1861727     
  -56023372.3668801     
  -56007550.1516487     
  -55993048.3897688     
  -55979761.8670684     
  -55967581.8064001     
  -55956396.5896135     
  -55946092.2249425     
  -55936552.6941755     
  -55927660.3200679     
  -55919295.9299058     
  -55911339.0196548     
  -55903668.1496728     
  -55896161.2188179     
  -55888695.9352794     
  -55881150.5686342     
  -55873404.7794483     
  -55865340.1145415     
  -55856838.5693906     
  -55847773.8176532     
  -55838021.5798590     
  -55827563.6626382     
  -55816092.5801946     
  -55803759.1302227     
  -55790575.1316374     
  -55775610.8877121     
  -55760042.5501471     
  -55742210.1316011     
  -55722375.7008165     
  -55705428.3048689     
  -55684922.4958049     
  -55667488.3789145     
  -55644980.6814668     
  -55599267.7491309     
  -55532303.6550584     
  -56278359.4942743     
  -56227498.6623192     
  -56179038.4505922     
  -56132932.1289888     
  -56089091.0752402     
  -56047434.1324293     
  -56007882.4838398     
  -55970361.6258789     
  -55934799.2699466     
  -55901124.0046158     
  -55869264.5763150     
  -55839149.5771552     
  -55810707.0729726     
  -55783863.9380471     
  -55758546.6925893     
  -55734680.4244729     
  -55712188.8824196     
  -55690995.0986639     
  -55671020.2433741     
  -55652184.5419667     
  -55634407.3236001     
  -55617607.1326899     
  -55601701.9827968     
  -55586609.6766790     
  -55572248.1506438     
  -55558535.9054007     
  -55545392.4874346     
  -55532738.9825878     
  -55520498.6252053     
  -55508597.4516738     
  -55496964.9684166     
  -55485534.8462871     
  -55474245.7110822     
  -55463042.5525816     
  -55451881.0227240     
  -55440728.5495159     
  -55429536.2671440     
  -55418350.9846727     
  -55407122.5576346     
  -55395837.3119001     
  -55384759.3076715     
  -55373629.3376824     
  -55363004.1361622     
  -55353155.9072575     
  -55343173.1793442     
  -55335148.2795430     
  -55327608.1698585     
  -55322741.2727704     
  -55326561.6783955     
  -55338401.0389243     
  -56016531.0831670     
  -55965043.5219275     
  -55915730.6155054     
  -55868508.9462016     
  -55823311.1156262     
  -55780069.7503309     
  -55738718.9658665     
  -55699193.7485215     
  -55661430.2646060     
  -55625365.7940613     
  -55590938.5018860     
  -55558087.1614635     
  -55526750.9644431     
  -55496869.5034791     
  -55468382.4248996     
  -55441229.5781602     
  -55415350.9405351     
  -55390686.4943470     
  -55367176.5618180     
  -55344761.6715413     
  -55323382.7431594     
  -55302981.2900662     
  -55283499.6356064     
  -55264881.1717288     
  -55247070.6714340     
  -55230014.6402671     
  -55213661.7168611     
  -55197963.1341847     
  -55182873.2203455     
  -55168349.9635639     
  -55154355.6629149     
  -55140857.6936049     
  -55127829.4205535     
  -55115251.1659738     
  -55103110.4479708     
  -55091402.7537931     
  -55080141.6543493     
  -55069329.8250966     
  -55059010.8042334     
  -55049244.3960154     
  -55040040.5704670     
  -55031577.9901436     
  -55023853.0868760     
  -55016928.9792844     
  -55011218.3442086     
  -55006378.8511305     
  -55003071.2653838     
  -55001124.0960984     
  -54999097.0074817     
  -54996452.9938819     
  -55744283.0773134     
  -55693859.4632396     
  -55645285.3327095     
  -55598512.6631168     
  -55553489.8667310     
  -55510166.6415391     
  -55468493.3061155     
  -55428420.8183046     
  -55389900.6024832     
  -55352884.5141890     
  -55317324.8416161     
  -55283174.3154208     
  -55250386.1039898     
  -55218913.7727876     
  -55188711.3498151     
  -55159733.3009565     
  -55131934.5851894     
  -55105270.7433627     
  -55079697.9127602     
  -55055172.9909189     
  -55031653.7419575     
  -55009098.9388792     
  -54987468.5376752     
  -54966723.8743044     
  -54946827.8824820     
  -54927745.3362893     
  -54909443.1153045     
  -54891890.4893814     
  -54875059.4280992     
  -54858924.9287102     
  -54843465.3557793     
  -54828662.7780123     
  -54814503.2755149     
  -54800977.2144077     
  -54788079.7256291     
  -54775811.1612524     
  -54764174.5992661     
  -54753184.2449419     
  -54742852.6123442     
  -54733194.8168954     
  -54724246.7806475     
  -54716004.5731366     
  -54708512.8911062     
  -54701808.0089237     
  -54695827.7124836     
  -54690697.4326598     
  -54686251.8210548     
  -54682472.5640693     
  -54679683.5062301     
  -54678175.8556694     
  -55465204.1110119     
  -55417075.7027582     
  -55370476.1448850     
  -55325373.7497951     
  -55281737.3371007     
  -55239534.9381389     
  -55198734.1730354     
  -55159302.3612767     
  -55121206.6500087     
  -55084414.0890559     
  -55048891.6949934     
  -55014606.5130557     
  -54981525.6822527     
  -54949616.5130781     
  -54918846.5426390     
  -54889183.6169180     
  -54860595.9629636     
  -54833052.2651006     
  -54806521.7692595     
  -54780974.3630671     
  -54756380.6861398     
  -54732712.2428971     
  -54709941.5207129     
  -54688042.1153396     
  -54666988.8627129     
  -54646757.9744092     
  -54627327.1749835     
  -54608675.8387766     
  -54590785.1207807     
  -54573638.0773150     
  -54557219.7706450     
  -54541517.3525921     
  -54526520.1259447     
  -54512219.5781514     
  -54498609.2997233     
  -54485684.7846437     
  -54473444.0322554     
  -54461884.9524701     
  -54451008.0484959     
  -54440815.1443708     
  -54431303.3221336     
  -54422480.4129914     
  -54414341.5193609     
  -54406879.7818243     
  -54400111.8277409     
  -54394001.1877341     
  -54388586.2888751     
  -54383881.4003702     
  -54379811.4727432     
  -54376251.0063224     
  -55183256.0652146     
  -55138228.5792022     
  -55094425.0801799     
  -55051831.6423366     
  -55010432.7867239     
  -54970212.0543939     
  -54931152.0571010     
  -54893234.6069291     
  -54856440.8313216     
  -54820751.2907154     
  -54786146.0874289     
  -54752604.9668606     
  -54720107.4126185     
  -54688632.7343709     
  -54658160.1589279     
  -54628668.9137335     
  -54600138.3122990     
  -54572547.8386966     
  -54545877.2266629     
  -54520106.5460022     
  -54495216.2822800     
  -54471187.4175533     
  -54448001.5101934     
  -54425640.7723198     
  -54404088.1438191     
  -54383327.3618629     
  -54363343.0241290     
  -54344120.6435976     
  -54325646.6930282     
  -54307908.6365612     
  -54290894.9459676     
  -54274595.0983750     
  -54258999.5502909     
  -54244099.6818678     
  -54229887.7307200     
  -54216356.7251968     
  -54203500.1212123     
  -54191312.2846071     
  -54179787.6071830     
  -54168920.4462522     
  -54158706.5852512     
  -54149138.7797048     
  -54140212.3809005     
  -54131923.1810068     
  -54124259.9950492     
  -54117225.1497923     
  -54110800.5382876     
  -54104968.2881525     
  -54099728.9079233     
  -54095107.6435663     
  -54902161.2230392     
  -54860673.3950306     
  -54820138.7955070     
  -54780555.7510400     
  -54741921.1964649     
  -54704230.6969789     
  -54667478.6130178     
  -54631658.2258710     
  -54596761.8571062     
  -54562780.9788782     
  -54529706.3191797     
  -54497527.9620208     
  -54466235.4425760     
  -54435817.8384908     
  -54406263.8553367     
  -54377561.9093480     
  -54349700.2056561     
  -54322666.8130540     
  -54296449.7363127     
  -54271036.9830718     
  -54246416.6287273     
  -54222576.8767944     
  -54199506.1149265     
  -54177192.9662851     
  -54155626.3356466     
  -54134795.4495234     
  -54114689.8896044     
  -54095299.6187981     
  -54076614.9990327     
  -54058626.8000860     
  -54041326.1987057     
  -54024704.7675764     
  -54008754.4546601     
  -53993467.5548096     
  -53978836.6688990     
  -53964854.6450385     
  -53951514.5975617     
  -53938809.6837345     
  -53926733.2141511     
  -53915278.5946078     
  -53904438.7909657     
  -53894207.4146308     
  -53884577.2415219     
  -53875540.4423623     
  -53867090.5490221     
  -53859216.7411354     
  -53851912.4876908     
  -53845171.4932981     
  -53838983.2126842     
  -53833326.7134103     
  -54625074.1414893     
  -54587291.3087991     
  -54550229.1534413     
  -54513894.8176091     
  -54478293.9182567     
  -54443430.6914399     
  -54409308.0888731     
  -54375927.8812045     
  -54343290.7568117     
  -54311396.4169478     
  -54280243.6663797     
  -54249830.4998746     
  -54220154.1847768     
  -54191211.3394876     
  -54162998.0085004     
  -54135509.7333622     
  -54108741.6200601     
  -54082688.4026107     
  -54057344.5026420     
  -54032704.0855906     
  -54008761.1125157     
  -53985509.3880324     
  -53962942.6040210     
  -53941054.3789008     
  -53919838.2922962     
  -53899287.9149166     
  -53879396.8334579     
  -53860158.6703573     
  -53841567.0983075     
  -53823615.8494883     
  -53806298.7196094     
  -53789609.5669576     
  -53773542.3065586     
  -53758090.8991999     
  -53743249.3370943     
  -53729011.6295961     
  -53715371.7599197     
  -53702323.7032197     
  -53689861.3591525     
  -53677978.5119733     
  -53666668.9352234     
  -53655926.0536147     
  -53645743.2492644     
  -53636113.8090301     
  -53627030.3297107     
  -53618486.2565629     
  -53610473.7017383     
  -53602984.1274333     
  -53596009.2744817     
  -53589543.9117536     
  -54354477.4210847     
  -54320375.2654168     
  -54286799.2885286     
  -54253762.3358842     
  -54221275.8477370     
  -54189349.9324533     
  -54157993.4505746     
  -54127214.0933024     
  -54097018.4589754     
  -54067412.1271333     
  -54038399.7302415     
  -54009985.0228514     
  -53982170.9480566     
  -53954959.7012537     
  -53928352.7909987     
  -53902351.0970566     
  -53876954.9254769     
  -53852164.0606919     
  -53827977.8146129     
  -53804395.0725062     
  -53781414.3358164     
  -53759033.7617078     
  -53737251.1993286     
  -53716064.2227550     
  -53695470.1605707     
  -53675466.1220547     
  -53656049.0199762     
  -53637215.5900225     
  -53618962.4069051     
  -53601285.8972252     
  -53584182.3491960     
  -53567647.9193338     
  -53551678.6363029     
  -53536270.4022912     
  -53521418.9917913     
  -53507120.0468377     
  -53493369.0780779     
  -53480161.4471529     
  -53467492.3681865     
  -53455356.9047646     
  -53443749.9226435     
  -53432666.1626377     
  -53422100.1555505     
  -53412046.2105203     
  -53402498.5728400     
  -53393450.9926686     
  -53384897.2449382     
  -53376831.0284992     
  -53369245.8175047     
  -53362133.8570325     
  -54092204.9397030     
  -54061636.8975750     
  -54031435.3406647     
  -54001616.5860170     
  -53972195.6775514     
  -53943186.4476728     
  -53914601.5747926     
  -53886452.6412160     
  -53858750.1899577     
  -53831503.7803944     
  -53804722.0425536     
  -53778412.7299317     
  -53752582.7707214     
  -53727238.3173074     
  -53702384.7939583     
  -53678026.9425879     
  -53654168.8665267     
  -53630814.0722207     
  -53607965.5087856     
  -53585625.6054024     
  -53563796.3064499     
  -53542479.1043881     
  -53521675.0703477     
  -53501384.8824120     
  -53481608.8515951     
  -53462346.9455248     
  -53443598.8098590     
  -53425363.7874750     
  -53407640.9354851     
  -53390429.0401510     
  -53373726.6297863     
  -53357531.9857577     
  -53341843.1517093     
  -53326657.9410919     
  -53311973.9432387     
  -53297788.5286148     
  -53284098.8506763     
  -53270901.8513385     
  -53258194.2608570     
  -53245972.5971063     
  -53234233.1776565     
  -53222972.0994675     
  -53212185.2569600     
  -53201868.3467122     
  -53192016.8208610     
  -53182626.0038997     
  -53173690.9727277     
  -53165206.5686180     
  -53157167.4078639     
  -53149568.2204879     
  -53839525.4810705     
  -53812272.0193019     
  -53785255.9303103     
  -53758495.3781234     
  -53732007.4098075     
  -53705807.9962674     
  -53679912.0740651     
  -53654333.5867400     
  -53629085.5258635     
  -53604179.9716375     
  -53579628.1329017     
  -53555440.3864062     
  -53531626.3152265     
  -53508194.7462200     
  -53485153.7864139     
  -53462510.8582456     
  -53440272.7335697     
  -53418445.5663632     
  -53397034.9240724     
  -53376045.8175405     
  -53355482.7294896     
  -53335349.6415135     
  -53315650.0595647     
  -53296387.0379233     
  -53277563.2016450     
  -53259180.7674951     
  -53241241.5633872     
  -53223747.0463523     
  -53206698.3190774     
  -53190096.1450601     
  -53173940.9624350     
  -53158232.8965371     
  -53142971.7712724     
  -53128157.1193956     
  -53113788.1917628     
  -53099863.9654891     
  -53086383.1519250     
  -53073344.2027060     
  -53060745.3163057     
  -53048584.4443527     
  -53036859.2936131     
  -53025567.3361532     
  -53014705.8100874     
  -53004271.7223218     
  -52994261.8669756     
  -52984672.7992967     
  -52975500.8677734     
  -52966742.2195375     
  -52958392.8133523     
  -52950448.3204248     
  -53597243.8458402     
  -53573046.8142159     
  -53548984.2479759     
  -53525075.0243381     
  -53501337.0541444     
  -53477787.3106722     
  -53454441.8584615     
  -53431315.8824171     
  -53408423.7169391     
  -53385778.8749845     
  -53363394.0769506     
  -53341281.2792810     
  -53319451.7026990     
  -53297915.8599767     
  -53276683.5831613     
  -53255764.0501794     
  -53235165.8107558     
  -53214896.8115823     
  -53194964.4206859     
  -53175375.4509513     
  -53156136.1827547     
  -53137252.3856826     
  -53118729.3393088     
  -53100571.8530133     
  -53082784.2848331     
  -53065370.5593432     
  -53048334.1845702     
  -53031678.2679502     
  -53015405.5313484     
  -52999518.3251613     
  -52984018.6415318     
  -52968908.1267108     
  -52954188.0926039     
  -52939859.5275407     
  -52925923.1063154     
  -52912379.1996048     
  -52899227.8825725     
  -52886468.9432083     
  -52874101.8898834     
  -52862125.9582800     
  -52850540.1190457     
  -52839343.0828665     
  -52828533.3073930     
  -52818109.0037125     
  -52808068.1378262     
  -52798408.4439408     
  -52789127.4236601     
  -52780222.3504203     
  -52771690.2693917     
  -52763528.0334869     
  -53365797.6691193     
  -53344383.4379098     
  -53323022.8886283     
  -53301734.8284187     
  -53280537.2390704     
  -53259447.2962701     
  -53238481.3893196     
  -53217655.1411255     
  -53196983.4284181     
  -53176480.4021120     
  -53156159.5077309     
  -53136033.5058196     
  -53116114.4922734     
  -53096413.9185166     
  -53076942.6114658     
  -53057710.7932212     
  -53038728.1004282     
  -53020003.6032623     
  -53001545.8239908     
  -52983362.7550718     
  -52965461.8767553     
  -52947850.1741564     
  -52930534.1537761     
  -52913519.8594483     
  -52896812.8876986     
  -52880418.4025043     
  -52864341.1494484     
  -52848585.4692669     
  -52833155.3107912     
  -52818054.2432915     
  -52803285.4682316     
  -52788851.8304470     
  -52774755.8287630     
  -52760999.6260718     
  -52747585.0588894     
  -52734513.6463963     
  -52721786.5990538     
  -52709404.8266902     
  -52697368.9462200     
  -52685679.2890244     
  -52674335.9076270     
  -52663338.5825828     
  -52652686.8285244     
  -52642379.8998341     
  -52632416.7974413     
  -52622796.2721408     
  -52613516.8309063     
  -52604576.7418473     
  -52595974.0408512     
  -52587706.5267801     
  -53145341.1226274     
  -53126435.7883333     
  -53107521.8359416     
  -53088617.4734576     
  -53069740.2115405     
  -53050906.8759831     
  -53032133.6205981     
  -53013435.9404801     
  -52994828.6855749     
  -52976326.0745007     
  -52957941.7085642     
  -52939688.5859179     
  -52921579.1158062     
  -52903625.1328480     
  -52885837.9113089     
  -52868228.1793167     
  -52850806.1329776     
  -52833581.4503521     
  -52816563.3052547     
  -52799760.3808429     
  -52783180.8829642     
  -52766832.5532354     
  -52750722.6818269     
  -52734858.1199338     
  -52719245.2919145     
  -52703890.2070807     
  -52688798.4711295     
  -52673975.2972054     
  -52659425.5165884     
  -52645153.5890022     
  -52631163.6125416     
  -52617459.3332202     
  -52604044.1541399     
  -52590921.1442856     
  -52578093.0469517     
  -52565562.2878118     
  -52553330.9826189     
  -52541400.9445799     
  -52529773.6913784     
  -52518450.4518443     
  -52507432.1723934     
  -52496719.5230079     
  -52486312.9030265     
  -52476212.4466789     
  -52466418.0279031     
  -52456929.2657037     
  -52447745.5284676     
  -52438865.9382184     
  -52430289.3738260     
  -52422014.4772596     
  -52935813.6366160     
  -52919152.7506560     
  -52902436.2560161     
  -52885681.4152961     
  -52868904.9084441     
  -52852122.8401486     
  -52835350.7476723     
  -52818603.6090755     
  -52801895.8517905     
  -52785241.3615056     
  -52768653.4913162     
  -52752145.0711034     
  -52735728.4171002     
  -52719415.3416061     
  -52703217.1628148     
  -52687144.7147176     
  -52671208.3570494     
  -52655417.9852452     
  -52639783.0403762     
  -52624312.5190367     
  -52609014.9831570     
  -52593898.5697149     
  -52578971.0003265     
  -52564239.5906928     
  -52549711.2598862     
  -52535392.5394581     
  -52521289.5823552     
  -52507408.1716295     
  -52493753.7289330     
  -52480331.3227859     
  -52467145.6766116     
  -52454201.1765320     
  -52441501.8789170     
  -52429051.5176853     
  -52416853.5113524     
  -52404910.9698233     
  -52393226.7009315     
  -52381803.2167164     
  -52370642.7394438     
  -52359747.2073764     
  -52349118.2802579     
  -52338757.3445731     
  -52328665.5185189     
  -52318843.6566909     
  -52309292.3546246     
  -52300011.9528517     
  -52291002.5408511     
  -52282263.9606647     
  -52273795.8104914     
  -52265597.4470126     
  -52736994.8120568     
  -52722329.3601244     
  -52707573.8834453     
  -52692744.4857867     
  -52677856.7898811     
  -52662925.9410276     
  -52647966.6111239     
  -52632993.0031010     
  -52618018.8557255     
  -52603057.4487398     
  -52588121.6083078     
  -52573223.7127346     
  -52558375.6984311     
  -52543589.0660911     
  -52528874.8870545     
  -52514243.8098266     
  -52499706.0667260     
  -52485271.4806365     
  -52470949.4718359     
  -52456749.0648792     
  -52442678.8955124     
  -52428747.2175959     
  -52414961.9100174     
  -52401330.4835747     
  -52387860.0878109     
  -52374557.5177861     
  -52361429.2207697     
  -52348481.3028391     
  -52335719.5353725     
  -52323149.3614236     
  -52310775.9019674     
  -52298603.9620074     
  -52286638.0365344     
  -52274882.3163301     
  -52263340.6936065     
  -52252016.7674748     
  -52240913.8492374     
  -52230034.9674966     
  -52219382.8730747     
  -52208960.0437362     
  -52198768.6887181     
  -52188810.7530430     
  -52179087.9216289     
  -52169601.6231878     
  -52160353.0338671     
  -52151343.0807145     
  -52142572.4448696     
  -52134041.5645254     
  -52125750.6375497     
  -52117699.6241238     
  -52548547.6772312     
  -52535647.4890796     
  -52522633.0957878     
  -52509519.3257884     
  -52496320.6156479     
  -52483051.0108242     
  -52469724.1668497     
  -52456353.3509113     
  -52442951.4438051     
  -52429530.9422385     
  -52416103.9614553     
  -52402682.2381588     
  -52389277.1337085     
  -52375899.6375668     
  -52362560.3709708     
  -52349269.5908078     
  -52336037.1936717     
  -52322872.7200769     
  -52309785.3588114     
  -52296783.9514063     
  -52283876.9967040     
  -52271072.6555043     
  -52258378.7552731     
  -52245802.7948933     
  -52233351.9494443     
  -52221033.0749934     
  -52208852.7133833     
  -52196817.0970042     
  -52184932.1535345     
  -52173203.5106398     
  -52161636.5006166     
  -52150236.1649706     
  -52139007.2589186     
  -52127954.2558041     
  -52117081.3514161     
  -52106392.4682036     
  -52095891.2593753     
  -52085581.1128770     
  -52075465.1552379     
  -52065546.2552793     
  -52055827.0276743     
  -52046309.8363555     
  -52036996.7977585     
  -52027889.7838933     
  -52018990.4252457     
  -52010300.1134805     
  -52001820.0039566     
  -51993551.0180347     
  -51985493.8452004     
  -51977648.9448884     
  -52370052.4930103     
  -52358707.8866877     
  -52347233.1429633     
  -52335641.7691093     
  -52323946.9579940     
  -52312161.5867359     
  -52300298.2157666     
  -52288369.0882840     
  -52276386.1300726     
  -52264360.9496710     
  -52252304.8388667     
  -52240228.7734960     
  -52228143.4145311     
  -52216059.1094326     
  -52203985.8937491     
  -52191933.4929441     
  -52179911.3244319     
  -52167928.4998044     
  -52155993.8272304     
  -52144115.8140095     
  -52132302.6692657     
  -52120562.3067622     
  -52108902.3478227     
  -52097330.1243435     
  -52085852.6818814     
  -52074476.7828042     
  -52063208.9094878     
  -52052055.2675493     
  -52041021.7891016     
  -52030114.1360177     
  -52019337.7031925     
  -52008697.6217920     
  -51998198.7624773     
  -51987845.7385938     
  -51977642.9093150     
  -51967594.3827318     
  -51957704.0188756     
  -51947975.4326684     
  -51938411.9967893     
  -51929016.8444481     
  -51919792.8720585     
  -51910742.7418003     
  -51901868.8840637     
  -51893173.4997671     
  -51884658.5625357     
  -51876325.8207398     
  -51868176.7993765     
  -51860212.8017925     
  -51852434.9112256     
  -51844843.9921882     
  -52201033.0244063     
  -52191055.2392607     
  -52180937.9545949     
  -52170693.3616832     
  -52160333.4039756     
  -52149869.7742312     
  -52139313.9120419     
  -52128677.0017296     
  -52117969.9705982     
  -52107203.4875240     
  -52096387.9618663     
  -52085533.5426813     
  -52074650.1182234     
  -52063747.3157155     
  -52052834.5013739     
  -52041920.7806702     
  -52031014.9988142     
  -52020125.7414447     
  -52009261.3355087     
  -51998429.8503189     
  -51987639.0987704     
  -51976896.6387062     
  -51966209.7744144     
  -51955585.5582461     
  -51945030.7923386     
  -51934552.0304330     
  -51924155.5797718     
  -51913847.5030665     
  -51903633.6205207     
  -51893519.5118999     
  -51883510.5186346     
  -51873611.7459474     
  -51863828.0649926     
  -51854164.1149979     
  -51844624.3053994     
  -51835212.8179577     
  -51825933.6088484     
  -51816790.4107151     
  -51807786.7346767     
  -51798925.8722804     
  -51790210.8973901     
  -51781644.6680029     
  -51773229.8279831     
  -51764968.8087070     
  -51756863.8306081     
  -51748916.9046155     
  -51741129.8334747     
  -51733504.2129451     
  -51726041.4328647     
  -51718742.6780676     
  -52040976.8403408     
  -52032197.6480976     
  -52023274.7580853     
  -52014219.0866964     
  -52005041.3590710     
  -51995752.1051778     
  -51986361.6562624     
  -51976880.1416472     
  -51967317.4858678     
  -51957683.4061317     
  -51947987.4100844     
  -51938238.7938687     
  -51928446.6404623     
  -51918619.8182809     
  -51908766.9800317     
  -51898896.5618042     
  -51889016.7823845     
  -51879135.6427804     
  -51869260.9259437     
  -51859400.1966770     
  -51849560.8017119     
  -51839749.8699481     
  -51829974.3128383     
  -51820240.8249092     
  -51810555.8844066     
  -51800925.7540527     
  -51791356.4819039     
  -51781853.9022993     
  -51772423.6368893     
  -51763071.0957318     
  -51753801.4784479     
  -51744619.7754263     
  -51735530.7690660     
  -51726539.0350481     
  -51717648.9436275     
  -51708864.6609348     
  -51700190.1502788     
  -51691629.1734419     
  -51683185.2919581     
  -51674861.8683661     
  -51666662.0674277     
  -51658588.8573039     
  -51650645.0106801     
  -51642833.1058316     
  -51635155.5276212     
  -51627614.4684214     
  -51620211.9289515     
  -51612949.7190234     
  -51605829.4581849     
  -51598852.5762571     
  -51889350.8809950     
  -51881621.6533280     
  -51873748.5247623     
  -51865741.2022727     
  -51857609.2490577     
  -51849362.0799457     
  -51841008.9571387     
  -51832558.9862836     
  -51824021.1128566     
  -51815404.1188494     
  -51806716.6197442     
  -51797967.0617661     
  -51789163.7194005     
  -51780314.6931631     
  -51771427.9076116     
  -51762511.1095878     
  -51753571.8666765     
  -51744617.5658727     
  -51735655.4124440     
  -51726692.4289779     
  -51717735.4546030     
  -51708791.1443733     
  -51699865.9688055     
  -51690966.2135582     
  -51682097.9792433     
  -51673267.1813599     
  -51664479.5503395     
  -51655740.6316942     
  -51647055.7862577     
  -51638430.1905092     
  -51629868.8369725     
  -51621376.5346790     
  -51612957.9096879     
  -51604617.4056526     
  -51596359.2844263     
  -51588187.6266980     
  -51580106.3326492     
  -51572119.1226246     
  -51564229.5378071     
  -51556440.9408908     
  -51548756.5167421     
  -51541179.2730416     
  -51533712.0409000     
  -51526357.4754383     
  -51519118.0563266     
  -51511996.0882715     
  -51504993.7014468     
  -51498112.8518584     
  -51491355.3216366     
  -51484722.7192470     
  -51745613.2692008     
  -51738803.7035962     
  -51731853.0668529     
  -51724769.9373658     
  -51717562.7890662     
  -51710239.9864505     
  -51702809.7799176     
  -51695280.3014046     
  -51687659.5603106     
  -51679955.4396975     
  -51672175.6927584     
  -51664327.9395433     
  -51656419.6639315     
  -51648458.2108409     
  -51640450.7836651     
  -51632404.4419272     
  -51624326.0991419     
  -51616222.5208749     
  -51608100.3229918     
  -51599965.9700857     
  -51591825.7740742     
  -51583685.8929587     
  -51575552.3297335     
  -51567430.9314386     
  -51559327.3883464     
  -51551247.2332731     
  -51543195.8410066     
  -51535178.4278426     
  -51527200.0512198     
  -51519265.6094465     
  -51511379.8415104     
  -51503547.3269626     
  -51495772.4858696     
  -51488059.5788227     
  -51480412.7070004     
  -51472835.8122724     
  -51465332.6773412     
  -51457906.9259106     
  -51450562.0228756     
  -51443301.2745262     
  -51436127.8287561     
  -51429044.6752718     
  -51422054.6457925     
  -51415160.4142346     
  -51408364.4968743     
  -51401669.2524801     
  -51395076.8824093     
  -51388589.4306612     
  -51382208.7838796     
  -51375936.6712987     
  -51609222.1368300     
  -51603218.7878898     
  -51597079.4465869     
  -51590811.6520579     
  -51584422.8710502     
  -51577920.4928087     
  -51571311.8242396     
  -51564604.0853429     
  -51557804.4049046     
  -51550919.8164413     
  -51543957.2543869     
  -51536923.5505155     
  -51529825.4305890     
  -51522669.5112245     
  -51515462.2969707     
  -51508210.1775858     
  -51500919.4255099     
  -51493596.1935222     
  -51486246.5125764     
  -51478876.2898048     
  -51471491.3066852     
  -51464097.2173609     
  -51456699.5471072     
  -51449303.6909367     
  -51441914.9123350     
  -51434538.3421203     
  -51427178.9774181     
  -51419841.6807457     
  -51412531.1791968     
  -51405252.0637202     
  -51398008.7884863     
  -51390805.6703315     
  -51383646.8882770     
  -51376536.4831120     
  -51369478.3570363     
  -51362476.2733543     
  -51355533.8562147     
  -51348654.5903881     
  -51341841.8210764     
  -51335098.7537476     
  -51328428.4539890     
  -51321833.8473720     
  -51315317.7193239     
  -51308882.7149972     
  -51302531.3391330     
  -51296265.9559106     
  -51290088.7887776     
  -51284001.9202536     
  -51278007.2917022     
  -51272106.7030649     
  -51479642.0784204     
  -51474346.8016214     
  -51468922.2292070     
  -51463374.9536417     
  -51457711.5207397     
  -51451938.4245891     
  -51446062.1027212     
  -51440088.9315193     
  -51434025.2218586     
  -51427877.2149708     
  -51421651.0785274     
  -51415352.9029340     
  -51408988.6978288     
  -51402564.3887787     
  -51396085.8141670     
  -51389558.7222642     
  -51382988.7684772     
  -51376381.5127683     
  -51369742.4172391     
  -51363076.8438712     
  -51356390.0524181     
  -51349687.1984411     
  -51342973.3314833     
  -51336253.3933740     
  -51329532.2166591     
  -51322814.5231486     
  -51316104.9225772     
  -51309407.9113692     
  -51302727.8715042     
  -51296069.0694747     
  -51289435.6553313     
  -51282831.6618082     
  -51276261.0035232     
  -51269727.4762467     
  -51263234.7562325     
  -51256786.3996054     
  -51250385.8417994     
  -51244036.3970402     
  -51237741.2578662     
  -51231503.4946833     
  -51225326.0553454     
  -51219211.7647576     
  -51213163.3244940     
  -51207183.3124257     
  -51201274.1823535     
  -51195438.2636387     
  -51189677.7608271     
  -51183994.7532612     
  -51178391.1946733     
  -51172868.9127565     
  -51356348.7212801     
  -51351677.1061034     
  -51346884.0088001     
  -51341975.1671524     
  -51336956.2925531     
  -51331833.0651015     
  -51326611.1289132     
  -51321296.0876385     
  -51315893.5001863     
  -51310408.8766438     
  -51304847.6743918     
  -51299215.2944053     
  -51293517.0777375     
  -51287758.3021795     
  -51281944.1790918     
  -51276079.8504008     
  -51270170.3857561     
  -51264220.7798414     
  -51258235.9498359     
  -51252220.7330186     
  -51246179.8845104     
  -51240118.0751503     
  -51234039.8894978     
  -51227949.8239576     
  -51221852.2850206     
  -51215751.5876163     
  -51209651.9535703     
  -51203557.5101626     
  -51197472.2887806     
  -51191400.2236616     
  -51185345.1507196     
  -51179310.8064515     
  -51173300.8269159     
  -51167318.7467819     
  -51161367.9984396     
  -51155451.9111700     
  -51149573.7103664     
  -51143736.5168049     
  -51137943.3459560     
  -51132197.1073352     
  -51126500.6038850     
  -51120856.5313842     
  -51115267.4778804     
  -51109735.9231391     
  -51104264.2381055     
  -51098854.6843737     
  -51093509.4136583     
  -51088230.4672641     
  -51083019.7755479     
  -51077879.1573691     
  -51238831.8050366     
  -51234711.6514940     
  -51230478.5540659     
  -51226137.4844768     
  -51221693.4036471     
  -51217151.2570536     
  -51212515.9702770     
  -51207792.4447293     
  -51202985.5535577     
  -51198100.1377224     
  -51193141.0022419     
  -51188112.9126030     
  -51183020.5913307     
  -51177868.7147138     
  -51172661.9096820     
  -51167404.7508296     
  -51162101.7575824     
  -51156757.3915017     
  -51151376.0537234     
  -51145962.0825255     
  -51140519.7510201     
  -51135053.2649670     
  -51129566.7607020     
  -51124064.3031766     
  -51118549.8841056     
  -51113027.4202155     
  -51107500.7515921     
  -51101973.6401207     
  -51096449.7680151     
  -51090932.7364311     
  -51085426.0641599     
  -51079933.1863966     
  -51074457.4535796     
  -51069002.1302961     
  -51063570.3942500     
  -51058165.3352866     
  -51052789.9544708     
  -51047447.1632134     
  -51042139.7824414     
  -51036870.5418087     
  -51031642.0789410     
  -51026456.9387126     
  -51021317.5725488     
  -51016226.3377515     
  -51011185.4968415     
  -51006197.2169153     
  -51001263.5690103     
  -50996386.5274759     
  -50991567.9693441     
  -50986809.6736979     
  -51126597.0872880     
  -51122966.9623928     
  -51119232.8556373     
  -51115399.0560592     
  -51111469.8535322     
  -51107449.5344566     
  -51103342.3776084     
  -51099152.6501427     
  -51094884.6037488     
  -51090542.4709542     
  -51086130.4615734     
  -51081652.7592998     
  -51077113.5184353     
  -51072516.8607572     
  -51067866.8725156     
  -51063167.6015607     
  -51058423.0545953     
  -51053637.1945491     
  -51048813.9380713     
  -51043957.1531377     
  -51039070.6567702     
  -51034158.2128620     
  -51029223.5301084     
  -51024270.2600371     
  -51019301.9951349     
  -51014322.2670679     
  -51009334.5449901     
  -51004342.2339380     
  -50999348.6733068     
  -50994357.1354038     
  -50989370.8240768     
  -50984392.8734124     
  -50979426.3465008     
  -50974474.2342634     
  -50969539.4543396     
  -50964624.8500283     
  -50959733.1892815     
  -50954867.1637445     
  -50950029.3878409     
  -50945222.3978967     
  -50940448.6513016     
  -50935710.5257015     
  -50931010.3182211     
  -50926350.2447099     
  -50921732.4390107     
  -50917158.9522447     
  -50912631.7521104     
  -50908152.7221926     
  -50903723.6612776     
  -50899346.2826710     
  -51019167.3308289     
  -51015975.2282354     
  -51012688.3036844     
  -51009310.2404459     
  -51005844.7309801     
  -51002295.4729961     
  -50998666.1656431     
  -50994960.5058326     
  -50991182.1846896     
  -50987334.8841293     
  -50983422.2735584     
  -50979448.0066980     
  -50975415.7185255     
  -50971329.0223337     
  -50967191.5069041     
  -50963006.7337912     
  -50958778.2347168     
  -50954509.5090697     
  -50950204.0215093     
  -50945865.1996700     
  -50941496.4319630     
  -50937101.0654738     
  -50932682.4039511     
  -50928243.7058851     
  -50923788.1826721     
  -50919318.9968620     
  -50914839.2604856     
  -50910352.0334598     
  -50905860.3220661     
  -50901367.0774997     
  -50896875.1944868     
  -50892387.5099665     
  -50887906.8018334     
  -50883435.7877394     
  -50878977.1239498     
  -50874533.4042515     
  -50870107.1589098     
  -50865700.8536704     
  -50861316.8888042     
  -50856957.5981907     
  -50852625.2484367     
  -50848322.0380282     
  -50844050.0965112     
  -50839811.4836989     
  -50835608.1889013     
  -50831442.1301742     
  -50827315.1535855     
  -50823229.0324936     
  -50819185.4668362     
  -50815186.0824260     
  -50916082.5783857     
  -50913284.6943611     
  -50910401.1814896     
  -50907435.1870816     
  -50904389.8732877     
  -50901268.4135433     
  -50898073.9891241     
  -50894809.7858099     
  -50891478.9906568     
  -50888084.7888756     
  -50884630.3608142     
  -50881118.8790435     
  -50877553.5055450     
  -50873937.3889966     
  -50870273.6621577     
  -50866565.4393482     
  -50862815.8140224     
  -50859027.8564345     
  -50855204.6113927     
  -50851349.0961017     
  -50847464.2980898     
  -50843553.1732193     
  -50839618.6437769     
  -50835663.5966430     
  -50831690.8815369     
  -50827703.3093349     
  -50823703.6504601     
  -50819694.6333406     
  -50815678.9429334     
  -50811659.2193122     
  -50807638.0563162     
  -50803618.0002572     
  -50799601.5486819     
  -50795591.1491885     
  -50791589.1982926     
  -50787598.0403414     
  -50783619.9664733     
  -50779657.2136195     
  -50775711.9635453     
  -50771786.3419285     
  -50767882.4174723     
  -50764002.2010492     
  -50760147.6448737     
  -50756320.6417017     
  -50752523.0240519     
  -50748756.5634488     
  -50745022.9696828     
  -50741323.8900852     
  -50737660.9088153     
  -50734035.5461574     
  -50816899.8803978     
  -50814459.5118130     
  -50811942.6254297     
  -50809351.8950415     
  -50806690.0127350     
  -50803959.6857235     
  -50801163.6332715     
  -50798304.5837094     
  -50795385.2715380     
  -50792408.4346201     
  -50789376.8114604     
  -50786293.1385717     
  -50783160.1479253     
  -50779980.5644864     
  -50776757.1038308     
  -50773492.4698438     
  -50770189.3524980     
  -50766850.4257100     
  -50763478.3452732     
  -50760075.7468655     
  -50756645.2441313     
  -50753189.4268336     
  -50749710.8590775     
  -50746212.0776006     
  -50742695.5901297     
  -50739163.8738026     
  -50735619.3736513     
  -50732064.5011457     
  -50728501.6327960     
  -50724933.1088107     
  -50721361.2318098     
  -50717788.2655889     
  -50714216.4339341     
  -50710647.9194845     
  -50707084.8626399     
  -50703529.3605119     
  -50699983.4659174     
  -50696449.1864087     
  -50692928.4833426     
  -50689423.2709822     
  -50685935.4156313     
  -50682466.7347989     
  -50679018.9963903     
  -50675593.9179241     
  -50672193.1657711     
  -50668818.3544145     
  -50665471.0457269     
  -50662152.7482641     
  -50658864.9165714     
  -50655608.9505009     
  -50721192.6082681     
  -50719079.1728650     
  -50716898.1727621     
  -50714651.8633600     
  -50712342.5200410     
  -50709972.4353842     
  -50707543.9164543     
  -50705059.2821647     
  -50702520.8607126     
  -50699930.9870881     
  -50697292.0006545     
  -50694606.2428000     
  -50691876.0546608     
  -50689103.7749137     
  -50686291.7376376     
  -50683442.2702433     
  -50680557.6914708     
  -50677640.3094519     
  -50674692.4198386     
  -50671716.3039940     
  -50668714.2272473     
  -50665688.4372085     
  -50662641.1621441     
  -50659574.6094109     
  -50656490.9639462     
  -50653392.3868148     
  -50650281.0138090     
  -50647158.9541018     
  -50644028.2889502     
  -50640891.0704488     
  -50637749.3203303     
  -50634605.0288118     
  -50631460.1534856     
  -50628316.6182524     
  -50625176.3122953     
  -50622041.0890914     
  -50618912.7654627     
  -50615793.1206593     
  -50612683.8954783     
  -50609586.7914126     
  -50606503.4698294     
  -50603435.5511766     
  -50600384.6142140     
  -50597352.1952691     
  -50594339.7875129     
  -50591348.8402573     
  -50588380.7582681     
  -50585436.9010950     
  -50582518.5824142     
  -50579627.0693831     
  -50628549.4582819     
  -50626737.6336712     
  -50624866.9946359     
  -50622939.4262414     
  -50620956.8338248     
  -50618921.1405772     
  -50616834.2851837     
  -50614698.2195244     
  -50612514.9064332     
  -50610286.3175170     
  -50608014.4310329     
  -50605701.2298244     
  -50603348.6993160     
  -50600958.8255648     
  -50598533.5933703     
  -50596074.9844399     
  -50593584.9756113     
  -50591065.5371289     
  -50588518.6309763     
  -50585946.2092607     
  -50583350.2126513     
  -50580732.5688690     
  -50578095.1912271     
  -50575439.9772214     
  -50572768.8071695     
  -50570083.5428974     
  -50567386.0264723     
  -50564678.0789809     
  -50561961.4993518     
  -50559238.0632199     
  -50556509.5218327     
  -50553777.6009965     
  -50551044.0000611     
  -50548310.3909414     
  -50545578.4171753     
  -50542849.6930158     
  -50540125.8025552     
  -50537408.2988814     
  -50534698.7032635     
  -50531998.5043654     
  -50529309.1574866     
  -50526632.0838269     
  -50523968.6697757     
  -50521320.2662217     
  -50518688.1878838     
  -50516073.7126595     
  -50513478.0809904     
  -50510902.4952422     
  -50508348.1190989     
  -50505816.0769673     
  -50538573.2289777     
  -50537042.2043030     
  -50535460.8918913     
  -50533830.8478528     
  -50532153.6477658     
  -50530430.8846056     
  -50528664.1667192     
  -50526855.1158474     
  -50525005.3651957     
  -50523116.5575508     
  -50521190.3434471     
  -50519228.3793787     
  -50517232.3260598     
  -50515203.8467324     
  -50513144.6055203     
  -50511056.2658305     
  -50508940.4887999     
  -50506798.9317886     
  -50504633.2469177     
  -50502445.0796521     
  -50500236.0674279     
  -50498007.8383220     
  -50495762.0097655     
  -50493500.1872985     
  -50491223.9633658     
  -50488934.9161538     
  -50486634.6084659     
  -50484324.5866366     
  -50482006.3794833     
  -50479681.4972947     
  -50477351.4308547     
  -50475017.6505001     
  -50472681.6052124     
  -50470344.7217420     
  -50468008.4037623     
  -50465674.0310552     
  -50463342.9587238     
  -50461016.5164340     
  -50458696.0076812     
  -50456382.7090823     
  -50454077.8696915     
  -50451782.7103386     
  -50449498.4229871     
  -50447226.1701138     
  -50444967.0841048     
  -50442722.2666698     
  -50440492.7882706     
  -50438279.6875647     
  -50436083.9708612     
  -50433906.6115871     
  -50450879.4362980     
  -50449612.2689881     
  -50448303.1147687     
  -50446953.2359649     
  -50445563.9127218     
  -50444136.4412560     
  -50442672.1321455     
  -50441172.3086561     
  -50439638.3051061     
  -50438071.4652681     
  -50436473.1408104     
  -50434844.6897747     
  -50433187.4750934     
  -50431502.8631447     
  -50429792.2223456     
  -50428056.9217828     
  -50426298.3298818     
  -50424517.8131129     
  -50422716.7347350     
  -50420896.4535754     
  -50419058.3228471     
  -50417203.6890010     
  -50415333.8906142     
  -50413450.2573133     
  -50411554.1087314     
  -50409646.7534999     
  -50407729.4882725     
  -50405803.5967819     
  -50403870.3489285     
  -50401930.9998995     
  -50399986.7893187     
  -50398038.9404247     
  -50396088.6592794     
  -50394137.1340016     
  -50392185.5340292     
  -50390235.0094069     
  -50388286.6900974     
  -50386341.6853184     
  -50384401.0829007     
  -50382465.9486689     
  -50380537.3258430     
  -50378616.2344588     
  -50376703.6708082     
  -50374800.6068957     
  -50372907.9899120     
  -50371026.7417227     
  -50369157.7583708     
  -50367301.9095925     
  -50365460.0383446     
  -50363632.9603417     
  -50365094.8156638     
  -50364077.8849629     
  -50363027.0540384     
  -50361943.3208910     
  -50360827.6990462     
  -50359681.2161082     
  -50358504.9123424     
  -50357299.8392878     
  -50356067.0583983     
  -50354807.6397142     
  -50353522.6605640     
  -50352213.2042957     
  -50350880.3590400     
  -50349525.2165023     
  -50348148.8707864     
  -50346752.4172488     
  -50345336.9513826     
  -50343903.5677328     
  -50342453.3588409     
  -50340987.4142201     
  -50339506.8193598     
  -50338012.6547602     
  -50336505.9949953     
  -50334987.9078050     
  -50333459.4532158     
  -50331921.6826889     
  -50330375.6382964     
  -50328822.3519238     
  -50327262.8444995     
  -50325698.1252498     
  -50324129.1909790     
  -50322557.0253752     
  -50320982.5983384     
  -50319406.8653334     
  -50317830.7667647     
  -50316255.2273731     
  -50314681.1556540     
  -50313109.4432958     
  -50311540.9646377     
  -50309976.5761464     
  -50308417.1159114     
  -50306863.4031562     
  -50305316.2377668     
  -50303776.3998350     
  -50302244.6492164     
  -50300721.7251019     
  -50299208.3456015     
  -50297705.2073406     
  -50296212.9850659     
  -50294732.3312619     
  -50280855.7476655     
  -50280078.2965018     
  -50279274.8398225     
  -50278446.1355498     
  -50277592.9543473     
  -50276716.0784537     
  -50275816.3005394     
  -50274894.4225855     
  -50273951.2547854     
  -50272987.6144695     
  -50272004.3250542     
  -50271002.2150138     
  -50269982.1168765     
  -50268944.8662452     
  -50267891.3008416     
  -50266822.2595749     
  -50265738.5816347     
  -50264641.1056087     
  -50263530.6686234     
  -50262408.1055101     
  -50261274.2479940     
  -50260129.9239077     
  -50258975.9564275     
  -50257813.1633341     
  -50256642.3562952     
  -50255464.3401716     
  -50254279.9123458     
  -50253089.8620721     
  -50251894.9698489     
  -50250696.0068122     
  -50249493.7341495     
  -50248288.9025351     
  -50247082.2515840     
  -50245874.5093263     
  -50244666.3917001     
  -50243458.6020623     
  -50242251.8307182     
  -50241046.7544670     
  -50239844.0361650     
  -50238644.3243041     
  -50237448.2526059     
  -50236256.4396302     
  -50235069.4883979     
  -50233887.9860270     
  -50232712.5033810     
  -50231543.5947295     
  -50230381.7974199     
  -50229227.6315595     
  -50228081.5997072     
  -50226944.1865743     
  -50197806.6338892     
  -50197260.3909704     
  -50196695.8751334     
  -50196113.6237186     
  -50195514.1836574     
  -50194898.1105671     
  -50194265.9678630     
  -50193618.3258871     
  -50192955.7610547     
  -50192278.8550183     
  -50191588.1938505     
  -50190884.3672435     
  -50190167.9677290     
  -50189439.5899155     
  -50188699.8297450     
  -50187949.2837680     
  -50187188.5484385     
  -50186418.2194269     
  -50185638.8909522     
  -50184851.1551341     
  -50184055.6013620     
  -50183252.8156851     
  -50182443.3802194     
  -50181627.8725742     
  -50180806.8652965     
  -50179980.9253339     
  -50179150.6135154     
  -50178316.4840494     
  -50177479.0840399     
  -50176638.9530197     
  -50175796.6224997     
  -50174952.6155358     
  -50174107.4463112     
  -50173261.6197351     
  -50172415.6310562     
  -50171569.9654919     
  -50170725.0978717     
  -50169881.4922951     
  -50169039.6018029     
  -50168199.8680620     
  -50167362.7210634     
  -50166528.5788317     
  -50165697.8471479     
  -50164870.9192812     
  -50164048.1757344     
  -50163229.9839976     
  -50162416.6983126     
  -50161608.6594460     
  -50160806.1944714     
  -50160009.6165594     
  -50115598.2411300     
  -50115277.1158313     
  -50114945.3235987     
  -50114603.1963516     
  -50114251.0721756     
  -50113889.2946625     
  -50113518.2122621     
  -50113138.1776469     
  -50112749.5470909     
  -50112352.6798595     
  -50111947.9376154     
  -50111535.6838362     
  -50111116.2832474     
  -50110690.1012685     
  -50110257.5034739     
  -50109818.8550676     
  -50109374.5203731     
  -50108924.8623370     
  -50108470.2420471     
  -50108011.0182658     
  -50107547.5469770     
  -50107080.1809477     
  -50106609.2693042     
  -50106135.1571228     
  -50105658.1850335     
  -50105178.6888394     
  -50104696.9991486     
  -50104213.4410207     
  -50103728.3336267     
  -50103241.9899220     
  -50102754.7163334     
  -50102266.8124578     
  -50101778.5707751     
  -50101290.2763726     
  -50100802.2066822     
  -50100314.6312291     
  -50099827.8113929     
  -50099342.0001796     
  -50098857.4420049     
  -50098374.3724884     
  -50097893.0182579     
  -50097413.5967645     
  -50096936.3161076     
  -50096461.3748679     
  -50095988.9619519     
  -50095519.2564430     
  -50095052.4274625     
  -50094588.6340379     
  -50094128.0249791     
  -50093670.7387613     
  -50033886.0256044     
  -50033785.8691486     
  -50033682.5647273     
  -50033576.2500105     
  -50033467.0652036     
  -50033355.1526199     
  -50033240.6562606     
  -50033123.7214054     
  -50033004.4942114     
  -50032883.1213219     
  -50032759.7494851     
  -50032634.5251824     
  -50032507.5942666     
  -50032379.1016113     
  -50032249.1907686     
  -50032118.0036391     
  -50031985.6801513     
  -50031852.3579519     
  -50031718.1721054     
  -50031583.2548065     
  -50031447.7351004     
  -50031311.7386157     
  -50031175.3873063     
  -50031038.7992050     
  -50030902.0881859     
  -50030765.3637386     
  -50030628.7307523     
  -50030492.2893090     
  -50030356.1344882     
  -50030220.3561807     
  -50030085.0389122     
  -50029950.2616775     
  -50029816.0977828     
  -50029682.6146989     
  -50029549.8739225     
  -50029417.9308478     
  -50029286.8346460     
  -50029156.6281544     
  -50029027.3477735     
  -50028899.0233729     
  -50028771.6782059     
  -50028645.3288310     
  -50028519.9850428     
  -50028395.6498092     
  -50028272.3192174     
  -50028149.9824257     
  -50028028.6216243     
  -50027908.2120008     
  -50027788.7217145     
  -50027670.1118757     
  -49952328.4435079     
  -49952446.8710649     
  -49952569.6252063     
  -49952696.6568012     
  -49952827.9154691     
  -49952963.3493746     
  -49953102.9050297     
  -49953246.5271016     
  -49953394.1582265     
  -49953545.7388299     
  -49953701.2069538     
  -49953860.4980896     
  -49954023.5450181     
  -49954190.2776561     
  -49954360.6229099     
  -49954534.5045350     
  -49954711.8430030     
  -49954892.5553758     
  -49955076.5551854     
  -49955263.7523219     
  -49955454.0529276     
  -49955647.3592982     
  -49955843.5697908     
  -49956042.5787388     
  -49956244.2763737     
  -49956448.5487538     
  -49956655.2776990     
  -49956864.3407337     
  -49957075.6110348     
  -49957288.9573878     
  -49957504.2441485     
  -49957721.3312122     
  -49957940.0739884     
  -49958160.3233833     
  -49958381.9257870     
  -49958604.7230692     
  -49958828.5525794     
  -49959053.2471545     
  -49959278.6351319     
  -49959504.5403697     
  -49959730.7822719     
  -49959957.1758205     
  -49960183.5316136     
  -49960409.6559083     
  -49960635.3506718     
  -49960860.4136355     
  -49961084.6383575     
  -49961307.8142893     
  -49961529.7268483     
  -49961750.1574970     
  -49870585.2501905     
  -49870921.5197954     
  -49871269.5909372     
  -49871629.2315915     
  -49872000.2045801     
  -49872382.2675872     
  -49872775.1731787     
  -49873178.6688249     
  -49873592.4969267     
  -49874016.3948452     
  -49874450.0949348     
  -49874893.3245795     
  -49875345.8062328     
  -49875807.2574611     
  -49876277.3909904     
  -49876755.9147563     
  -49877242.5319577     
  -49877736.9411139     
  -49878238.8361248     
  -49878747.9063350     
  -49879263.8366008     
  -49879786.3073609     
  -49880314.9947105     
  -49880849.5704790     
  -49881389.7023109     
  -49881935.0537499     
  -49882485.2843271     
  -49883040.0496520     
  -49883599.0015075     
  -49884161.7879480     
  -49884728.0534013     
  -49885297.4387741     
  -49885869.5815603     
  -49886444.1159545     
  -49887020.6729673     
  -49887598.8805455     
  -49888178.3636962     
  -49888758.7446131     
  -49889339.6428089     
  -49889920.6752497     
  -49890501.4564945     
  -49891081.5988381     
  -49891660.7124590     
  -49892238.4055702     
  -49892814.2845757     
  -49893387.9542302     
  -49893959.0178042     
  -49894527.0772532     
  -49895091.7333922     
  -49895652.5860737     
  -49788315.7872013     
  -49788870.7327649     
  -49789445.0017226     
  -49790038.1796061     
  -49790649.8428018     
  -49791279.5587890     
  -49791926.8863779     
  -49792591.3759495     
  -49793272.5696946     
  -49793970.0018551     
  -49794683.1989647     
  -49795411.6800903     
  -49796154.9570738     
  -49796912.5347739     
  -49797683.9113085     
  -49798468.5782966     
  -49799266.0211010     
  -49800075.7190703     
  -49800897.1457816     
  -49801729.7692825     
  -49802573.0523337     
  -49803426.4526509     
  -49804289.4231475     
  -49805161.4121763     
  -49806041.8637725     
  -49806930.2178951     
  -49807825.9106698     
  -49808728.3746315     
  -49809637.0389672     
  -49810551.3297586     
  -49811470.6702259     
  -49812394.4809717     
  -49813322.1802250     
  -49814253.1840871     
  -49815186.9067770     
  -49816122.7608786     
  -49817060.1575886     
  -49817998.5069658     
  -49818937.2181820     
  -49819875.6997738     
  -49820813.3598974     
  -49821749.6065838     
  -49822683.8479980     
  -49823615.4926990     
  -49824543.9499034     
  -49825468.6297515     
  -49826388.9435768     
  -49827304.3041787     
  -49828214.1260993     
  -49829117.8259029     
  -49705177.2543860     
  -49705953.2715292     
  -49706756.2286037     
  -49707585.5256761     
  -49708440.5496165     
  -49709320.6745641     
  -49710225.2623910     
  -49711153.6631642     
  -49712105.2156050     
  -49713079.2475467     
  -49714075.0763892     
  -49715092.0095509     
  -49716129.3449177     
  -49717186.3712889     
  -49718262.3688197     
  -49719356.6094604     
  -49720468.3573926     
  -49721596.8694613     
  -49722741.3956034     
  -49723901.1792732     
  -49725075.4578637     
  -49726263.4631241     
  -49727464.4215749     
  -49728677.5549174     
  -49729902.0804417     
  -49731137.2114294     
  -49732382.1575546     
  -49733636.1252801     
  -49734898.3182514     
  -49736167.9376871     
  -49737444.1827669     
  -49738726.2510160     
  -49740013.3386882     
  -49741304.6411453     
  -49742599.3532354     
  -49743896.6696687     
  -49745195.7853917     
  -49746495.8959603     
  -49747796.1979115     
  -49749095.8891343     
  -49750394.1692401     
  -49751690.2399329     
  -49752983.3053799     
  -49754272.5725823     
  -49755557.2517467     
  -49756836.5566590     
  -49758109.7050580     
  -49759375.9190136     
  -49760634.4253052     
  -49761884.4558044     
  -49620822.9630379     
  -49621824.0479931     
  -49622859.8327865     
  -49623929.5254128     
  -49625032.3165878     
  -49626167.3804538     
  -49627333.8752804     
  -49628530.9441593     
  -49629757.7156953     
  -49631013.3046898     
  -49632296.8128194     
  -49633607.3293075     
  -49634943.9315899     
  -49636305.6859725     
  -49637691.6482830     
  -49639100.8645154     
  -49640532.3714662     
  -49641985.1973642     
  -49643458.3624924     
  -49644950.8798020     
  -49646461.7555200     
  -49647989.9897474     
  -49649534.5770516     
  -49651094.5070504     
  -49652668.7649885     
  -49654256.3323072     
  -49655856.1872065     
  -49657467.3052005     
  -49659088.6596656     
  -49660719.2223819     
  -49662357.9640692     
  -49664003.8549152     
  -49665655.8650992     
  -49667312.9653093     
  -49668974.1272546     
  -49670638.3241725     
  -49672304.5313309     
  -49673971.7265270     
  -49675638.8905809     
  -49677305.0078273     
  -49678969.0666031     
  -49680630.0597330     
  -49682286.9850128     
  -49683938.8456908     
  -49685584.6509496     
  -49687223.4163855     
  -49688854.1644892     
  -49690475.9251270     
  -49692087.7360232     
  -49693688.6432444     
  -49534900.5657981     
  -49536132.4091718     
  -49537406.9048657     
  -49538723.0583879     
  -49540079.8538923     
  -49541476.2551409     
  -49542911.2064571     
  -49544383.6336709     
  -49545892.4450541     
  -49547436.5322459     
  -49549014.7711684     
  -49550626.0229308     
  -49552269.1347242     
  -49553942.9407034     
  -49555646.2628593     
  -49557377.9118773     
  -49559136.6879865     
  -49560921.3817952     
  -49562730.7751151     
  -49564563.6417735     
  -49566418.7484137     
  -49568294.8552823     
  -49570190.7170066     
  -49572105.0833578     
  -49574036.7000043     
  -49575984.3092523     
  -49577946.6507760     
  -49579922.4623351     
  -49581910.4804835     
  -49583909.4412653     
  -49585918.0809017     
  -49587935.1364676     
  -49589959.3465587     
  -49591989.4519488     
  -49594024.1962388     
  -49596062.3264975     
  -49598102.5938941     
  -49600143.7543234     
  -49602184.5690243     
  -49604223.8051918     
  -49606260.2365837     
  -49608292.6441215     
  -49610319.8164877     
  -49612340.5507184     
  -49614353.6527935     
  -49616357.9382242     
  -49618352.2326385     
  -49620335.3723663     
  -49622306.2050245     
  -49624263.5901014     
  -49447050.2595736     
  -49448520.3983377     
  -49450041.3836620     
  -49451612.0040188     
  -49453231.0225098     
  -49454897.1781067     
  -49456609.1868798     
  -49458365.7432119     
  -49460165.5209985     
  -49462007.1748328     
  -49463889.3411761     
  -49465810.6395119     
  -49467769.6734843     
  -49469765.0320200     
  -49471795.2904336     
  -49473859.0115162     
  -49475954.7466074     
  -49478081.0366491     
  -49480236.4132237     
  -49482419.3995739     
  -49484628.5116056     
  -49486862.2588743     
  -49489119.1455541     
  -49491397.6713894     
  -49493696.3326311     
  -49496013.6229551     
  -49498348.0343660     
  -49500698.0580835     
  -49503062.1854149     
  -49505438.9086111     
  -49507826.7217086     
  -49510224.1213574     
  -49512629.6076347     
  -49515041.6848457     
  -49517458.8623115     
  -49519879.6551450     
  -49522302.5850156     
  -49524726.1809025     
  -49527148.9798382     
  -49529569.5276428     
  -49531986.3796489     
  -49534398.1014193     
  -49536803.2694571     
  -49539200.4719099     
  -49541588.3092678     
  -49543965.3950579     
  -49546330.3565340     
  -49548681.8353647     
  -49551018.4883190     
  -49553338.9879511     
  -49356902.9592598     
  -49358620.9919098     
  -49360398.3554991     
  -49362233.6023497     
  -49364125.2555269     
  -49366071.8103862     
  -49368071.7361011     
  -49370123.4771719     
  -49372225.4549137     
  -49374376.0689231     
  -49376573.6985237     
  -49378816.7041902     
  -49381103.4289497     
  -49383432.1997598     
  -49385801.3288655     
  -49388209.1151312     
  -49390653.8453509     
  -49393133.7955346     
  -49395647.2321712     
  -49398192.4134687     
  -49400767.5905707     
  -49403371.0087507     
  -49406000.9085826     
  -49408655.5270892     
  -49411333.0988684     
  -49414031.8571974     
  -49416750.0351153     
  -49419485.8664846     
  -49422237.5870319     
  -49425003.4353689     
  -49427781.6539930     
  -49430570.4902698     
  -49433368.1973964     
  -49436173.0353481     
  -49438983.2718064     
  -49441797.1830729     
  -49444613.0549655     
  -49447429.1837021     
  -49450243.8767685     
  -49453055.4537752     
  -49455862.2473009     
  -49458662.6037252     
  -49461454.8840520     
  -49464237.4647230     
  -49467008.7384234     
  -49469767.1148808     
  -49472511.0216584     
  -49475238.9049430     
  -49477949.2303303     
  -49480640.4836071     
  -49264078.4425936     
  -49266056.3139490     
  -49268102.3372076     
  -49270214.8043298     
  -49272391.9743622     
  -49274632.0753227     
  -49276933.3060581     
  -49279293.8380756     
  -49281711.8173445     
  -49284185.3660711     
  -49286712.5844430     
  -49289291.5523443     
  -49291920.3310411     
  -49294596.9648364     
  -49297319.4826947     
  -49300085.8998362     
  -49302894.2192999     
  -49305742.4334770     
  -49308628.5256124     
  -49311550.4712778     
  -49314506.2398124     
  -49317493.7957351     
  -49320511.1001270     
  -49323556.1119840     
  -49326626.7895411     
  -49329721.0915687     
  -49332836.9786401     
  -49335972.4143726     
  -49339125.3666425     
  -49342293.8087726     
  -49345475.7206965     
  -49348669.0900971     
  -49351871.9135220     
  -49355082.1974767     
  -49358297.9594953     
  -49361517.2291905     
  -49364738.0492843     
  -49367958.4766189     
  -49371176.5831505     
  -49374390.4569262     
  -49377598.2030450     
  -49380797.9446050     
  -49383987.8236365     
  -49387166.0020240     
  -49390330.6624162     
  -49393480.0091282     
  -49396612.2690337     
  -49399725.6924520     
  -49402818.5540279     
  -49405889.1536096     
  -49168183.4701632     
  -49170435.8337559     
  -49172765.5496917     
  -49175170.6196359     
  -49177649.0090466     
  -49180198.6494333     
  -49182817.4405777     
  -49185503.2527186     
  -49188253.9286982     
  -49191067.2860707     
  -49193941.1191718     
  -49196873.2011497     
  -49199861.2859560     
  -49202903.1102982     
  -49205996.3955515     
  -49209138.8496318     
  -49212328.1688289     
  -49215562.0396005     
  -49218838.1403268     
  -49222154.1430269     
  -49225507.7150359     
  -49228896.5206449     
  -49232318.2227028     
  -49235770.4841812     
  -49239250.9697039     
  -49242757.3470393     
  -49246287.2885596     
  -49249838.4726641     
  -49253408.5851712     
  -49256995.3206764     
  -49260596.3838800     
  -49264209.4908839     
  -49267832.3704594     
  -49271462.7652865     
  -49275098.4331665     
  -49278737.1482077     
  -49282376.7019880     
  -49286014.9046922     
  -49289649.5862286     
  -49293278.5973240     
  -49296899.8105993     
  -49300511.1216270     
  -49304110.4499725     
  -49307695.7402193     
  -49311264.9629813     
  -49314816.1159023     
  -49318347.2246459     
  -49321856.3438747     
  -49325341.5582234     
  -49328800.9832662     
  -49068809.8896290     
  -49071354.5569643     
  -49073986.1936436     
  -49076702.4746761     
  -49079501.0361133     
  -49082379.4777180     
  -49085335.3655839     
  -49088366.2347072     
  -49091469.5915075     
  -49094642.9162998     
  -49097883.6657150     
  -49101189.2750702     
  -49104557.1606895     
  -49107984.7221719     
  -49111469.3446110     
  -49115008.4007628     
  -49118599.2531639     
  -49122239.2562007     
  -49125925.7581277     
  -49129656.1030395     
  -49133427.6327923     
  -49137237.6888799     
  -49141083.6142617     
  -49144962.7551461     
  -49148872.4627280     
  -49152810.0948830     
  -49156773.0178182     
  -49160758.6076815     
  -49164764.2521302     
  -49168787.3518596     
  -49172825.3220938     
  -49176875.5940390     
  -49180935.6163018     
  -49185002.8562725     
  -49189074.8014752     
  -49193148.9608881     
  -49197222.8662316     
  -49201294.0732297     
  -49205360.1628441     
  -49209418.7424822     
  -49213467.4471831     
  -49217503.9407801     
  -49221525.9170441     
  -49225531.1008079     
  -49229517.2490740     
  -49233482.1521078     
  -49237423.6345168     
  -49241339.5563195     
  -49245227.8140044     
  -49249086.3415821     
  -48965532.7397599     
  -48968391.2268734     
  -48971346.7451190     
  -48974396.5992972     
  -48977538.0532744     
  -48980768.3331010     
  -48984084.6300668     
  -48987484.1036915     
  -48990963.8846517     
  -48994521.0776431     
  -48998152.7641783     
  -49001856.0053203     
  -49005627.8443515     
  -49009465.3093788     
  -49013365.4158750     
  -49017325.1691579     
  -49021341.5668055     
  -49025411.6010108     
  -49029532.2608748     
  -49033700.5346392     
  -49037913.4118609     
  -49042167.8855269     
  -49046460.9541132     
  -49050789.6235877     
  -49055150.9093578     
  -49059541.8381651     
  -49063959.4499282     
  -49068400.7995346     
  -49072862.9585839     
  -49077343.0170829     
  -49081838.0850957     
  -49086345.2943484     
  -49090861.7997916     
  -49095384.7811226     
  -49099911.4442677     
  -49104439.0228268     
  -49108964.7794841     
  -49113486.0073834     
  -49118000.0314727     
  -49122504.2098188     
  -49126995.9348941     
  -49131472.6348378     
  -49135931.7746927     
  -49140370.8576210     
  -49144787.4261003     
  -49149179.0631014     
  -49153543.3932519     
  -49157878.0839853     
  -49162180.8466800     
  -49166449.4377883     
  -48857908.3782155     
  -48861106.5607841     
  -48864412.2963863     
  -48867822.4680720     
  -48871333.9170505     
  -48874943.4462974     
  -48878647.8240782     
  -48882443.7873907     
  -48886328.0453250     
  -48890297.2823421     
  -48894348.1614711     
  -48898477.3274247     
  -48902681.4096352     
  -48906957.0252102     
  -48911300.7818095     
  -48915709.2804440     
  -48920179.1181975     
  -48924706.8908730     
  -48929289.1955641     
  -48933922.6331527     
  -48938603.8107357     
  -48943329.3439799     
  -48948095.8594095     
  -48952899.9966252     
  -48957738.4104577     
  -48962607.7730585     
  -48967504.7759270     
  -48972426.1318786     
  -48977368.5769546     
  -48982328.8722749     
  -48987303.8058379     
  -48992290.1942665     
  -48997284.8845058     
  -49002284.7554721     
  -49007286.7196561     
  -49012287.7246826     
  -49017284.7548299     
  -49022274.8325089     
  -49027255.0197070     
  -49032222.4193964     
  -49037174.1769115     
  -49042107.4812965     
  -49047019.5666254     
  -49051907.7132979     
  -49056769.2493128     
  -49061601.5515215     
  -49066402.0468640     
  -49071168.2135909     
  -49075897.5824714     
  -49080587.7379931     
  -48745472.6673940     
  -48749041.5560589     
  -48752728.9769529     
  -48756531.3310543     
  -48760444.9780385     
  -48764466.2404051     
  -48768591.4075019     
  -48772816.7394439     
  -48777138.4709305     
  -48781552.8149597     
  -48786055.9664406     
  -48790644.1057058     
  -48795313.4019243     
  -48800060.0164159     
  -48804880.1058693     
  -48809769.8254649     
  -48814725.3319031     
  -48819742.7863422     
  -48824818.3572444     
  -48829948.2231345     
  -48835128.5752720     
  -48840355.6202394     
  -48845625.5824472     
  -48850934.7065601     
  -48856279.2598452     
  -48861655.5344442     
  -48867059.8495734     
  -48872488.5536533     
  -48877938.0263690     
  -48883404.6806662     
  -48888884.9646836     
  -48894375.3636255     
  -48899872.4015760     
  -48905372.6432589     
  -48910872.6957444     
  -48916369.2101071     
  -48921858.8830365     
  -48927338.4584036     
  -48932804.7287864     
  -48938254.5369568     
  -48943684.7773312     
  -48949092.3973895     
  -48954474.3990629     
  -48959827.8400952     
  -48965149.8353796     
  -48970437.5582735     
  -48975688.2418961     
  -48980899.1804086     
  -48986067.7302822     
  -48991191.3115568     
  -48627739.2654159     
  -48631715.9127753     
  -48635822.5012009     
  -48640054.8797753     
  -48644408.8587186     
  -48648880.2140625     
  -48653464.6921951     
  -48658158.0142763     
  -48662955.8805246     
  -48667853.9743781     
  -48672847.9665298     
  -48677933.5188402     
  -48683106.2881283     
  -48688361.9298431     
  -48693696.1016184     
  -48699104.4667121     
  -48704582.6973327     
  -48710126.4778564     
  -48715731.5079358     
  -48721393.5055036     
  -48727108.2096746     
  -48732871.3835474     
  -48738678.8169102     
  -48744526.3288517     
  -48750409.7702827     
  -48756325.0263684     
  -48762268.0188773     
  -48768234.7084479     
  -48774221.0967767     
  -48780223.2287320     
  -48786237.1943945     
  -48792259.1310303     
  -48798285.2249978     
  -48804311.7135924     
  -48810334.8868330     
  -48816351.0891922     
  -48822356.7212751     
  -48828348.2414488     
  -48834322.1674263     
  -48840275.0778089     
  -48846203.6135894     
  -48852104.4796198     
  -48857974.4460474     
  -48863810.3497214     
  -48869609.0955752     
  -48875367.6579851     
  -48881083.0821116     
  -48886752.4852246     
  -48892373.0580164     
  -48897942.0659055     
  -48504198.0848019     
  -48508626.6345157     
  -48513196.9029038     
  -48517904.1072370     
  -48522743.4308251     
  -48527710.0282531     
  -48532799.0304554     
  -48538005.5496315     
  -48543324.6840045     
  -48548751.5224246     
  -48554281.1488215     
  -48559908.6465066     
  -48565629.1023294     
  -48571437.6106903     
  -48577329.2774127     
  -48583299.2234786     
  -48589342.5886298     
  -48595454.5348388     
  -48601630.2496530     
  -48607864.9494149     
  -48614153.8823630     
  -48620492.3316167     
  -48626875.6180480     
  -48633299.1030457     
  -48639758.1911745     
  -48646248.3327329     
  -48652765.0262150     
  -48659303.8206784     
  -48665860.3180245     
  -48672430.1751923     
  -48679009.1062728     
  -48685592.8845451     
  -48692177.3444409     
  -48698758.3834392     
  -48705331.9638970     
  -48711894.1148191     
  -48718440.9335703     
  -48724968.5875365     
  -48731473.3157357     
  -48737951.4303854     
  -48744399.3184285     
  -48750813.4430228     
  -48757190.3449978     
  -48763526.6442822     
  -48769819.0413067     
  -48776064.3183854     
  -48782259.3410797     
  -48788401.0595493     
  -48794486.5098920     
  -48800512.8154787     
  -48374314.0000037     
  -48379246.8863584     
  -48384333.5333213     
  -48389568.4359838     
  -48394946.0635096     
  -48400460.8649281     
  -48406107.2747283     
  -48411879.7182616     
  -48417772.6169522     
  -48423780.3933228     
  -48429897.4758367     
  -48436118.3035614     
  -48442437.3306578     
  -48448849.0306994     
  -48455347.9008245     
  -48461928.4657279     
  -48468585.2814946     
  -48475312.9392814     
  -48482106.0688506     
  -48488959.3419596     
  -48495867.4756136     
  -48502825.2351833     
  -48509827.4373943     
  -48516868.9531925     
  -48523944.7104903     
  -48531049.6967994     
  -48538178.9617532     
  -48545327.6195264     
  -48552490.8511537     
  -48559663.9067560     
  -48566842.1076761     
  -48574020.8485303     
  -48581195.5991804     
  -48588361.9066316     
  -48595515.3968607     
  -48602651.7765785     
  -48609766.8349338     
  -48616856.4451612     
  -48623916.5661790     
  -48630943.2441410     
  -48637932.6139483     
  -48644880.9007236     
  -48651784.4212545     
  -48658639.5854099     
  -48665442.8975332     
  -48672190.9578175     
  -48678880.4636672     
  -48685508.2110499     
  -48692071.0958432     
  -48698566.1151808     
  -48237525.9070627     
  -48243025.2098584     
  -48248690.4188885     
  -48254515.2062380     
  -48260493.2300203     
  -48266618.1406958     
  -48272883.5871520     
  -48279283.2225516     
  -48285810.7099526     
  -48292459.7277069     
  -48299223.9746416     
  -48306097.1750296     
  -48313073.0833539     
  -48320145.4888733     
  -48327308.2199927     
  -48334555.1484464     
  -48341880.1932986     
  -48349277.3247677     
  -48356740.5678809     
  -48364264.0059644     
  -48371841.7839758     
  -48379468.1116847     
  -48387137.2667077     
  -48394843.5974038     
  -48402581.5256369     
  -48410345.5494105     
  -48418130.2453818     
  -48425930.2712614     
  -48433740.3681029     
  -48441555.3624914     
  -48449370.1686341     
  -48457179.7903613     
  -48464979.3230419     
  -48472763.9554208     
  -48480528.9713834     
  -48488269.7516526     
  -48495981.7754252     
  -48503660.6219525     
  -48511301.9720710     
  -48518901.6096891     
  -48526455.4232345     
  -48533959.4070689     
  -48541409.6628742     
  -48548802.4010165     
  -48556133.9418927     
  -48563400.7172639     
  -48570599.2715828     
  -48577726.2633183     
  -48584778.4662822     
  -48591752.7709642     
  -48093246.2647569     
  -48099385.2191002     
  -48105702.0970244     
  -48112189.6368157     
  -48118840.5795848     
  -48125647.6760462     
  -48132603.6930142     
  -48139701.4196229     
  -48146933.6732782     
  -48154293.3053481     
  -48161773.2065990     
  -48169366.3123856     
  -48177065.6076018     
  -48184864.1313996     
  -48192754.9816855     
  -48200731.3193994     
  -48208786.3725858     
  -48216913.4402643     
  -48225105.8961066     
  -48233357.1919290     
  -48241660.8610071     
  -48250010.5212203     
  -48258399.8780348     
  -48266822.7273319     
  -48275272.9580894     
  -48283744.5549242     
  -48292231.6005030     
  -48300728.2778289     
  -48309228.8724105     
  -48317727.7743238     
  -48326219.4801700     
  -48334698.5949390     
  -48343159.8337865     
  -48351598.0237290     
  -48360008.1052663     
  -48368385.1339371     
  -48376724.2818154     
  -48385020.8389528     
  -48393270.2147755     
  -48401467.9394413     
  -48409609.6651630     
  -48417691.1675048     
  -48425708.3466583     
  -48433657.2287038     
  -48441533.9668626     
  -48449334.8427473     
  -48457056.2676145     
  -48464694.7836272     
  -48472247.0651307     
  -48479709.9199490     
  -47940861.2770721     
  -47947725.9301342     
  -47954780.0745849     
  -47962015.3953330     
  -47969423.6027965     
  -47976996.4400329     
  -47984725.6895370     
  -47992603.1797165     
  -48000620.7910542     
  -48008770.4619671     
  -48017044.1943709     
  -48025434.0589612     
  -48033932.2002208     
  -48042530.8411616     
  -48051222.2878129     
  -48059998.9334641     
  -48068853.2626729     
  -48077777.8550483     
  -48086765.3888170     
  -48095808.6441851     
  -48104900.5065029     
  -48114033.9692430     
  -48123202.1368008     
  -48132398.2271277     
  -48141615.5742058     
  -48150847.6303722     
  -48160087.9685047     
  -48169330.2840755     
  -48178568.3970829     
  -48187796.2538698     
  -48197007.9288385     
  -48206197.6260679     
  -48215359.6808453     
  -48224488.5611180     
  -48233578.8688747     
  -48242625.3414647     
  -48251622.8528618     
  -48260566.4148831     
  -48269451.1783675     
  -48278272.4343237     
  -48287025.6150550     
  -48295706.2952674     
  -48304310.1931680     
  -48312833.1715627     
  -48321271.2389579     
  -48329620.5506741     
  -48337877.4099781     
  -48346038.2692399     
  -48354099.7311203     
  -48362058.5497973     
  -47779731.9121898     
  -47787422.9086632     
  -47795314.0832781     
  -47803395.9412890     
  -47811659.0432090     
  -47820094.0121255     
  -47828691.5406309     
  -47837442.3973809     
  -47846337.4332931     
  -47855367.5873979     
  -47864523.8923543     
  -47873797.4796429     
  -47883179.5844503     
  -47892661.5502539     
  -47902234.8331231     
  -47911891.0057463     
  -47921621.7611977     
  -47931418.9164551     
  -47941274.4156799     
  -47951180.3332748     
  -47961128.8767249     
  -47971112.3892402     
  -47981123.3522062     
  -47991154.3874572     
  -48001198.2593812     
  -48011247.8768696     
  -48021296.2951205     
  -48031336.7173088     
  -48041362.4961318     
  -48051367.1352418     
  -48061344.2905761     
  -48071287.7715934     
  -48081191.5424288     
  -48091049.7229753     
  -48100856.5899022     
  -48110606.5776206     
  -48120294.2792035     
  -48129914.4472722     
  -48139461.9948563     
  -48148931.9962354     
  -48158319.6877742     
  -48167620.4687557     
  -48176829.9022242     
  -48185943.7158429     
  -48194957.8027777     
  -48203868.2226115     
  -48212671.2022989     
  -48221363.1371671     
  -48229940.5919717     
  -48238400.3020135     
  -47609195.9938614     
  -47617830.4580870     
  -47626674.3402283     
  -47635716.8361734     
  -47644947.2351771     
  -47654354.9271265     
  -47663929.4093666     
  -47673660.2931023     
  -47683537.3093930     
  -47693550.3147552     
  -47703689.2963880     
  -47713944.3770400     
  -47724305.8195292     
  -47734764.0309351     
  -47745309.5664746     
  -47755933.1330806     
  -47766625.5926946     
  -47777377.9652905     
  -47788181.4316427     
  -47799027.3358547     
  -47809907.1876601     
  -47820812.6645111     
  -47831735.6134698     
  -47842668.0529125     
  -47853602.1740640     
  -47864530.3423722     
  -47875445.0987387     
  -47886339.1606150     
  -47897205.4229801     
  -47908036.9592096     
  -47918827.0218492     
  -47929569.0433040     
  -47940256.6364573     
  -47950883.5952266     
  -47961443.8950716     
  -47971931.6934639     
  -47982341.3303278     
  -47992667.3284656     
  -48002904.3939753     
  -48013047.4166717     
  -48023091.4705211     
  -48033031.8140991     
  -48042863.8910801     
  -48052583.3307696     
  -48062185.9486860     
  -48071667.7472029     
  -48081024.9162585     
  -48090253.8341423     
  -48099351.0683655     
  -48108313.3766247     
  -47428571.6475478     
  -47438285.1123344     
  -47448215.0601107     
  -47458349.2490012     
  -47468675.5783550     
  -47479182.0956398     
  -47489857.0028420     
  -47500688.6623928     
  -47511665.6026390     
  -47522776.5228803     
  -47534010.2979902     
  -47545355.9826421     
  -47556802.8151572     
  -47568340.2209953     
  -47579957.8159047     
  -47591645.4087519     
  -47603393.0040468     
  -47615190.8041829     
  -47627029.2114083     
  -47638898.8295466     
  -47650790.4654827     
  -47662695.1304319     
  -47674604.0410066     
  -47686508.6200989     
  -47698400.4975927     
  -47710271.5109226     
  -47722113.7054934     
  -47733919.3349757     
  -47745680.8614924     
  -47757390.9557097     
  -47769042.4968468     
  -47780628.5726191     
  -47792142.4791266     
  -47803577.7207015     
  -47814928.0097282     
  -47826187.2664475     
  -47837349.6187583     
  -47848409.4020272     
  -47859361.1589197     
  -47870199.6392632     
  -47880919.7999532     
  -47891516.8049138     
  -47901986.0251236     
  -47912323.0387166     
  -47922523.6311683     
  -47932583.7955786     
  -47942499.7330583     
  -47952267.8532312     
  -47961884.7748591     
  -47971347.3266002     
  -47237162.4366022     
  -47248110.7457596     
  -47259279.5082061     
  -47270654.9238196     
  -47282223.3927633     
  -47293971.5215863     
  -47305886.1287790     
  -47317954.2498063     
  -47330163.1416444     
  -47342500.2868435     
  -47354953.3971421     
  -47367510.4166539     
  -47380159.5246521     
  -47392889.1379723     
  -47405687.9130567     
  -47418544.7476622     
  -47431448.7822514     
  -47444389.4010902     
  -47457356.2330712     
  -47470339.1522829     
  -47483328.2783455     
  -47496313.9765320     
  -47509286.8576936     
  -47522237.7780087     
  -47535157.8385732     
  -47548038.3848498     
  -47560871.0059947     
  -47573647.5340773     
  -47586360.0432113     
  -47599000.8486121     
  -47611562.5055977     
  -47624037.8085469     
  -47636419.7898328     
  -47648701.7187430     
  -47660877.1004046     
  -47672939.6747250     
  -47684883.4153647     
  -47696702.5287544     
  -47708391.4531696     
  -47719944.8578761     
  -47731357.6423586     
  -47742624.9356446     
  -47753742.0957361     
  -47764704.7091595     
  -47775508.5906465     
  -47786149.7829562     
  -47796624.5568499     
  -47806929.4112273     
  -47817061.0734376     
  -47827016.4997719     
  -47034264.5837412     
  -47046625.6662843     
  -47059206.9317400     
  -47071992.9180330     
  -47084968.4351035     
  -47098118.5696750     
  -47111428.6894290     
  -47124884.4466191     
  -47138471.7811522     
  -47152176.9231654     
  -47165986.3951272     
  -47179887.0134915     
  -47193865.8899293     
  -47207910.4321679     
  -47222008.3444605     
  -47236147.6277143     
  -47250316.5793009     
  -47264503.7925737     
  -47278698.1561168     
  -47292888.8527480     
  -47307065.3582999     
  -47321217.4402003     
  -47335335.1558756     
  -47349408.8509959     
  -47363429.1575857     
  -47377386.9920176     
  -47391273.5529116     
  -47405080.3189571     
  -47418799.0466775     
  -47432421.7681559     
  -47445940.7887394     
  -47459348.6847391     
  -47472638.3011439     
  -47485802.7493640     
  -47498835.4050194     
  -47511729.9057910     
  -47524480.1493479     
  -47537080.2913666     
  -47549524.7436569     
  -47561808.1724079     
  -47573925.4965687     
  -47585871.8863768     
  -47597642.7620478     
  -47609233.7926384     
  -47620640.8950966     
  -47631860.2335104     
  -47642888.2185665     
  -47653721.5072318     
  -47664357.0026689     
  -47674791.8543956     
  -46819176.7411170     
  -46833152.1187507     
  -46847341.7605820     
  -46861728.4672472     
  -46876295.3972141     
  -46891026.0695375     
  -46905904.3659870     
  -46920914.5325854     
  -46936041.1805881     
  -46951269.2869420     
  -46966584.1942534     
  -46981971.6102993     
  -46997417.6071143     
  -47012908.6196823     
  -47028431.4442654     
  -47043973.2363990     
  -47059521.5085815     
  -47075064.1276881     
  -47090589.3121354     
  -47106085.6288235     
  -47121541.9898834     
  -47136947.6492531     
  -47152292.1991082     
  -47167565.5661721     
  -47182758.0079267     
  -47197860.1087495     
  -47212862.7759966     
  -47227757.2360549     
  -47242535.0303828     
  -47257188.0115621     
  -47271708.3393774     
  -47286088.4769455     
  -47300321.1869114     
  -47314399.5277288     
  -47328316.8500447     
  -47342066.7932024     
  -47355643.2818816     
  -47369040.5228908     
  -47382253.0021282     
  -47395275.4817260     
  -47408102.9973929     
  -47420730.8559709     
  -47433154.6332182     
  -47445370.1718345     
  -47457373.5797402     
  -47469161.2286252     
  -47480729.7527778     
  -47492076.0482090     
  -47503197.2720818     
  -47514090.8424615     
  -46591212.8500351     
  -46607028.6943811     
  -46623045.5287428     
  -46639244.3843739     
  -46655606.7515398     
  -46672114.5794244     
  -46688750.2753915     
  -46705496.7036420     
  -46722337.1833062     
  -46739255.4860123     
  -46756235.8329684     
  -46773262.8915972     
  -46790321.7717594     
  -46807398.0216013     
  -46824477.6230634     
  -46841546.9870825     
  -46858592.9485214     
  -46875602.7608579     
  -46892564.0906650     
  -46909465.0119128     
  -46926294.0001203     
  -46943039.9263882     
  -46959692.0513376     
  -46976240.0189836     
  -46992673.8505682     
  -47008983.9383783     
  -47025161.0395741     
  -47041196.2700477     
  -47057081.0983397     
  -47072807.3396313     
  -47088367.1498348     
  -47103753.0198038     
  -47118957.7696805     
  -47133974.5434023     
  -47148796.8033835     
  -47163418.3253911     
  -47177833.1936335     
  -47192035.7960762     
  -47206020.8200041     
  -47219783.2478444     
  -47233318.3532670     
  -47246621.6975761     
  -47259689.1264108     
  -47272516.7667670     
  -47285101.0243557     
  -47297438.5813129     
  -47309526.3942742     
  -47321361.6928265     
  -47332941.9783576     
  -47344265.0233010     
  -46349718.7214249     
  -46367626.2214331     
  -46385712.0366816     
  -46403955.4589641     
  -46422336.3566673     
  -46440835.1708130     
  -46459432.9104586     
  -46478111.1474996     
  -46496852.0109238     
  -46515638.1805620     
  -46534452.8803803     
  -46553279.8713581     
  -46572103.4439931     
  -46590908.4104755     
  -46609680.0965720     
  -46628404.3332570     
  -46647067.4481307     
  -46665656.2566582     
  -46684158.0532674     
  -46702560.6023379     
  -46720852.1291140     
  -46739021.3105745     
  -46757057.2662885     
  -46774949.5492863     
  -46792688.1369750     
  -46810263.4221237     
  -46827666.2039458     
  -46844887.6793022     
  -46861919.4340497     
  -46878753.4345570     
  -46895382.0194106     
  -46911797.8913312     
  -46927994.1093213     
  -46943964.0810630     
  -46959701.5555851     
  -46975200.6162176     
  -46990455.6738508     
  -47005461.4605164     
  -47020213.0233068     
  -47034705.7186500     
  -47048935.2069529     
  -47062897.4476339     
  -47076588.6945521     
  -47090005.4918567     
  -47103144.6702669     
  -47116003.3437947     
  -47128578.9069311     
  -47140869.0323144     
  -47152871.6688620     
  -47164585.0404538     
  -46094093.0748037     
  -46114367.8048783     
  -46134786.3535289     
  -46155326.3884811     
  -46175966.2887104     
  -46196685.1353959     
  -46217462.7022592     
  -46238279.4453434     
  -46259116.4922883     
  -46279955.6311534     
  -46300779.2988419     
  -46321570.5691748     
  -46342313.1406657     
  -46362991.3240412     
  -46383590.0295559     
  -46404094.7541433     
  -46424491.5684467     
  -46444767.1037716     
  -46464908.5389970     
  -46484903.5874852     
  -46504740.4840247     
  -46524407.9718415     
  -46543895.2897105     
  -46563192.1591993     
  -46582288.7720731     
  -46601175.7778880     
  -46619844.2718019     
  -46638285.7826248     
  -46656492.2611347     
  -46674456.0686814     
  -46692169.9660978     
  -46709627.1029419     
  -46726821.0070859     
  -46743745.5746734     
  -46760395.0604597     
  -46776764.0685554     
  -46792847.5435850     
  -46808640.7622814     
  -46824139.3255273     
  -46839339.1508603     
  -46854236.4654595     
  -46868827.7996174     
  -46883109.9807290     
  -46897080.1277957     
  -46910735.6464666     
  -46924074.2246368     
  -46937093.8286044     
  -46949792.6997918     
  -46962169.3521473     
  -46974222.5699900     
  -45823813.9031496     
  -45846753.7939200     
  -45869788.3508656     
  -45892893.8476535     
  -45916047.4211040     
  -45939227.0555770     
  -45962411.5668070     
  -45985580.5852522     
  -46008714.5390221     
  -46031794.6364448     
  -46054802.8483356     
  -46077721.8900253     
  -46100535.2032041     
  -46123226.9376368     
  -46145781.9328017     
  -46168185.6995036     
  -46190424.4015078     
  -46212484.8372430     
  -46234354.4216151     
  -46256021.1679740     
  -46277473.6702713     
  -46298701.0854459     
  -46319693.1160730     
  -46340439.9933057     
  -46360932.4601422     
  -46381161.7550437     
  -46401119.5959308     
  -46420798.1645811     
  -46440190.0914498     
  -46459288.4409344     
  -46478086.6971024     
  -46496578.7498984     
  -46514758.8818472     
  -46532621.7552685     
  -46550162.4000170     
  -46567376.2017590     
  -46584258.8908038     
  -46600806.5314924     
  -46617015.5121680     
  -46632882.5357296     
  -46648404.6107759     
  -46663579.0433859     
  -46678403.4294820     
  -46692875.6478562     
  -46706993.8538457     
  -46720756.4736343     
  -46734162.1992717     
  -46747209.9844226     
  -46759899.0405317     
  -46772228.8343396     
  -45538471.1923414     
  -45564392.5907240     
  -45590341.5679099     
  -45616293.3844287     
  -45642224.3325983     
  -45668111.7125489     
  -45693933.8078030     
  -45719669.8604904     
  -45745300.0462741     
  -45770805.4490624     
  -45796168.0355776     
  -45821370.6298542     
  -45846396.8877285     
  -45871231.2713895     
  -45895859.0240462     
  -45920266.1447743     
  -45944439.3635926     
  -45968366.1168239     
  -45992034.5227858     
  -46015433.3578573     
  -46038552.0329619     
  -46061380.5705056     
  -46083909.5818038     
  -46106130.2450279     
  -46128034.2837021     
  -46149613.9457723     
  -46170861.9832724     
  -46191771.6326056     
  -46212336.5954595     
  -46232551.0203678     
  -46252409.4849332     
  -46271906.9787215     
  -46291038.8868340     
  -46309800.9741720     
  -46328189.3703884     
  -46346200.5555510     
  -46363831.3464936     
  -46381078.8839018     
  -46397940.6200839     
  -46414414.3074780     
  -46430497.9879067     
  -46446189.9824674     
  -46461488.8823098     
  -46476393.5400369     
  -46490903.0618594     
  -46505016.8006418     
  -46518734.3495472     
  -46532055.5363796     
  -46544980.4197275     
  -46557509.2835859     
  -45237807.2244782     
  -45267038.3742771     
  -45296208.3291240     
  -45325291.9138620     
  -45354265.1690444     
  -45383105.3163754     
  -45411790.7238735     
  -45440300.8708533     
  -45468616.3128225     
  -45496718.6463844     
  -45524590.4742349     
  -45552215.3703384     
  -45579577.8453637     
  -45606663.3124548     
  -45633458.0534107     
  -45659949.1853386     
  -45686124.6278452     
  -45711973.0708219     
  -45737483.9428782     
  -45762647.3804682     
  -45787454.1977557     
  -45811895.8572530     
  -45835964.4412684     
  -45859652.6241885     
  -45882953.6456196     
  -45905861.2844078     
  -45928369.8335521     
  -45950474.0760206     
  -45972169.2614789     
  -45993451.0839320     
  -46014315.6602842     
  -46034759.5098098     
  -46054779.5345404     
  -46074373.0005420     
  -46093537.5201138     
  -46112271.0348328     
  -46130571.7995410     
  -46148438.3671065     
  -46165869.5741603     
  -46182864.5276093     
  -46199422.5919197     
  -46215543.3775797     
  -46231226.7298045     
  -46246472.7185915     
  -46261281.6295630     
  -46275653.9551506     
  -46289590.3873487     
  -46303091.8114406     
  -46316159.2972093     
  -46328794.0996691     
  -44921765.9323281     
  -44954636.9890947     
  -44987332.1508944     
  -45019826.6391740     
  -45052097.0874963     
  -45084121.4935806     
  -45115879.1713191     
  -45147350.7028906     
  -45178517.8910966     
  -45209363.7120346     
  -45239872.2682199     
  -45270028.7422615     
  -45299819.3511898     
  -45329231.3015303     
  -45358252.7452069     
  -45386872.7363547     
  -45415081.1891126     
  -45442868.8364614     
  -45470227.1901625     
  -45497148.5018486     
  -45523625.7253066     
  -45549652.4799903     
  -45575223.0157889     
  -45600332.1790722     
  -45624975.3800296     
  -45649148.5613055     
  -45672848.1679367     
  -45696071.1185864     
  -45718814.7780619     
  -45741076.9311086     
  -45762855.7574452     
  -45784149.8080379     
  -45804957.9825518     
  -45825279.5080210     
  -45845113.9185650     
  -45864461.0363609     
  -45883320.9534490     
  -45901694.0149231     
  -45919580.8026738     
  -45936982.1204250     
  -45953898.9799218     
  -45970332.5868076     
  -45986284.3296649     
  -46001755.7677421     
  -46016748.6198780     
  -46031264.7561751     
  -46045306.1875797     
  -46058875.0565576     
  -46071973.6399196     
  -46084604.3209431     
  -44590553.0106564     
  -44627381.3912673     
  -44663888.5260620     
  -44700051.1962190     
  -44735847.7989248     
  -44771258.2823654     
  -44806264.0810788     
  -44840848.0518448     
  -44874994.4102656     
  -44908688.6681895     
  -44941917.5721143     
  -44974669.0427057     
  -45006932.1155473     
  -45038696.8832374     
  -45069954.4389304     
  -45100696.8214170     
  -45130916.9618218     
  -45160608.6319902     
  -45189766.3946250     
  -45218385.5552235     
  -45246462.1158536     
  -45273992.7308007     
  -45300974.6641034     
  -45327405.7489888     
  -45353284.3492045     
  -45378609.3222413     
  -45403379.9844281     
  -45427596.0778563     
  -45451257.7391212     
  -45474365.4697967     
  -45496920.1086559     
  -45518922.8054862     
  -45540374.9965616     
  -45561278.3814463     
  -45581634.9015642     
  -45601446.7195604     
  -45620716.2008253     
  -45639445.8949075     
  -45657638.5197628     
  -45675296.9456702     
  -45692424.1795446     
  -45709023.3545020     
  -45725097.7116045     
  -45740650.5914535     
  -45755685.4244325     
  -45770205.7142995     
  -45784215.0342082     
  -45797717.0202589     
  -45810715.3284499     
  -45823213.7065797     
  -44244708.6041759     
  -44285778.0180764     
  -44326345.0203482     
  -44366389.5462101     
  -44405893.3494236     
  -44444839.9154420     
  -44483214.3756004     
  -44521003.4225281     
  -44558195.2269908     
  -44594779.3563516     
  -44630746.6948161     
  -44666089.3656215     
  -44700800.6553063     
  -44734874.9401936     
  -44768307.6151985     
  -44801095.0250615     
  -44833234.3980973     
  -44864723.7825331     
  -44895561.9855001     
  -44925748.5147273     
  -44955283.5229750     
  -44984167.7552342     
  -45012402.4986991     
  -45039989.5355116     
  -45066931.0982622     
  -45093229.8282090     
  -45118888.7361618     
  -45143911.1660211     
  -45168300.7608078     
  -45192061.4312257     
  -45215197.3264236     
  -45237712.8071861     
  -45259612.4209623     
  -45280900.8795084     
  -45301583.0371167     
  -45321663.8726134     
  -45341148.4695463     
  -45360042.0026404     
  -45378349.7189566     
  -45396076.9258064     
  -45413228.9808855     
  -45429811.2676926     
  -45445829.2042104     
  -45461288.2150669     
  -45476193.7155073     
  -45490551.1239512     
  -45504365.8278866     
  -45517643.1681231     
  -45530388.5448405     
  -45542607.1145627     
  -43885194.0675818     
  -43930724.9409628     
  -43975530.9500958     
  -44019597.3413714     
  -44062911.3648743     
  -44105462.1597875     
  -44147240.6418194     
  -44188239.3930264     
  -44228452.5542339     
  -44267875.7202474     
  -44306505.8380522     
  -44344341.1081482     
  -44381380.8891744     
  -44417625.6059436     
  -44453076.6609992     
  -44487736.3497944     
  -44521607.7795752     
  -44554694.7920449     
  -44587001.8898709     
  -44618534.1670844     
  -44649297.2434152     
  -44679297.2025827     
  -44708540.5345614     
  -44737034.0818210     
  -44764784.9895063     
  -44791800.6595521     
  -44818088.7086724     
  -44843656.9299679     
  -44868513.2583887     
  -44892665.7394340     
  -44916122.5017612     
  -44938891.7321989     
  -44960981.6546967     
  -44982400.5097335     
  -45003156.5408308     
  -45023257.9755261     
  -45042713.0207369     
  -45061529.8412323     
  -45079716.5638460     
  -45097281.2595202     
  -45114231.9244080     
  -45130576.5163763     
  -45146322.8697614     
  -45161478.7586578     
  -45176051.9019148     
  -45190049.8604668     
  -45203480.1216964     
  -45216350.0972732     
  -45228666.7253595     
  -45240437.5205742     
  -43513492.8784575     
  -43563601.0685870     
  -43612715.1819507     
  -43660828.6606751     
  -43707937.0901414     
  -43754038.0494507     
  -43799130.9661727     
  -43843216.9751963     
  -43886298.7819474     
  -43928380.5301879     
  -43969467.6744659     
  -44009566.8573825     
  -44048685.7917143     
  -44086833.1475031     
  -44124018.4441552     
  -44160251.9476181     
  -44195544.5726855     
  -44229907.7904809     
  -44263353.5411714     
  -44295894.1519658     
  -44327542.2604537     
  -44358310.7433497     
  -44388212.6506821     
  -44417261.1454652     
  -44445469.4489445     
  -44472850.7913125     
  -44499418.3679418     
  -44525185.3016596     
  -44550164.6096317     
  -44574369.1765477     
  -44597811.7308975     
  -44620504.8291197     
  -44642460.8406163     
  -44663691.9448409     
  -44684210.1148244     
  -44704027.1327633     
  -44723154.5617784     
  -44741603.7898429     
  -44759385.9837276     
  -44776512.1354825     
  -44792993.1023310     
  -44808839.4510551     
  -44824061.7543189     
  -44838670.2992783     
  -44852675.0730055     
  -44866086.1414199     
  -44878913.2712884     
  -44891165.9173137     
  -44902854.4914453     
  -44913986.5631835     
  -43131722.1458650     
  -43186361.9965520     
  -43239686.9519897     
  -43291702.4471392     
  -43342416.1039358     
  -43391837.5423050     
  -43439978.1969204     
  -43486851.1411939     
  -43532470.9183334     
  -43576853.3792433     
  -43620015.5274583     
  -43661975.3708208     
  -43702751.7800146     
  -43742364.3537472     
  -43780833.2905738     
  -43818179.2672661     
  -43854423.3236791     
  -43889586.7540983     
  -43923691.0050651     
  -43956757.5797119     
  -43988807.9486601     
  -44019863.4675704     
  -44049945.3015501     
  -44079074.3566269     
  -44107271.2183194     
  -44134556.0979893     
  -44160948.7869059     
  -44186468.6165059     
  -44211134.4302789     
  -44234964.5603754     
  -44257976.8197757     
  -44280188.4909390     
  -44301616.3365792     
  -44322276.5902615     
  -44342185.0175809     
  -44361356.8747776     
  -44379807.0453123     
  -44397549.9154568     
  -44414599.5961083     
  -44430969.7925603     
  -44446673.7489589     
  -44461724.8785531     
  -44476135.7106908     
  -44489919.1061553     
  -44503088.1884494     
  -44515654.8593531     
  -44527631.3394156     
  -44539030.1866152     
  -44549860.0463334     
  -44560138.8845188     
  -42742743.7490312     
  -42801631.0977701     
  -42858828.0676632     
  -42914356.9484429     
  -42968242.0910295     
  -43020509.6729071     
  -43071187.4786048     
  -43120304.6901556     
  -43167891.6875543     
  -43213979.8596331     
  -43258601.4240127     
  -43301789.2565943     
  -43343576.7294339     
  -43383997.5570752     
  -43423085.6507095     
  -43460874.9799179     
  -43497399.4417111     
  -43532692.7365804     
  -43566788.2514133     
  -43599718.9491839     
  -43631517.2654630     
  -43662215.0118594     
  -43691843.2863312     
  -43720432.3906872     
  -43748011.7564232     
  -43774609.8779168     
  -43800254.2553831     
  -43824971.3537765     
  -43848786.5592013     
  -43871724.1620054     
  -43893807.3292991     
  -43915058.1387464     
  -43935497.5732003     
  -43955145.6300813     
  -43974021.2154130     
  -43992142.4645384     
  -44009526.4311158     
  -44026189.7827923     
  -44042148.2094826     
  -44057417.1753237     
  -44072012.2299573     
  -44085946.9422079     
  -44099237.0711427     
  -44111896.0439142     
  -44123936.0236667     
  -44135373.7168780     
  -44146224.0366479     
  -44156499.9028775     
  -44166226.6144176     
  -44175396.4837138     
  -42350251.6599204     
  -42412763.2672945     
  -42473154.9532804     
  -42531471.8307136     
  -42587760.6511986     
  -42642069.5525847     
  -42694447.8089754     
  -42744945.5980776     
  -42793613.7841896     
  -42840503.7125642     
  -42885667.0177039     
  -42929155.4410388     
  -42971020.6598585     
  -43011314.1247916     
  -43050086.9059227     
  -43087389.5464108     
  -43123271.9228133     
  -43157783.1116240     
  -43190971.2613274     
  -43222883.4694583     
  -43253565.6641551     
  -43283062.4900691     
  -43311417.1995319     
  -43338671.5487274     
  -43364865.6966669     
  -43390038.1133960     
  -43414225.4913117     
  -43437462.6462371     
  -43459782.4814934     
  -43481215.9056535     
  -43501791.8473984     
  -43521537.1146633     
  -43540476.5028030     
  -43558632.5853038     
  -43576026.3810007     
  -43592676.5124312     
  -43608600.8455459     
  -43623814.4626713     
  -43638332.5651776     
  -43652168.3712868     
  -43665333.1430068     
  -43677844.2351389     
  -43689709.9947286     
  -43700947.5835635     
  -43711577.3377939     
  -43721602.2115540     
  -43731034.9396843     
  -43739899.7731973     
  -43748181.9103540     
  -43755979.0545071     
  -41958795.1378620     
  -42023844.3897681     
  -42086297.0823898     
  -42146227.9266538     
  -42203712.4819462     
  -42258826.8495203     
  -42311647.4334969     
  -42362250.7157244     
  -42410713.0424003     
  -42457110.4328662     
  -42501518.3947531     
  -42544011.7579008     
  -42584664.5146587     
  -42623549.6716811     
  -42660739.1082259     
  -42696303.4405523     
  -42730311.8913768     
  -42762832.1624254     
  -42793930.3092797     
  -42823670.6174233     
  -42852115.4786246     
  -42879325.2658610     
  -42905358.2027347     
  -42930270.2296684     
  -42954114.8753484     
  -42976943.1108866     
  -42998803.2145717     
  -43019740.6855198     
  -43039797.9522087     
  -43059014.3226815     
  -43077425.6536553     
  -43095064.6591174     
  -43111960.2987397     
  -43128138.4512348     
  -43143619.6269861     
  -43158422.5990622     
  -43172558.8785992     
  -43186041.1548692     
  -43198873.6097543     
  -43211061.4384004     
  -43222611.6407300     
  -43233507.4519657     
  -43243767.8193553     
  -43253382.0495517     
  -43262338.4667419     
  -43270695.2943747     
  -43278468.7813367     
  -43285628.6261159     
  -43292288.3984102     
  -43298212.3570123     
  -41573681.4088121     
  -41639577.2551531     
  -41702369.0253937     
  -41762168.1375032     
  -41819085.3613474     
  -41873230.7248282     
  -41924713.2901779     
  -41973640.9636593     
  -42020120.3443224     
  -42064256.5635911     
  -42106153.1694382     
  -42145911.9974942     
  -42183633.0680580     
  -42219414.4821362     
  -42253352.3271890     
  -42285540.5874149     
  -42316071.0546082     
  -42345033.2397521     
  -42372514.2814639     
  -42398598.8490658     
  -42423369.0381563     
  -42446904.2600589     
  -42469281.1314410     
  -42490573.3447512     
  -42510851.4876908     
  -42530182.8966965     
  -42548631.4349301     
  -42566257.0999411     
  -42583116.3416649     
  -42599261.3282165     
  -42614740.1810661     
  -42629594.9369121     
  -42643863.2680783     
  -42657575.2955661     
  -42670760.8050781     
  -42683434.3002176     
  -42695615.4064416     
  -42707297.7455739     
  -42718485.7263677     
  -42729159.7461227     
  -42739277.4248645     
  -42748863.3335892     
  -42757793.5683532     
  -42766055.0579349     
  -42773638.8322051     
  -42780325.1206528     
  -42786134.8876488     
  -42791317.1385311     
  -42795590.7095988     
  -42799718.0889249     
  -41200698.1572961     
  -41265003.8090990     
  -41325695.5165152     
  -41382927.0156574     
  -41436849.9160411     
  -41487613.1340203     
  -41535362.8464011     
  -41580242.4403126     
  -41622392.4095816     
  -41661950.3682103     
  -41699050.9556398     
  -41733825.8496327     
  -41766403.7289787     
  -41796910.2771289     
  -41825468.1789354     
  -41852197.1172183     
  -41877213.7760248     
  -41900631.8398222     
  -41922561.9918064     
  -41943111.9067077     
  -41962386.2315359     
  -41980486.5379110     
  -41997511.2243394     
  -42013555.4419784     
  -42028711.1204291     
  -42043066.7381609     
  -42056707.2422295     
  -42069714.3281350     
  -42082164.0834289     
  -42094128.8158322     
  -42105675.0166088     
  -42116868.8548894     
  -42127766.3401124     
  -42138422.9129421     
  -42148866.6502347     
  -42159153.3721216     
  -42169283.7189925     
  -42179310.9241527     
  -42189198.7018319     
  -42198949.5989799     
  -42208596.1204555     
  -42217896.5530289     
  -42227112.1168297     
  -42235997.0201144     
  -42244207.2055810     
  -42251971.3144775     
  -42258477.3598141     
  -42262241.8952355     
  -42264280.5743933     
  -42263116.1144579     
  -40845619.7942437     
  -40905039.0436375     
  -40960371.1924870     
  -41011817.7970184     
  -41059574.1776272     
  -41103830.8913850     
  -41144773.6455585     
  -41182583.2636341     
  -41217435.9106209     
  -41249502.9229445     
  -41278951.1339141     
  -41305942.8443801     
  -41330636.0292748     
  -41353184.4280046     
  -41373737.6802824     
  -41392441.4836697     
  -41409437.7307388     
  -41424864.6552983     
  -41438856.9671510     
  -41451545.9849526     
  -41463059.7808302     
  -41473523.3666626     
  -41483058.9316318     
  -41491785.8194080     
  -41499820.0809640     
  -41507274.9861858     
  -41514260.8678649     
  -41520883.7376258     
  -41527252.6204629     
  -41533469.7089335     
  -41539635.8944526     
  -41545831.0533939     
  -41552153.7307081     
  -41558679.3113766     
  -41565544.2836325     
  -41572731.6949623     
  -41580398.8095228     
  -41588492.4943987     
  -41597262.6796539     
  -41606743.7775371     
  -41616736.7114844     
  -41627804.5592995     
  -41638524.8039272     
  -41649422.5926519     
  -41661455.6854833     
  -41673911.5853739     
  -41689647.7168527     
  -41712290.5194483     
  -41765697.3152716     
  -41831318.3641813     
  -40513527.8635321     
  -40563840.3391137     
  -40609685.1758175     
  -40651306.6157321     
  -40688945.2224011     
  -40722833.5033683     
  -40753196.4051505     
  -40780251.7523625     
  -40804209.8518710     
  -40825274.7652786     
  -40843643.6957780     
  -40859507.7827721     
  -40873052.0499680     
  -40884455.8309362     
  -40893893.0961008     
  -40901532.7179163     
  -40907538.8384967     
  -40912071.2165892     
  -40915285.6093548     
  -40917334.1328729     
  -40918365.5480650     
  -40918525.4206760     
  -40917956.2510659     
  -40916798.6265254     
  -40915193.3844654     
  -40913279.4679801     
  -40911194.1267293     
  -40909077.2436772     
  -40907046.7476259     
  -40905240.8161098     
  -40903794.1425909     
  -40902896.9548093     
  -40902630.0131980     
  -40903146.1088935     
  -40904403.9740442     
  -40906964.3065504     
  -40910640.5439898     
  -40915836.1709151     
  -40921732.8347081     
  -40928421.8939975     
  -40937229.2149010     
  -40947337.1622280     
  -40964959.6879652     
  -40988884.4583312     
  -41046975.3129123     
  -41108842.2400612     
  -41184961.0841974     
  -41289086.9385685     
  -41413323.4295344     
  -41544624.0160134     
  -40208046.4310802     
  -40244132.3414325     
  -40275496.9567651     
  -40302445.3441136     
  -40325258.4833010     
  -40344207.4590399     
  -40359552.9893725     
  -40371545.3478196     
  -40380427.3058029     
  -40386430.3886198     
  -40389778.5285978     
  -40390686.4056334     
  -40389361.1017171     
  -40386002.0714154     
  -40380801.4438375     
  -40373944.6982692     
  -40365611.0679684     
  -40355974.1396533     
  -40345202.4455139     
  -40333460.2231980     
  -40320908.4303785     
  -40307705.9410382     
  -40294010.2852229     
  -40279974.8012330     
  -40265744.2726266     
  -40251468.2914515     
  -40237304.2679003     
  -40223402.9926693     
  -40209988.0636405     
  -40197184.1732418     
  -40185131.8205849     
  -40173821.8937262     
  -40163741.7358366     
  -40155043.3349197     
  -40148359.9332182     
  -40141945.2679526     
  -40137298.9090795     
  -40134502.1210887     
  -40138248.0432795     
  -40151342.3540641     
  -40198913.9448438     
  -40247032.0525327     
  -40316525.8679223     
  -40406005.2166326     
  -40517417.5501852     
  -40631638.9676068     
  -40748087.4595041     
  -40867406.9735407     
  -40982162.3778466     
  -41094289.6233816     
  -39930747.3243068     
  -39946571.6346360     
  -39957680.1451447     
  -39964368.3526903     
  -39966956.7434014     
  -39965750.8512360     
  -39961044.9855700     
  -39953122.8884104     
  -39942247.2341279     
  -39928676.0409865     
  -39912650.6483984     
  -39894404.1893855     
  -39874157.4116972     
  -39852120.7418594     
  -39828495.6756916     
  -39803474.7055677     
  -39777242.2760267     
  -39749975.0460567     
  -39721842.3222027     
  -39693006.2572006     
  -39663621.8845695     
  -39633837.7861559     
  -39603799.6659803     
  -39573664.5777751     
  -39543612.7841427     
  -39513792.0569830     
  -39484312.3265769     
  -39455319.1493959     
  -39426757.7125273     
  -39399043.6940743     
  -39372497.1523540     
  -39347789.8025224     
  -39323558.5203543     
  -39300239.2893739     
  -39277516.1231503     
  -39264157.2710179     
  -39282826.5172045     
  -39308746.5357802     
  -39352267.1816353     
  -39421586.7935690     
  -39514840.3088840     
  -39612347.2853048     
  -39715765.6826351     
  -39824295.2886474     
  -39930991.3334483     
  -40039073.3294694     
  -40145454.4541808     
  -40248446.0538682     
  -40349309.5282249     
  -40447528.8693390     
  -39680568.9508500     
  -39669517.3207679     
  -39653801.5484723     
  -39633912.1103867     
  -39610213.5225733     
  -39583056.2637777     
  -39552758.3874917     
  -39519607.4699672     
  -39483906.2493481     
  -39445911.9530961     
  -39405884.9709025     
  -39364058.8012905     
  -39320659.1776747     
  -39275900.8033767     
  -39229984.6803547     
  -39183100.9927156     
  -39135428.1374448     
  -39087134.3983520     
  -39038378.8220937     
  -38989312.3030158     
  -38940078.1958476     
  -38890809.6287888     
  -38841618.2136037     
  -38792559.0341034     
  -38743627.1950435     
  -38694991.6904904     
  -38646987.5436252     
  -38599765.6139975     
  -38554012.6979502     
  -38508515.9773547     
  -38462937.8292683     
  -38416572.1106693     
  -38383526.0711923     
  -38379027.5020787     
  -38374247.5990492     
  -38400419.3800808     
  -38456696.8992450     
  -38524001.5113919     
  -38600265.6297863     
  -38685616.3269891     
  -38773111.3363549     
  -38866042.7074458     
  -38961226.7408609     
  -39057152.6069582     
  -39154280.4653742     
  -39251256.4482143     
  -39349178.9327810     
  -39448293.6500606     
  -39548315.9685296     
  -39649594.9086621     
  -39454661.9811733     
  -39408299.1927228     
  -39358364.6049603     
  -39304971.6523525     
  -39248467.4627219     
  -39189134.7508599     
  -39127296.2844128     
  -39063310.9232082     
  -38997395.9831033     
  -38929865.7684398     
  -38860951.9856630     
  -38790927.0289769     
  -38720033.1003353     
  -38648487.9281541     
  -38576494.2970238     
  -38504230.0175349     
  -38431854.2165306     
  -38359505.3116191     
  -38287303.6614523     
  -38215355.4720762     
  -38143759.3176684     
  -38072621.7666631     
  -38002089.6132489     
  -37932420.5447397     
  -37863910.9192298     
  -37796065.7609066     
  -37727850.2069602     
  -37659309.4585428     
  -37589550.5255903     
  -37540028.2606772     
  -37500760.5512197     
  -37461904.6344524     
  -37451546.5990892     
  -37471608.1578900     
  -37500537.0748179     
  -37541922.8028749     
  -37590243.0674985     
  -37647060.2959716     
  -37710898.2486443     
  -37780021.1395809     
  -37855172.4317439     
  -37934950.5253735     
  -38019825.0547848     
  -38109553.5667439     
  -38203698.2490362     
  -38302216.3366627     
  -38404192.5771278     
  -38508943.2237335     
  -38615334.3431873     
  -38720542.9016184     
  -39241014.6925203     
  -39154114.4186779     
  -39063424.4118849     
  -38969875.4698244     
  -38873796.2516192     
  -38775736.6225371     
  -38675994.8685053     
  -38574660.0801349     
  -38472340.7641495     
  -38369262.9600287     
  -38265936.1019552     
  -38162628.7939222     
  -38059606.5733280     
  -37957120.1882248     
  -37855368.0901262     
  -37754532.8520133     
  -37654755.3879480     
  -37556141.7882600     
  -37458755.3856739     
  -37362607.6595893     
  -37267648.9140354     
  -37173747.0016101     
  -37080652.2016446     
  -36987925.8708343     
  -36901207.9378690     
  -36820459.1763465     
  -36746395.7563777     
  -36673822.4996869     
  -36603102.2034480     
  -36558018.3899342     
  -36532916.4274380     
  -36516864.5186950     
  -36511998.2934932     
  -36515139.0378033     
  -36528308.8186678     
  -36549161.8347023     
  -36578178.4493060     
  -36614869.9685537     
  -36659748.7390395     
  -36713263.9940702     
  -36775114.0881574     
  -36845449.3448440     
  -36924050.7305850     
  -37011210.8880818     
  -37106276.9989666     
  -37207890.6692922     
  -37314632.6317163     
  -37424967.7425575     
  -37538440.8633217     
  -37658811.4132346     
  -39048419.2223883     
  -38912053.4860957     
  -38774155.6040146     
  -38633173.3062891     
  -38489119.1427277     
  -38341496.5136730     
  -38191409.4440799     
  -38041218.4441671     
  -37891360.0710017     
  -37745613.5229349     
  -37602237.8177198     
  -37460475.0659002     
  -37320732.8654723     
  -37183294.9863321     
  -37048522.9338187     
  -36916637.2689357     
  -36787858.1585091     
  -36662340.4652724     
  -36540178.4554419     
  -36421425.2941891     
  -36306095.1389261     
  -36194190.4591428     
  -36085698.6636597     
  -35980612.7401327     
  -35881166.7855823     
  -35791639.3227465     
  -35718112.7174961     
  -35651784.1701712     
  -35594238.6409561     
  -35544858.5364757     
  -35505088.9833778     
  -35474349.6070110     
  -35451169.6984503     
  -35435827.8096928     
  -35427883.5216806     
  -35428134.8075520     
  -35436733.8621288     
  -35454289.6328469     
  -35481088.2474025     
  -35517563.1548287     
  -35564394.4847352     
  -35622102.5172537     
  -35691011.5807090     
  -35770744.5381768     
  -35861694.6802211     
  -35965122.8604783     
  -36081264.7347673     
  -36209372.8399989     
  -36347086.4519336     
  -36482480.7079179     
  -39086817.1877123     
  -38883549.0249478     
  -38651730.3082660     
  -38409652.1484795     
  -38165767.0895129     
  -37931596.6073506     
  -37709501.6346382     
  -37492457.5721406     
  -37281509.6943780     
  -37073921.8705854     
  -36873410.2339448     
  -36679361.3395166     
  -36491927.3231950     
  -36311449.6560389     
  -36137784.5308177     
  -35971224.3390987     
  -35811727.6779354     
  -35659208.9184666     
  -35513590.8724524     
  -35374883.5868281     
  -35243170.7024335     
  -35118592.8535772     
  -35001422.2650623     
  -34892103.4907585     
  -34790159.4583268     
  -34696574.9052224     
  -34612188.2100695     
  -34536614.8821850     
  -34469096.1518962     
  -34409201.7189553     
  -34356293.4228065     
  -34310540.9883530     
  -34272317.0234581     
  -34241553.9083251     
  -34218426.3852940     
  -34202801.4898817     
  -34194919.2899357     
  -34195171.2591601     
  -34204173.8829089     
  -34222644.1016401     
  -34251357.4466358     
  -34291348.1542415     
  -34343913.2984717     
  -34410485.2811065     
  -34492261.3787870     
  -34590649.3819500     
  -34708037.9070030     
  -34847480.9749362     
  -35012000.4561129     
  -35214710.2974588     
  -40283687.2963650     
  -39597254.0220481     
  -38983327.0028599     
  -38428273.0923583     
  -37921749.9164822     
  -37472971.7734661     
  -37122214.3762816     
  -36809133.9715151     
  -36515559.6230147     
  -36237291.5436408     
  -35971092.7904178     
  -35719826.2831439     
  -35484814.4446209     
  -35264298.7387947     
  -35056655.6730824     
  -34861135.9023100     
  -34676781.3964265     
  -34503171.5582983     
  -34339813.4715223     
  -34186316.7619601     
  -34042408.0609441     
  -33907866.2071160     
  -33782453.4428059     
  -33665933.7698212     
  -33558214.2823738     
  -33458876.7157700     
  -33367516.2949848     
  -33283981.0486209     
  -33208197.5482847     
  -33140018.3793769     
  -33079338.2697876     
  -33026022.1500436     
  -32979886.8253839     
  -32940908.1926799     
  -32909135.7993034     
  -32884690.3328046     
  -32867568.2791199     
  -32858097.7895659     
  -32856677.4531975     
  -32863900.9726805     
  -32880603.4230053     
  -32907791.1700533     
  -32946863.4243944     
  -32999749.1060189     
  -33068992.4594840     
  -33157681.9938507     
  -33268637.6513971     
  -33410156.6896549     
  -33588527.8631939     
  -33806253.7079684     
SCALARS 2waySource double 
LOOKUP_TABLE default
  2.208598958304753E-004
  1.854816208831064E-004
  1.603406791540298E-004
  1.397153678518008E-004
  1.224958793878802E-004
  1.032268873352734E-004
  8.752708049871040E-005
  7.546993089677120E-005
  6.576250493952827E-005
  5.775231848060357E-005
  5.120315095958799E-005
  4.615486689583034E-005
  4.235113833669430E-005
  3.921382578018887E-005
  3.710801035029347E-005
  3.567376258558411E-005
  3.472554048483179E-005
  3.418466591739807E-005
  3.425561370255828E-005
  3.467967228215171E-005
  3.511178684743520E-005
  3.586436473779226E-005
  3.870713508233978E-005
  4.119022517161009E-005
  4.313682610088713E-005
  4.469162629493224E-005
  4.744481147930746E-005
  4.958828400420911E-005
  5.075460949487332E-005
  5.086835821713411E-005
  4.986377429848529E-005
  4.766682026390553E-005
  4.421180153577470E-005
  3.946705669387464E-005
  3.341294197530305E-005
  2.603650270482161E-005
  1.731782746767190E-005
  7.232997718993226E-006
 -4.282558252373725E-006
 -1.733289701843302E-005
 -3.208662624891296E-005
 -4.874313321888570E-005
 -6.753690341439246E-005
 -8.875997361783555E-005
 -1.127674760691710E-004
 -1.362127695164567E-004
 -1.326257570844268E-004
 -1.224962917679895E-004
 -1.040008266458149E-004
 -7.404989391794007E-005
  9.076045565234781E-005
  1.216109909531977E-004
  1.424107468250157E-004
  1.552858961158913E-004
  1.615582812666805E-004
  1.645271246920334E-004
  1.654474281512432E-004
  1.651735588788599E-004
  1.641480490547911E-004
  1.626209435289267E-004
  1.608769928716327E-004
  1.589553285225281E-004
  1.570393379558887E-004
  1.570216645817038E-004
  1.575133041844615E-004
  1.580711352073926E-004
  1.586682524288038E-004
  1.591861374474501E-004
  1.602066442604096E-004
  1.611972254154995E-004
  1.619908859315319E-004
  1.628486920129934E-004
  1.645634711449638E-004
  1.659722397750438E-004
  1.671271609446339E-004
  1.682209404321663E-004
  1.694265670068597E-004
  1.702410313234764E-004
  1.705538695343537E-004
  1.702076599120282E-004
  1.690557978636156E-004
  1.668918687427514E-004
  1.635435547212199E-004
  1.588712382519411E-004
  1.527842559013007E-004
  1.452542812989787E-004
  1.362744643043509E-004
  1.258732396933408E-004
  1.140614186226225E-004
  1.006984205065553E-004
  8.569133846183000E-005
  6.882812553728589E-005
  4.975801555756592E-005
  2.806459825046998E-005
  3.279276461545295E-006
 -2.332828527516507E-005
 -1.243868179920818E-005
  2.878014958685261E-006
  2.362693634594577E-005
  4.826018105704647E-005
  1.082619589125446E-004
  1.427145471935557E-004
  1.676704542888073E-004
  1.859111618360308E-004
  1.992503976440196E-004
  2.089184933048858E-004
  2.157594504964147E-004
  2.206328523807759E-004
  2.241308396904178E-004
  2.265780010792229E-004
  2.283190697588079E-004
  2.295100989175471E-004
  2.304566746636737E-004
  2.319211831202574E-004
  2.332199339162540E-004
  2.343655314919912E-004
  2.353278652919043E-004
  2.361990678321921E-004
  2.375343793626738E-004
  2.390351344669159E-004
  2.404899012238777E-004
  2.419615310802458E-004
  2.434269866492117E-004
  2.449205126436536E-004
  2.463901020752381E-004
  2.477618839743421E-004
  2.489517154117020E-004
  2.500063040860660E-004
  2.508376986814811E-004
  2.513622389167472E-004
  2.514558444477133E-004
  2.509265305103243E-004
  2.495305696471363E-004
  2.469540078463393E-004
  2.428372074061972E-004
  2.368987507651490E-004
  2.291228580517619E-004
  2.194081247685729E-004
  2.077353811206883E-004
  1.945265986072952E-004
  1.795801272204611E-004
  1.628422389971917E-004
  1.442653449748066E-004
  1.236010732624458E-004
  1.006830386738782E-004
  7.524207859125061E-005
  7.029797413429098E-005
  9.220469963173864E-005
  1.145514426642128E-004
  1.355262603860156E-004
  2.492615782671311E-004
  2.429944681225136E-004
  2.418804766149269E-004
  2.429758906976349E-004
  2.452962613166842E-004
  2.481604808474304E-004
  2.511604526907990E-004
  2.540951169432086E-004
  2.568742311778421E-004
  2.594868832185022E-004
  2.619553175434496E-004
  2.643148560135366E-004
  2.666089530180114E-004
  2.688587343747048E-004
  2.707114748679289E-004
  2.722116906231716E-004
  2.738248433491857E-004
  2.755416030163801E-004
  2.772285454764907E-004
  2.789462789772291E-004
  2.807063250013744E-004
  2.824632937931009E-004
  2.842106462847882E-004
  2.859298222806166E-004
  2.876259719253709E-004
  2.893012983991150E-004
  2.909632572313064E-004
  2.925893889616113E-004
  2.941854359279428E-004
  2.957430536330670E-004
  2.972353459191654E-004
  2.986086382474308E-004
  2.997643817936322E-004
  3.005314764460187E-004
  3.006059853579770E-004
  2.993250762178402E-004
  2.952053095259346E-004
  2.882799073290187E-004
  2.792654004478113E-004
  2.668573587910905E-004
  2.522535092988715E-004
  2.359943664924458E-004
  2.183318324901424E-004
  2.001489922103621E-004
  1.811486971058529E-004
  1.615402469026012E-004
  1.450994836925457E-004
  1.433244479472966E-004
  1.585535782276293E-004
  1.821316704547910E-004
  3.022492937256038E-004
  2.946332245626425E-004
  2.892371655557313E-004
  2.854798881549958E-004
  2.833353496205695E-004
  2.823428348181034E-004
  2.821638480462940E-004
  2.825530399730322E-004
  2.833365742153859E-004
  2.843913299979085E-004
  2.856409716173756E-004
  2.870260198166589E-004
  2.885052372139256E-004
  2.900642702473880E-004
  2.915383999530879E-004
  2.929407882600362E-004
  2.945024099253882E-004
  2.961451403195837E-004
  2.978530832647645E-004
  2.995816420577387E-004
  3.013121685366555E-004
  3.030430669674550E-004
  3.047621532889099E-004
  3.064624255703362E-004
  3.081373452571315E-004
  3.097841198744299E-004
  3.113978164323307E-004
  3.129824874763477E-004
  3.145367018684491E-004
  3.160645483346603E-004
  3.175762880898462E-004
  3.190898743046543E-004
  3.206341889400205E-004
  3.222577506391116E-004
  3.240410293585442E-004
  3.258105638595205E-004
  3.268813783292301E-004
  3.278698441396126E-004
  3.224658624614981E-004
  3.156487776315208E-004
  3.044581782499630E-004
  2.897810954879557E-004
  2.740227862179915E-004
  2.556181533623814E-004
  2.372004067000469E-004
  2.195321615864296E-004
  2.028709713878544E-004
  1.886278900156421E-004
  1.831037929741897E-004
  1.837000094306396E-004
  2.939848640987668E-004
  2.957539594082722E-004
  2.965576866766025E-004
  2.970297167088631E-004
  2.974055310785057E-004
  2.978845444209766E-004
  2.985409815832690E-004
  2.993872350342109E-004
  3.004068199808927E-004
  3.015723290093496E-004
  3.028514160866863E-004
  3.042152508971763E-004
  3.056369528459108E-004
  3.070868111309188E-004
  3.085587459125302E-004
  3.100395044730699E-004
  3.115227744023321E-004
  3.130191106361441E-004
  3.145183238205248E-004
  3.160161479653999E-004
  3.175018602877629E-004
  3.189629076875070E-004
  3.203913997095894E-004
  3.217790837488768E-004
  3.231186944748707E-004
  3.244028762777469E-004
  3.256258132733435E-004
  3.267809785222261E-004
  3.278645960335461E-004
  3.288732506621810E-004
  3.298052461341625E-004
  3.306614142136407E-004
  3.314462583321097E-004
  3.321691779912594E-004
  3.328467331650996E-004
  3.334147481969754E-004
  3.334843386678197E-004
  3.337445291170002E-004
  3.317607966666959E-004
  3.302871500017282E-004
  3.268211352709926E-004
  3.231689490574616E-004
  3.092725232535985E-004
  2.948816830344902E-004
  2.760997216351566E-004
  2.561608198118182E-004
  2.369767109023691E-004
  2.171140077457627E-004
  1.990642550379778E-004
  1.821202232521650E-004
  2.873963449335166E-004
  2.898564976699154E-004
  2.922726634132742E-004
  2.944994601045787E-004
  2.965503845240583E-004
  2.984511334921717E-004
  3.002463078503430E-004
  3.019754398431602E-004
  3.036667882456662E-004
  3.053374948468296E-004
  3.069966222339936E-004
  3.086466735246968E-004
  3.102867130771277E-004
  3.119158516247639E-004
  3.135280579884837E-004
  3.151198852924002E-004
  3.166864722966695E-004
  3.182194444556200E-004
  3.197156921168744E-004
  3.211697119441548E-004
  3.225768567478657E-004
  3.239320876365349E-004
  3.252288032282540E-004
  3.264603985252933E-004
  3.276199273630179E-004
  3.287003929382733E-004
  3.296942345995695E-004
  3.305938475999031E-004
  3.313906721423007E-004
  3.320756778288414E-004
  3.326386832165259E-004
  3.330676513774089E-004
  3.333473477449332E-004
  3.334568270406022E-004
  3.333642210628389E-004
  3.330438999479195E-004
  3.325509890629170E-004
  3.316483456954218E-004
  3.304860781236489E-004
  3.289873204396310E-004
  3.262920664948276E-004
  3.237107392982953E-004
  3.172479211870917E-004
  3.111213160044590E-004
  3.024055716844447E-004
  2.919846259720628E-004
  2.705909132219238E-004
  2.494908570883313E-004
  2.239612377837764E-004
  1.996169476800375E-004
  2.808088947268430E-004
  2.835428140991291E-004
  2.861003519787593E-004
  2.885490000328938E-004
  2.908997711439515E-004
  2.931608776992002E-004
  2.953371826289498E-004
  2.974354633544582E-004
  2.994638442630220E-004
  3.014303688131136E-004
  3.033417678495014E-004
  3.052032387916919E-004
  3.070181395199695E-004
  3.087875611272537E-004
  3.105120368953199E-004
  3.121901268032161E-004
  3.138198390629156E-004
  3.153992415650179E-004
  3.169245160753877E-004
  3.183920923351605E-004
  3.197977457860875E-004
  3.211369246884333E-004
  3.224049473406358E-004
  3.235965749648674E-004
  3.247061070362205E-004
  3.257272626878531E-004
  3.266532469297372E-004
  3.274764908177930E-004
  3.281886858169127E-004
  3.287803965544593E-004
  3.292408965551210E-004
  3.295578896059606E-004
  3.297173549142779E-004
  3.297038598657331E-004
  3.295023735187761E-004
  3.290952279665175E-004
  3.284396916079271E-004
  3.275649529877774E-004
  3.263929385214564E-004
  3.248801555120360E-004
  3.231852266777518E-004
  3.209193398381135E-004
  3.183099315865696E-004
  3.151606683627488E-004
  3.103344144117330E-004
  3.050023870588433E-004
  2.953084560849913E-004
  2.849400753809223E-004
  2.708246234478299E-004
  2.488371221377712E-004
  2.748828434512798E-004
  2.770576264369098E-004
  2.792349368122310E-004
  2.813888462489996E-004
  2.835144217979708E-004
  2.856083288931582E-004
  2.876685605142978E-004
  2.896930544916231E-004
  2.916799268453776E-004
  2.936276595537404E-004
  2.955351040458934E-004
  2.974012375050558E-004
  2.992250127972700E-004
  3.010053644418702E-004
  3.027407673057880E-004
  3.044295882514602E-004
  3.060697620357456E-004
  3.076587333556921E-004
  3.091939723910899E-004
  3.106724649563618E-004
  3.120910104670720E-004
  3.134461541471687E-004
  3.147341601156852E-004
  3.159511090367592E-004
  3.170928439750045E-004
  3.181549739974234E-004
  3.191328189072586E-004
  3.200214323250530E-004
  3.208155461750532E-004
  3.215096220117749E-004
  3.220978574296471E-004
  3.225742642356259E-004
  3.229327664821162E-004
  3.231672062055608E-004
  3.232707877485860E-004
  3.232364191699935E-004
  3.230633122553925E-004
  3.227312952103568E-004
  3.222473358346673E-004
  3.216146500393718E-004
  3.207849473148719E-004
  3.198494968789289E-004
  3.187301096345923E-004
  3.174301887396090E-004
  3.162215048243891E-004
  3.146550831898351E-004
  3.131133821992835E-004
  3.113270099929973E-004
  3.084628461470643E-004
  3.034706265298362E-004
  2.688341417147617E-004
  2.703673385566780E-004
  2.719608967203761E-004
  2.736056213606799E-004
  2.752883030097017E-004
  2.769977595546184E-004
  2.787243911835400E-004
  2.804600959636538E-004
  2.821978615718103E-004
  2.839314983194942E-004
  2.856554759998073E-004
  2.873648405579682E-004
  2.890551195460592E-004
  2.907221940906400E-004
  2.923622984570508E-004
  2.939718527771906E-004
  2.955474841831537E-004
  2.970859889818021E-004
  2.985841834870517E-004
  3.000390192169959E-004
  3.014474905903147E-004
  3.028066530846714E-004
  3.041136292403585E-004
  3.053655916549213E-004
  3.065597888699750E-004
  3.076935573231191E-004
  3.087643560967996E-004
  3.097697909831168E-004
  3.107076716430299E-004
  3.115760586885964E-004
  3.123733415307478E-004
  3.130983138496249E-004
  3.137502581902652E-004
  3.143290709832546E-004
  3.148356116510682E-004
  3.152719973158897E-004
  3.156400124592549E-004
  3.159484551834401E-004
  3.162018877042026E-004
  3.164076883054723E-004
  3.165901900896286E-004
  3.167422014655856E-004
  3.169075244276526E-004
  3.171257047579287E-004
  3.173768764051494E-004
  3.178345976079509E-004
  3.184594515010355E-004
  3.193912247390155E-004
  3.210207781817327E-004
  3.233951352094499E-004
  2.623125353762771E-004
  2.632215618659664E-004
  2.642419456812456E-004
  2.653568509268768E-004
  2.665525608960867E-004
  2.678164166072036E-004
  2.691368814276428E-004
  2.705034548346114E-004
  2.719066425561988E-004
  2.733378742789514E-004
  2.747894047645688E-004
  2.762542124220133E-004
  2.777259154785637E-004
  2.791987111123511E-004
  2.806672944857856E-004
  2.821268273940179E-004
  2.835728706276728E-004
  2.850013436083713E-004
  2.864085175696532E-004
  2.877909537927981E-004
  2.891455059611029E-004
  2.904692999718512E-004
  2.917597270109464E-004
  2.930144494755365E-004
  2.942314043601078E-004
  2.954088198255801E-004
  2.965452347040556E-004
  2.976395305828190E-004
  2.986909661004148E-004
  2.996992253374198E-004
  3.006644713976682E-004
  3.015874171242447E-004
  3.024694149657452E-004
  3.033125650978706E-004
  3.041197857059029E-004
  3.048948894687320E-004
  3.056432759531075E-004
  3.063701917361641E-004
  3.070837857774596E-004
  3.077940299440985E-004
  3.085092177734549E-004
  3.092492164091093E-004
  3.100247449052933E-004
  3.108497415045220E-004
  3.117577110625032E-004
  3.127367681513328E-004
  3.138361135032259E-004
  3.150663261191756E-004
  3.163565261386811E-004
  3.176493579442049E-004
  2.551665691862339E-004
  2.555495999682724E-004
  2.560671320651946E-004
  2.567048672730853E-004
  2.574490745020302E-004
  2.582871272715003E-004
  2.592073675262210E-004
  2.601990375540204E-004
  2.612522080248420E-004
  2.623577250159449E-004
  2.635071615064553E-004
  2.646927704738427E-004
  2.659074372312760E-004
  2.671446305476014E-004
  2.683983641840909E-004
  2.696631524134249E-004
  2.709339802418854E-004
  2.722062721632319E-004
  2.734758594810586E-004
  2.747389667735676E-004
  2.759921876248147E-004
  2.772324729202755E-004
  2.784571212154804E-004
  2.796637720958766E-004
  2.808504060574864E-004
  2.820153467007941E-004
  2.831572682132769E-004
  2.842752055639093E-004
  2.853685701102587E-004
  2.864371677294554E-004
  2.874812218543686E-004
  2.885013980187203E-004
  2.894988283109608E-004
  2.904751332385390E-004
  2.914324561546931E-004
  2.923735066539489E-004
  2.933014128131870E-004
  2.942202393137124E-004
  2.951342829297275E-004
  2.960482582751316E-004
  2.969682336270831E-004
  2.978979709539419E-004
  2.988438725279400E-004
  2.998119994915786E-004
  3.008028284834139E-004
  3.018272840570319E-004
  3.028776272565517E-004
  3.039497229891806E-004
  3.050567690957790E-004
  3.062205675814647E-004
  2.474167903911637E-004
  2.473800026549366E-004
  2.474870238660323E-004
  2.477248602709176E-004
  2.480813885955618E-004
  2.485451661579600E-004
  2.491054434846585E-004
  2.497521452904454E-004
  2.504758482733627E-004
  2.512677527915036E-004
  2.521196540873776E-004
  2.530239139905663E-004
  2.539734335813291E-004
  2.549616274147947E-004
  2.559823968373680E-004
  2.570301067594032E-004
  2.580995612609574E-004
  2.591859823655517E-004
  2.602849917700512E-004
  2.613925909181766E-004
  2.625051469194154E-004
  2.636193781218523E-004
  2.647323423528770E-004
  2.658414272908336E-004
  2.669443420496673E-004
  2.680391109112676E-004
  2.691240681198676E-004
  2.701978541244512E-004
  2.712594121580843E-004
  2.723079853007311E-004
  2.733431126148536E-004
  2.743646242292298E-004
  2.753726346467730E-004
  2.763675339656939E-004
  2.773499708633416E-004
  2.783208227090447E-004
  2.792812130648977E-004
  2.802323304723301E-004
  2.811755300759920E-004
  2.821122188337427E-004
  2.830434669711601E-004
  2.839708327646258E-004
  2.848949770165465E-004
  2.858160795054071E-004
  2.867350982123476E-004
  2.876493826233385E-004
  2.885601918045296E-004
  2.894679049137957E-004
  2.903682932784659E-004
  2.912504441847882E-004
  2.391662619301575E-004
  2.388069312772299E-004
  2.385907661174347E-004
  2.385068261861946E-004
  2.385446434243930E-004
  2.386942680642334E-004
  2.389462506968334E-004
  2.392916333549140E-004
  2.397219393579371E-004
  2.402291626372743E-004
  2.408057554153770E-004
  2.414446146528795E-004
  2.421390677099945E-004
  2.428828573890065E-004
  2.436701272528055E-004
  2.444954064169443E-004
  2.453535951373529E-004
  2.462399502954720E-004
  2.471500710699724E-004
  2.480798859426346E-004
  2.490256392434080E-004
  2.499838788843746E-004
  2.509514443846773E-004
  2.519254553066268E-004
  2.529033001761142E-004
  2.538826254530754E-004
  2.548613245979448E-004
  2.558375267985911E-004
  2.568095852399888E-004
  2.577760644012382E-004
  2.587357261877791E-004
  2.596875142915407E-004
  2.606305362067899E-004
  2.615640419563894E-004
  2.624874001801112E-004
  2.634000727443290E-004
  2.643015678910962E-004
  2.651914403104817E-004
  2.660692154205010E-004
  2.669343533350228E-004
  2.677862942379276E-004
  2.686241732122971E-004
  2.694470899258545E-004
  2.702539815420008E-004
  2.710432211376591E-004
  2.718137471963668E-004
  2.725630914288839E-004
  2.732882602100798E-004
  2.739865101915559E-004
  2.746569326918230E-004
  2.305418184439631E-004
  2.299414250108522E-004
  2.294779130851644E-004
  2.291421364621477E-004
  2.289253028284821E-004
  2.288189638215659E-004
  2.288150209382157E-004
  2.289057254872811E-004
  2.290836766978688E-004
  2.293418181643199E-004
  2.296734331649090E-004
  2.300721389284166E-004
  2.305318799361311E-004
  2.310469204551034E-004
  2.316118362886112E-004
  2.322215061123866E-004
  2.328711022293858E-004
  2.335560810892139E-004
  2.342721735762303E-004
  2.350153748780044E-004
  2.357819344166332E-004
  2.365683454236054E-004
  2.373713343947622E-004
  2.381878503281010E-004
  2.390150536532571E-004
  2.398503048524125E-004
  2.406911526130935E-004
  2.415353214561519E-004
  2.423806986717304E-004
  2.432253204748875E-004
  2.440673571915707E-004
  2.449050973822391E-004
  2.457369308145660E-004
  2.465613303809436E-004
  2.473768326888004E-004
  2.481820167296190E-004
  2.489754869769732E-004
  2.497558422143703E-004
  2.505216614631903E-004
  2.512714815897060E-004
  2.520037491915937E-004
  2.527168618681019E-004
  2.534090730607633E-004
  2.540784828903624E-004
  2.547231168621684E-004
  2.553405868322800E-004
  2.559285515832027E-004
  2.564845432217253E-004
  2.570058250059386E-004
  2.574887051424349E-004
  2.216604424834836E-004
  2.208856107241883E-004
  2.202381399555908E-004
  2.197104959427827E-004
  2.192953713570294E-004
  2.189856954275944E-004
  2.187746369985380E-004
  2.186556076019376E-004
  2.186222632438247E-004
  2.186685049968288E-004
  2.187884784198928E-004
  2.189765719423297E-004
  2.192274143262369E-004
  2.195358712743336E-004
  2.198970412983037E-004
  2.203062508626634E-004
  2.207590489362933E-004
  2.212512009468266E-004
  2.217786822084239E-004
  2.223376709150378E-004
  2.229245406190451E-004
  2.235358523271973E-004
  2.241683461554481E-004
  2.248189325667211E-004
  2.254846831938615E-004
  2.261628212177098E-004
  2.268507113028372E-004
  2.275458490588434E-004
  2.282458500217778E-004
  2.289484381323849E-004
  2.296514337229778E-004
  2.303527410174126E-004
  2.310503351719390E-004
  2.317422488521718E-004
  2.324265584711248E-004
  2.331013704253673E-004
  2.337648055026189E-004
  2.344149867358622E-004
  2.350500230174509E-004
  2.356679941349730E-004
  2.362669439269835E-004
  2.368448498918829E-004
  2.373996265628251E-004
  2.379291119862547E-004
  2.384310283021913E-004
  2.389030593372821E-004
  2.393427288942219E-004
  2.397474184905495E-004
  2.401143686916816E-004
  2.404409142028704E-004
  2.126171384625058E-004
  2.117221706080397E-004
  2.109433813865612E-004
  2.102746124008535E-004
  2.097098536174193E-004
  2.092432486604967E-004
  2.088691004958736E-004
  2.085818756332619E-004
  2.083762073613977E-004
  2.082468980488269E-004
  2.081889205669121E-004
  2.081974188659011E-004
  2.082677077457141E-004
  2.083952718754722E-004
  2.085757640997745E-004
  2.088050030897033E-004
  2.090789703642026E-004
  2.093938067360633E-004
  2.097458082115524E-004
  2.101314213646683E-004
  2.105472382415598E-004
  2.109899907918500E-004
  2.114565448689416E-004
  2.119438938126499E-004
  2.124491516314656E-004
  2.129695458068081E-004
  2.135024097319095E-004
  2.140451748080519E-004
  2.145953622162995E-004
  2.151505743918539E-004
  2.157084862255218E-004
  2.162668360254799E-004
  2.168234162744361E-004
  2.173760642381946E-004
  2.179226524579727E-004
  2.184610790818415E-004
  2.189892586746866E-004
  2.195051121709229E-004
  2.200065579787105E-004
  2.204915031888106E-004
  2.209578327216600E-004
  2.214034052650917E-004
  2.218260418367176E-004
  2.222235184907912E-004
  2.225935680996928E-004
  2.229338509942328E-004
  2.232419757811570E-004
  2.235154918945407E-004
  2.237518930991085E-004
  2.239485385145630E-004
  2.034849153022682E-004
  2.025142730651271E-004
  2.016479227144266E-004
  2.008808807730497E-004
  2.002082519495575E-004
  1.996252356092688E-004
  1.991271310504184E-004
  1.987093421497967E-004
  1.983673812408570E-004
  1.980968722539668E-004
  1.978935531429863E-004
  1.977532776288893E-004
  1.976720162888435E-004
  1.976458570165672E-004
  1.976710048843378E-004
  1.977437814320818E-004
  1.978606234158085E-004
  1.980180810395441E-004
  1.982128157000511E-004
  1.984415972733521E-004
  1.987013009627344E-004
  1.989889037411526E-004
  1.993014804076665E-004
  1.996361992848993E-004
  1.999903175823881E-004
  2.003611764496375E-004
  2.007461957459476E-004
  2.011428685523863E-004
  2.015487554544078E-004
  2.019614786234515E-004
  2.023787157292553E-004
  2.027981937156796E-004
  2.032176824762517E-004
  2.036349884632108E-004
  2.040479482738155E-004
  2.044544222922428E-004
  2.048522882606500E-004
  2.052394352038492E-004
  2.056137572824686E-004
  2.059731478332666E-004
  2.063154943865128E-004
  2.066386723228259E-004
  2.069405407337481E-004
  2.072189380198940E-004
  2.074716753035416E-004
  2.076965390201238E-004
  2.078912821777497E-004
  2.080536222508471E-004
  2.081812350892562E-004
  2.082717769692299E-004
  1.943197542278990E-004
  1.933098616510914E-004
  1.923922928682477E-004
  1.915630631120229E-004
  1.908182323328050E-004
  1.901539110706385E-004
  1.895662658146065E-004
  1.890515237057959E-004
  1.886059766472794E-004
  1.882259848318400E-004
  1.879079797028110E-004
  1.876484663641621E-004
  1.874440254578820E-004
  1.872913145285631E-004
  1.871870688945277E-004
  1.871281020466056E-004
  1.871113055945339E-004
  1.871336487831568E-004
  1.871921775994985E-004
  1.872840134919152E-004
  1.874063517250279E-004
  1.875564593906635E-004
  1.877316730988155E-004
  1.879293963707429E-004
  1.881470967574404E-004
  1.883823027072481E-004
  1.886326002064424E-004
  1.888956292177457E-004
  1.891690799418044E-004
  1.894506889281018E-004
  1.897382350618641E-004
  1.900295354548153E-004
  1.903224412679414E-004
  1.906148334967114E-004
  1.909046187482279E-004
  1.911897250286228E-004
  1.914680976218470E-004
  1.917376949906659E-004
  1.919964848458468E-004
  1.922424403834306E-004
  1.924735364854238E-004
  1.926877465551501E-004
  1.928830391566733E-004
  1.930573750186162E-004
  1.932087051440829E-004
  1.933349668970749E-004
  1.934340832011901E-004
  1.935039608124479E-004
  1.935424907834395E-004
  1.935475407015377E-004
  1.851662089305920E-004
  1.841466643817334E-004
  1.832078129212043E-004
  1.823465161213365E-004
  1.815596481646029E-004
  1.808441015138627E-004
  1.801967920457594E-004
  1.796146637013409E-004
  1.790946926494096E-004
  1.786338909764306E-004
  1.782293099158769E-004
  1.778780426306442E-004
  1.775772265625756E-004
  1.773240453634317E-004
  1.771157304227778E-004
  1.769495620083358E-004
  1.768228700352618E-004
  1.767330344809453E-004
  1.766774854624864E-004
  1.766537029945837E-004
  1.766592164453686E-004
  1.766916037089074E-004
  1.767484901126559E-004
  1.768275470789792E-004
  1.769264905600595E-004
  1.770430792656800E-004
  1.771751127040301E-004
  1.773204290556648E-004
  1.774769029013222E-004
  1.776424428244146E-004
  1.778149889094184E-004
  1.779925101574986E-004
  1.781730018410878E-004
  1.783544828186643E-004
  1.785349928315513E-004
  1.787125898082514E-004
  1.788853471834625E-004
  1.790513512791762E-004
  1.792086987411525E-004
  1.793554940521973E-004
  1.794898472140334E-004
  1.796098714460439E-004
  1.797136811265157E-004
  1.797993898861422E-004
  1.798651086235943E-004
  1.799089443229450E-004
  1.799289984312808E-004
  1.799233657208835E-004
  1.798901326967176E-004
  1.798273788087649E-004
  1.760617515416619E-004
  1.750561701105534E-004
  1.741202767888126E-004
  1.732516449646142E-004
  1.724478376778912E-004
  1.717064129155219E-004
  1.710249284987395E-004
  1.704009465600648E-004
  1.698320376242337E-004
  1.693157843026223E-004
  1.688497846115222E-004
  1.684316549251755E-004
  1.680590325749445E-004
  1.677295781064108E-004
  1.674409772064746E-004
  1.671909423130907E-004
  1.669772139204456E-004
  1.667975615929319E-004
  1.666497847014999E-004
  1.665317128962431E-004
  1.664412063296583E-004
  1.663761556448706E-004
  1.663344817437920E-004
  1.663141353501221E-004
  1.663130963825697E-004
  1.663293731536269E-004
  1.663610014095896E-004
  1.664060432275896E-004
  1.664625857854823E-004
  1.665287400205375E-004
  1.666026391929271E-004
  1.666824373699460E-004
  1.667663078468012E-004
  1.668524415197921E-004
  1.669390452275305E-004
  1.670243400741073E-004
  1.671065597532574E-004
  1.671839488810803E-004
  1.672547613578577E-004
  1.673172587738090E-004
  1.673697088497308E-004
  1.674103839689851E-004
  1.674375597614265E-004
  1.674495137678549E-004
  1.674445242735857E-004
  1.674208690836742E-004
  1.673768245479646E-004
  1.673106646322571E-004
  1.672206603337655E-004
  1.671050784569172E-004
  1.670394485608893E-004
  1.660661306851213E-004
  1.651523149046304E-004
  1.642961666845423E-004
  1.634958254253559E-004
  1.627494093419366E-004
  1.620550200014464E-004
  1.614107465312273E-004
  1.608146695031432E-004
  1.602648645029223E-004
  1.597594053929064E-004
  1.592963672770548E-004
  1.588738291771301E-004
  1.584898764294552E-004
  1.581426028117564E-004
  1.578301124099981E-004
  1.575505212353025E-004
  1.573019586013614E-004
  1.570825682729360E-004
  1.568905093962865E-004
  1.567239572226003E-004
  1.565811036356411E-004
  1.564601574950519E-004
  1.563593448068491E-004
  1.562769087328150E-004
  1.562111094505314E-004
  1.561602238759012E-004
  1.561225452600564E-004
  1.560963826725125E-004
  1.560800603823621E-004
  1.560719171493365E-004
  1.560703054363308E-004
  1.560735905548497E-004
  1.560801497546822E-004
  1.560883712686587E-004
  1.560966533236660E-004
  1.561034031270099E-004
  1.561070358397745E-004
  1.561059735450469E-004
  1.560986442188130E-004
  1.560834807180680E-004
  1.560589197819939E-004
  1.560234010649944E-004
  1.559753662051804E-004
  1.559132579082302E-004
  1.558355191134466E-004
  1.557405921735001E-004
  1.556269180985756E-004
  1.554929357737882E-004
  1.553370814412337E-004
  1.581292357401514E-004
  1.572017787322576E-004
  1.563245749840053E-004
  1.554962754001747E-004
  1.547154949111302E-004
  1.539808168587344E-004
  1.532907971121550E-004
  1.526439679180446E-004
  1.520388414914180E-004
  1.514739133531886E-004
  1.509476654205748E-004
  1.504585688570629E-004
  1.500050866885563E-004
  1.495856761928346E-004
  1.491987910695418E-004
  1.488428833980638E-004
  1.485164053910535E-004
  1.482178109513820E-004
  1.479455570405354E-004
  1.476981048666252E-004
  1.474739209003751E-004
  1.472714777274556E-004
  1.470892547457914E-004
  1.469257387163888E-004
  1.467794241764634E-004
  1.466488137235362E-004
  1.465324181792377E-004
  1.464287566415558E-004
  1.463363564342186E-004
  1.462537529617023E-004
  1.461794894784809E-004
  1.461121167807007E-004
  1.460501928285402E-004
  1.459922823071220E-004
  1.459369561336159E-004
  1.458827909179179E-004
  1.458283683840568E-004
  1.457722747586807E-004
  1.457131001330733E-004
  1.456494378049211E-004
  1.455798836032774E-004
  1.455030352043928E-004
  1.454174914397420E-004
  1.453218515995937E-004
  1.452147147426401E-004
  1.450946789973635E-004
  1.449603408733161E-004
  1.448102945711516E-004
  1.446431313198958E-004
  1.444574386559256E-004
  1.493582567048588E-004
  1.484861596108285E-004
  1.476560612850585E-004
  1.468670038876017E-004
  1.461179882451209E-004
  1.454079776971913E-004
  1.447359017318788E-004
  1.441006594141827E-004
  1.435011226108173E-004
  1.429361390153362E-004
  1.424045349776877E-004
  1.419051181427146E-004
  1.414366799021659E-004
  1.409979976651377E-004
  1.405878369520119E-004
  1.402049533171687E-004
  1.398480941059103E-004
  1.395160000512032E-004
  1.392074067160413E-004
  1.389210457872137E-004
  1.386556462265939E-004
  1.384099352859401E-004
  1.381826393914480E-004
  1.379724849042018E-004
  1.377781987628361E-004
  1.375985090146288E-004
  1.374321452412931E-004
  1.372778388856661E-004
  1.371343234854678E-004
  1.370003348201834E-004
  1.368746109770032E-004
  1.367558923416731E-004
  1.366429215198765E-004
  1.365344431945915E-004
  1.364292039246703E-004
  1.363259518896195E-004
  1.362234365851952E-004
  1.361204084743462E-004
  1.360156185973826E-004
  1.359078181449924E-004
  1.357957579978087E-004
  1.356781882346226E-004
  1.355538576122730E-004
  1.354215130194079E-004
  1.352798989031355E-004
  1.351277566738247E-004
  1.349638240843475E-004
  1.347868345866424E-004
  1.345955166559165E-004
  1.343885931051671E-004
  1.407506948561335E-004
  1.399399652392084E-004
  1.391639824617780E-004
  1.384220978757245E-004
  1.377136196039544E-004
  1.370378158250479E-004
  1.363939178996210E-004
  1.357811233396829E-004
  1.351985986226942E-004
  1.346454818523120E-004
  1.341208852680656E-004
  1.336238976064920E-004
  1.331535863164944E-004
  1.327089996318799E-004
  1.322891685043127E-004
  1.318931084000298E-004
  1.315198209638611E-004
  1.311682955542961E-004
  1.308375106533931E-004
  1.305264351555280E-004
  1.302340295390104E-004
  1.299592469247346E-004
  1.297010340260774E-004
  1.294583319942580E-004
  1.292300771635192E-004
  1.290152017003304E-004
  1.288126341609630E-004
  1.286212999616763E-004
  1.284401217656505E-004
  1.282680197908681E-004
  1.281039120429346E-004
  1.279467144767365E-004
  1.277953410907491E-004
  1.276487039575711E-004
  1.275057131941623E-004
  1.273652768749645E-004
  1.272263008909821E-004
  1.270876887575285E-004
  1.269483413731393E-004
  1.268071567319577E-004
  1.266630295912855E-004
  1.265148510961487E-004
  1.263615083619015E-004
  1.262018840156468E-004
  1.260348556976090E-004
  1.258592955214690E-004
  1.256740694942672E-004
  1.254780368942548E-004
  1.252700496082665E-004
  1.250489514201046E-004
  1.323274144636224E-004
  1.315811654043123E-004
  1.308633843443912E-004
  1.301736615163141E-004
  1.295115445546271E-004
  1.288765412247820E-004
  1.282681220377517E-004
  1.276857227502295E-004
  1.271287467504821E-004
  1.265965673302159E-004
  1.260885298432459E-004
  1.256039537517630E-004
  1.251421345614850E-004
  1.247023456470965E-004
  1.242838399695533E-004
  1.238858516871195E-004
  1.235075976620610E-004
  1.231482788651711E-004
  1.228070816803792E-004
  1.224831791118279E-004
  1.221757318958978E-004
  1.218838895208021E-004
  1.216067911563161E-004
  1.213435664963879E-004
  1.210933365173492E-004
  1.208552141544352E-004
  1.206283048993975E-004
  1.204117073218915E-004
  1.202045135173607E-004
  1.200058094840272E-004
  1.198146754315767E-004
  1.196301860239972E-004
  1.194514105589727E-004
  1.192774130860600E-004
  1.191072524657937E-004
  1.189399823716793E-004
  1.187746512368614E-004
  1.186103021470906E-004
  1.184459726813911E-004
  1.182806947016247E-004
  1.181134940919349E-004
  1.179433904487427E-004
  1.177693967218099E-004
  1.175905188065706E-004
  1.174057550874934E-004
  1.172140959323350E-004
  1.170145231364165E-004
  1.168060093161455E-004
  1.165875172496756E-004
  1.163579991649878E-004
  1.241056094596315E-004
  1.234246287581347E-004
  1.227667535153722E-004
  1.221317537118832E-004
  1.215193591037863E-004
  1.209292614240409E-004
  1.203611165057284E-004
  1.198145463259742E-004
  1.192891409694294E-004
  1.187844605104514E-004
  1.183000368134981E-004
  1.178353752514424E-004
  1.173899563417461E-004
  1.169632373007631E-004
  1.165546535164509E-004
  1.161636199401489E-004
  1.157895323981385E-004
  1.154317688238486E-004
  1.150896904118064E-004
  1.147626426944013E-004
  1.144499565427722E-004
  1.141509490931424E-004
  1.138649245999964E-004
  1.135911752176120E-004
  1.133289817114196E-004
  1.130776141007553E-004
  1.128363322345675E-004
  1.126043863016134E-004
  1.123810172767121E-004
  1.121654573045359E-004
  1.119569300224398E-004
  1.117546508237049E-004
  1.115578270625774E-004
  1.113656582023120E-004
  1.111773359074102E-004
  1.109920440811054E-004
  1.108089588489855E-004
  1.106272484895874E-004
  1.104460733125755E-004
  1.102645854850179E-004
  1.100819288060557E-004
  1.098972384301393E-004
  1.097096405387477E-004
  1.095182519603767E-004
  1.093221797383575E-004
  1.091205206458353E-004
  1.089123606470131E-004
  1.086967743035582E-004
  1.084728241250370E-004
  1.082395598612978E-004
  1.160985648343613E-004
  1.154818397128102E-004
  1.148836988868630E-004
  1.143040433298446E-004
  1.137427372699460E-004
  1.131996099085641E-004
  1.126744570895773E-004
  1.121670429173837E-004
  1.116771013217104E-004
  1.112043375676668E-004
  1.107484297094938E-004
  1.103090299870629E-004
  1.098857661640186E-004
  1.094782428069848E-004
  1.090860425052417E-004
  1.087087270305700E-004
  1.083458384370352E-004
  1.079969001007254E-004
  1.076614176995051E-004
  1.073388801329990E-004
  1.070287603831335E-004
  1.067305163156618E-004
  1.064435914231184E-004
  1.061674155097777E-004
  1.059014053192272E-004
  1.056449651051767E-004
  1.053974871461958E-004
  1.051583522050121E-004
  1.049269299331355E-004
  1.047025792214146E-004
  1.044846484971938E-004
  1.042724759687441E-004
  1.040653898174626E-004
  1.038627083384695E-004
  1.036637400299564E-004
  1.034677836317929E-004
  1.032741281135843E-004
  1.030820526124942E-004
  1.028908263208772E-004
  1.026997083237610E-004
  1.025079473860503E-004
  1.023147816892168E-004
  1.021194385171095E-004
  1.019211338903788E-004
  1.017190721488354E-004
  1.015124454809885E-004
  1.013004333997692E-004
  1.010822021633536E-004
  1.008569041397539E-004
  1.006236771138797E-004
  1.083155706208143E-004
  1.077607558113770E-004
  1.072207602032716E-004
  1.066955763997007E-004
  1.061851643443025E-004
  1.056894526114616E-004
  1.052083396698062E-004
  1.047416951163243E-004
  1.042893608786121E-004
  1.038511523831484E-004
  1.034268596876440E-004
  1.030162485757823E-004
  1.026190616127911E-004
  1.022350191605857E-004
  1.018638203513027E-004
  1.015051440182458E-004
  1.011586495833955E-004
  1.008239779008442E-004
  1.005007520555093E-004
  1.001885781167128E-004
  9.988704584627917E-005
  9.959572936083427E-005
  9.931418774818758E-005
  9.904196563762509E-005
  9.877859372407687E-005
  9.852358924613712E-005
  9.827645641794180E-005
  9.803668681502160E-005
  9.780375971408129E-005
  9.757714238688720E-005
  9.735629034825604E-005
  9.714064755825539E-005
  9.692964657863039E-005
  9.672270868344186E-005
  9.651924392396658E-005
  9.631865114770070E-005
  9.612031797140215E-005
  9.592362070797106E-005
  9.572792424691521E-005
  9.553258188810898E-005
  9.533693512840332E-005
  9.514031340065096E-005
  9.494203376455489E-005
  9.474140054867857E-005
  9.453770494286228E-005
  9.433022454018573E-005
  9.411822282750948E-005
  9.390094862353119E-005
  9.367763546316000E-005
  9.344750092693929E-005
  1.007619881920720E-004
  1.002658106491016E-004
  9.978135380795099E-005
  9.930867083385601E-005
  9.884778654702644E-005
  9.839869834447085E-005
  9.796137711159832E-005
  9.753576812082315E-005
  9.712179191452821E-005
  9.671934516996730E-005
  9.632830154390123E-005
  9.594851249491711E-005
  9.557980808160474E-005
  9.522199773489279E-005
  9.487487100299277E-005
  9.453819826759978E-005
  9.421173143006277E-005
  9.389520456642780E-005
  9.358833455031868E-005
  9.329082164274958E-005
  9.300235004808469E-005
  9.272258843535332E-005
  9.245119042438691E-005
  9.218779503605338E-005
  9.193202710618786E-005
  9.168349766270000E-005
  9.144180426540394E-005
  9.120653130825367E-005
  9.097725028354449E-005
  9.075352000776049E-005
  9.053488680875463E-005
  9.032088467389767E-005
  9.011103535886168E-005
  8.990484845672174E-005
  8.970182142699457E-005
  8.950143958424613E-005
  8.930317604583722E-005
  8.910649163838537E-005
  8.891083476245996E-005
  8.871564121498273E-005
  8.852033396875814E-005
  8.832432290850364E-005
  8.812700452272282E-005
  8.792776155067900E-005
  8.772596258364973E-005
  8.752096161960179E-005
  8.731209757037453E-005
  8.709869372038094E-005
  8.688005713569760E-005
  8.665547802249842E-005
  9.343944664220042E-005
  9.299804496204699E-005
  9.256584318629148E-005
  9.214293113122738E-005
  9.172937453879260E-005
  9.132521568981137E-005
  9.093047401893543E-005
  9.054514672843558E-005
  9.016920939818264E-005
  8.980261658935061E-005
  8.944530243953797E-005
  8.909718124712536E-005
  8.875814804286931E-005
  8.842807914692147E-005
  8.810683270944526E-005
  8.779424923332214E-005
  8.749015207739544E-005
  8.719434793891251E-005
  8.690662731386349E-005
  8.662676493405996E-005
  8.635452017984835E-005
  8.608963746744059E-005
  8.583184660994071E-005
  8.558086315117047E-005
  8.533638867148944E-005
  8.509811106484161E-005
  8.486570478631928E-005
  8.463883106955452E-005
  8.441713811326029E-005
  8.420026123638521E-005
  8.398782300117973E-005
  8.377943330364993E-005
  8.357468943081297E-005
  8.337317608415618E-005
  8.317446536876288E-005
  8.297811674749668E-005
  8.278367695967282E-005
  8.259067990360611E-005
  8.239864648241680E-005
  8.220708441243862E-005
  8.201548799360940E-005
  8.182333784106313E-005
  8.163010057728495E-005
  8.143522848400732E-005
  8.123815911309257E-005
  8.103831485553747E-005
  8.083510246773247E-005
  8.062791255410853E-005
  8.041611900515700E-005
  8.019907838986496E-005
  8.634613748878748E-005
  8.595533794421979E-005
  8.557171031368723E-005
  8.519536319171965E-005
  8.482638513856506E-005
  8.446484504218759E-005
  8.411079248999760E-005
  8.376425814755663E-005
  8.342525414180605E-005
  8.309377444632016E-005
  8.276979526636064E-005
  8.245327542162674E-005
  8.214415672460116E-005
  8.184236435267701E-005
  8.154780721221060E-005
  8.126037829288879E-005
  8.097995501075879E-005
  8.070639953849899E-005
  8.043955912147979E-005
  8.017926637835539E-005
  7.992533958487314E-005
  7.967758293982262E-005
  7.943578681196023E-005
  7.919972796689188E-005
  7.896916977293995E-005
  7.874386238502543E-005
  7.852354290572203E-005
  7.830793552260411E-005
  7.809675162106405E-005
  7.788968987185760E-005
  7.768643629257036E-005
  7.748666428228506E-005
  7.729003462877366E-005
  7.709619548741480E-005
  7.690478233124401E-005
  7.671541787136267E-005
  7.652771194708468E-005
  7.634126138505755E-005
  7.615564982675051E-005
  7.597044752353953E-005
  7.578521109872016E-005
  7.559948327571387E-005
  7.541279257175984E-005
  7.522465295629219E-005
  7.503456347330472E-005
  7.484200782688474E-005
  7.464645392912136E-005
  7.444735340959160E-005
  7.424414108552896E-005
  7.403623439192601E-005
  7.947717418643608E-005
  7.913270798248611E-005
  7.879379989093307E-005
  7.846056439538230E-005
  7.813309963682825E-005
  7.781148757702459E-005
  7.749579417656700E-005
  7.718606958519511E-005
  7.688234834204240E-005
  7.658464958350568E-005
  7.629297725668341E-005
  7.600732033629377E-005
  7.572765304319491E-005
  7.545393506264003E-005
  7.518611176054310E-005
  7.492411439608674E-005
  7.466786032910864E-005
  7.441725322080330E-005
  7.417218322625476E-005
  7.393252717751971E-005
  7.369814875593675E-005
  7.346889865247629E-005
  7.324461471492574E-005
  7.302512208086267E-005
  7.281023329530018E-005
  7.259974841205356E-005
  7.239345507779097E-005
  7.219112859791610E-005
  7.199253198332496E-005
  7.179741597720890E-005
  7.160551906107036E-005
  7.141656743912066E-005
  7.123027500029706E-005
  7.104634325710336E-005
  7.086446126055866E-005
  7.068430549047705E-005
  7.050553972036797E-005
  7.032781485624141E-005
  7.015076874859391E-005
  6.997402597686212E-005
  6.979719760564579E-005
  6.961988091200088E-005
  6.944165908305528E-005
  6.926210088329621E-005
  6.908076029076518E-005
  6.889717610147179E-005
  6.871087150130421E-005
  6.852135360469545E-005
  6.832811295932604E-005
  6.813062301615456E-005
  7.282498564586842E-005
  7.252265368250154E-005
  7.222460922798554E-005
  7.193096378910191E-005
  7.164181580864172E-005
  7.135725067687265E-005
  7.107734076039376E-005
  7.080214544624631E-005
  7.053171119916651E-005
  7.026607162992649E-005
  7.000524757288116E-005
  6.974924717083176E-005
  6.949806596543798E-005
  6.925168699149312E-005
  6.901008087339448E-005
  6.877320592231703E-005
  6.854100823249217E-005
  6.831342177530933E-005
  6.809036848971897E-005
  6.787175836774123E-005
  6.765748953378291E-005
  6.744744831658331E-005
  6.724150931259025E-005
  6.703953543973867E-005
  6.684137798051445E-005
  6.664687661330956E-005
  6.645585943109419E-005
  6.626814294644436E-005
  6.608353208203163E-005
  6.590182014570617E-005
  6.572278878928155E-005
  6.554620795025758E-005
  6.537183577561158E-005
  6.519941852694143E-005
  6.502869046615847E-005
  6.485937372100663E-005
  6.469117812967883E-005
  6.452380106379270E-005
  6.435692722907007E-005
  6.419022844299565E-005
  6.402336338877317E-005
  6.385597734492636E-005
  6.368770188985556E-005
  6.351815458072907E-005
  6.334693860599600E-005
  6.317364241093338E-005
  6.299783929555644E-005
  6.281908698424866E-005
  6.263692716650183E-005
  6.245088500811863E-005
  6.637971786204074E-005
  6.611551012975417E-005
  6.585459976379128E-005
  6.559708960177541E-005
  6.534307225778023E-005
  6.509263002224335E-005
  6.484583478035491E-005
  6.460274794697373E-005
  6.436342041625645E-005
  6.412789252423332E-005
  6.389619402261286E-005
  6.366834406217065E-005
  6.344435118413796E-005
  6.322421331804285E-005
  6.300791778454833E-005
  6.279544130184574E-005
  6.258674999424034E-005
  6.238179940164489E-005
  6.218053448863723E-005
  6.198288965195218E-005
  6.178878872514608E-005
  6.159814497938444E-005
  6.141086111919179E-005
  6.122682927215570E-005
  6.104593097156286E-005
  6.086803713096364E-005
  6.069300800979606E-005
  6.052069316905056E-005
  6.035093141619258E-005
  6.018355073843717E-005
  6.001836822356960E-005
  5.985518996750645E-005
  5.969381096781586E-005
  5.953401500244909E-005
  5.937557449296938E-005
  5.921825035150105E-005
  5.906179181077425E-005
  5.890593623654943E-005
  5.875040892173898E-005
  5.859492286161737E-005
  5.843917850945104E-005
  5.828286351193550E-005
  5.812565242382315E-005
  5.796720640115404E-005
  5.780717287248262E-005
  5.764518518752659E-005
  5.748086224269455E-005
  5.731380808289957E-005
  5.714361147913319E-005
  5.696984548127125E-005
  6.012962342453063E-005
  5.989980036258263E-005
  5.967251058612746E-005
  5.944784501185484E-005
  5.922588673826250E-005
  5.900671086807828E-005
  5.879038434902257E-005
  5.857696583116735E-005
  5.836650553943872E-005
  5.815904515967253E-005
  5.795461773677682E-005
  5.775324758356759E-005
  5.755495019888577E-005
  5.735973219364585E-005
  5.716759122352388E-005
  5.697851592702998E-005
  5.679248586770061E-005
  5.660947147930110E-005
  5.642943401281944E-005
  5.625232548421569E-005
  5.607808862178383E-005
  5.590665681217563E-005
  5.573795404400172E-005
  5.557189484811586E-005
  5.540838423359127E-005
  5.524731761851610E-005
  5.508858075471485E-005
  5.493204964556645E-005
  5.477759045605223E-005
  5.462505941430796E-005
  5.447430270383571E-005
  5.432515634567074E-005
  5.417744606976535E-005
  5.403098717487522E-005
  5.388558437626668E-005
  5.374103164059206E-005
  5.359711200725792E-005
  5.345359739567857E-005
  5.331024839778366E-005
  5.316681405520375E-005
  5.302303162051819E-005
  5.287862630203315E-005
  5.273331099151570E-005
  5.258678597434401E-005
  5.243873862156098E-005
  5.228884306332244E-005
  5.213675984322641E-005
  5.198213555304941E-005
  5.182460244744112E-005
  5.166377803808252E-005
  5.406142424787570E-005
  5.386256714685948E-005
  5.366565895045024E-005
  5.347077722544771E-005
  5.327799371286474E-005
  5.308737410094765E-005
  5.289897781550068E-005
  5.271285782616591E-005
  5.252906046736063E-005
  5.234762527259765E-005
  5.216858482091754E-005
  5.199196459424709E-005
  5.181778284448236E-005
  5.164605046913194E-005
  5.147677089442989E-005
  5.130993996476466E-005
  5.114554583742255E-005
  5.098356888158346E-005
  5.082398158055547E-005
  5.066674843626378E-005
  5.051182587510275E-005
  5.035916215415426E-005
  5.020869726692545E-005
  5.006036284772849E-005
  4.991408207386056E-005
  4.976976956475331E-005
  4.962733127732055E-005
  4.948666439672944E-005
  4.934765722182776E-005
  4.921018904453039E-005
  4.907413002245360E-005
  4.893934104410182E-005
  4.880567358595494E-005
  4.867296956081965E-005
  4.854106115680224E-005
  4.840977066631698E-005
  4.827891030451454E-005
  4.814828201659634E-005
  4.801767727341455E-005
  4.788687685487001E-005
  4.775565062052395E-005
  4.762375726698745E-005
  4.749094407152761E-005
  4.735694662146236E-005
  4.722148852887139E-005
  4.708428113014596E-005
  4.694502317000169E-005
  4.680340046948539E-005
  4.665908557760165E-005
  4.651173740618698E-005
  4.816063784165821E-005
  4.798967482926237E-005
  4.782021716191509E-005
  4.765232894088875E-005
  4.748607005519394E-005
  4.732149592770041E-005
  4.715865727716328E-005
  4.699759989495794E-005
  4.683836443549783E-005
  4.668098621928546E-005
  4.652549504752921E-005
  4.637191502734484E-005
  4.622026440653564E-005
  4.607055541696062E-005
  4.592279412557335E-005
  4.577698029217028E-005
  4.563310723295945E-005
  4.549116168904433E-005
  4.535112369898166E-005
  4.521296647453821E-005
  4.507665627884989E-005
  4.494215230616595E-005
  4.480940656241077E-005
  4.467836374577420E-005
  4.454896112663789E-005
  4.442112842606075E-005
  4.429478769217466E-005
  4.416985317377091E-005
  4.404623119044194E-005
  4.392381999861712E-005
  4.380250965286044E-005
  4.368218186186902E-005
  4.356270983851113E-005
  4.344395814339030E-005
  4.332578252134205E-005
  4.320802973035303E-005
  4.309053736234398E-005
  4.297313365534486E-005
  4.285563729653912E-005
  4.273785721572811E-005
  4.261959236871225E-005
  4.250063151021043E-005
  4.238075295581191E-005
  4.225972433257125E-005
  4.213730231789421E-005
  4.201323236623745E-005
  4.188724842330916E-005
  4.175907262742407E-005
  4.162841499760017E-005
  4.149497310816473E-005
  4.241186162094435E-005
  4.226607505772375E-005
  4.212145900000043E-005
  4.197806486997573E-005
  4.183594115256104E-005
  4.169513313240885E-005
  4.155568264512068E-005
  4.141762784165068E-005
  4.128100296512969E-005
  4.114583813918148E-005
  4.101215916696045E-005
  4.087998734000660E-005
  4.074933925616168E-005
  4.062022664568367E-005
  4.049265620484734E-005
  4.036662943615271E-005
  4.024214249447291E-005
  4.011918603832099E-005
  3.999774508557953E-005
  3.987779887289692E-005
  3.975932071809788E-005
  3.964227788492813E-005
  3.952663144942151E-005
  3.941233616729479E-005
  3.929934034167598E-005
  3.918758569057024E-005
  3.907700721346793E-005
  3.896753305648530E-005
  3.885908437546515E-005
  3.875157519647112E-005
  3.864491227315545E-005
  3.853899494044109E-005
  3.843371496401745E-005
  3.832895638514797E-005
  3.822459536028414E-005
  3.812049999505329E-005
  3.801653017213386E-005
  3.791253737256623E-005
  3.780836449008850E-005
  3.770384563808867E-005
  3.759880594875635E-005
  3.749306136402930E-005
  3.738641841801189E-005
  3.727867401044856E-005
  3.716961517095027E-005
  3.705901881360836E-005
  3.694665148171496E-005
  3.683226908223585E-005
  3.671561660978877E-005
  3.659642785983199E-005
  3.679901307991412E-005
  3.667603340527057E-005
  3.655397201443276E-005
  3.643286901401740E-005
  3.631276255251415E-005
  3.619368856192163E-005
  3.607568051167195E-005
  3.595876917417524E-005
  3.584298240131831E-005
  3.572834491120858E-005
  3.561487808450475E-005
  3.550259976965550E-005
  3.539152409638942E-005
  3.528166129680692E-005
  3.517301753341588E-005
  3.506559473347555E-005
  3.495939042903680E-005
  3.485439760203824E-005
  3.475060453386924E-005
  3.464799465879315E-005
  3.454654642063833E-005
  3.444623313220630E-005
  3.434702283680055E-005
  3.424887817136755E-005
  3.415175623064888E-005
  3.405560843188531E-005
  3.396038037950306E-005
  3.386601172931605E-005
  3.377243605172011E-005
  3.367958069343962E-005
  3.358736663729725E-005
  3.349570835963252E-005
  3.340451368487113E-005
  3.331368363682191E-005
  3.322311228628905E-005
  3.313268659461517E-005
  3.304228625272948E-005
  3.295178351533645E-005
  3.286104302986516E-005
  3.276992165985677E-005
  3.267826830239453E-005
  3.258592369927664E-005
  3.249272024161471E-005
  3.239848176754301E-005
  3.230302335272882E-005
  3.220615109344178E-005
  3.210766188184798E-005
  3.200734317336365E-005
  3.190497274571014E-005
  3.180031844954871E-005
  3.130552615512706E-005
  3.120331643143237E-005
  3.110183449218285E-005
  3.100111081756213E-005
  3.090117465530238E-005
  3.080205377710712E-005
  3.070377424562382E-005
  3.060636019137546E-005
  3.050983359917814E-005
  3.041421410346791E-005
  3.031951879203821E-005
  3.022576201762590E-005
  3.013295521685140E-005
  3.004110673596354E-005
  2.995022166289941E-005
  2.986030166509708E-005
  2.977134483260682E-005
  2.968334552597226E-005
  2.959629422837353E-005
  2.951017740156660E-005
  2.942497734513538E-005
  2.934067205854932E-005
  2.925723510561429E-005
  2.917463548081336E-005
  2.909283747710673E-005
  2.901180055477081E-005
  2.893147921079564E-005
  2.885182284846300E-005
  2.877277564669447E-005
  2.869427642871677E-005
  2.861625852971916E-005
  2.853864966307142E-005
  2.846137178474937E-005
  2.838434095559392E-005
  2.830746720108288E-005
  2.823065436821662E-005
  2.815379997923232E-005
  2.807679508183246E-005
  2.799952409555488E-005
  2.792186465404809E-005
  2.784368744293585E-005
  2.776485603298413E-005
  2.768522670832627E-005
  2.760464828944402E-005
  2.752296195071707E-005
  2.744000103224695E-005
  2.735559084577583E-005
  2.726954847444175E-005
  2.718168256621943E-005
  2.709179312079416E-005
  2.591450588252347E-005
  2.583134053421655E-005
  2.574875773777755E-005
  2.566678017181646E-005
  2.558542979459522E-005
  2.550472762276562E-005
  2.542469351893805E-005
  2.534534598769684E-005
  2.526670197963680E-005
  2.518877670300348E-005
  2.511158344254964E-005
  2.503513338518959E-005
  2.495943545201815E-005
  2.488449613632779E-005
  2.481031934713638E-005
  2.473690625794239E-005
  2.466425516014230E-005
  2.459236132086783E-005
  2.452121684472886E-005
  2.445081053910927E-005
  2.438112778265488E-005
  2.431215039652376E-005
  2.424385651802438E-005
  2.417622047631795E-005
  2.410921266974933E-005
  2.404279944450294E-005
  2.397694297419947E-005
  2.391160114009512E-005
  2.384672741152865E-005
  2.378227072634347E-005
  2.371817537086157E-005
  2.365438085919290E-005
  2.359082181150776E-005
  2.352742783098202E-005
  2.346412337916472E-005
  2.340082764941421E-005
  2.333745443818417E-005
  2.327391201389381E-005
  2.321010298306058E-005
  2.314592415352858E-005
  2.308126639449888E-005
  2.301601449314752E-005
  2.295004700760707E-005
  2.288323611610481E-005
  2.281544746203913E-005
  2.274653999481325E-005
  2.267636580624348E-005
  2.260476996232840E-005
  2.253159033029081E-005
  2.245665740063799E-005
  2.060884462128276E-005
  2.054328518502232E-005
  2.047819560473049E-005
  2.041359257780475E-005
  2.034949241636236E-005
  2.028591085360235E-005
  2.022286285751336E-005
  2.016036245151317E-005
  2.009842254180716E-005
  2.003705475110842E-005
  1.997626925841833E-005
  1.991607464455781E-005
  1.985647774313559E-005
  1.979748349661739E-005
  1.973909481720273E-005
  1.968131245217999E-005
  1.962413485343143E-005
  1.956755805080398E-005
  1.951157552899168E-005
  1.945617810765747E-005
  1.940135382445350E-005
  1.934708782065465E-005
  1.929336222910498E-005
  1.924015606414600E-005
  1.918744511330122E-005
  1.913520183033153E-005
  1.908339522947937E-005
  1.903199078053735E-005
  1.898095030453494E-005
  1.893023186971452E-005
  1.887978968759484E-005
  1.882957400880584E-005
  1.877953101850438E-005
  1.872960273106285E-005
  1.867972688387382E-005
  1.862983682995727E-005
  1.857986142920306E-005
  1.852972493802035E-005
  1.847934689716683E-005
  1.842864201757636E-005
  1.837752006399403E-005
  1.832588573620807E-005
  1.827363854771120E-005
  1.822067270163731E-005
  1.816687696377913E-005
  1.811213453255076E-005
  1.805632290574146E-005
  1.799931374391732E-005
  1.794097273033588E-005
  1.788115942726211E-005
  1.537130380025591E-005
  1.532217390807269E-005
  1.527342406043108E-005
  1.522506668841260E-005
  1.517711402840607E-005
  1.512957795984333E-005
  1.508246984885255E-005
  1.503580039758231E-005
  1.498957949898599E-005
  1.494381609682184E-005
  1.489851805065826E-005
  1.485369200565255E-005
  1.480934326681287E-005
  1.476547567760312E-005
  1.472209150251304E-005
  1.467919131349544E-005
  1.463677387992121E-005
  1.459483606185930E-005
  1.455337270641809E-005
  1.451237654693401E-005
  1.447183810472854E-005
  1.443174559323854E-005
  1.439208482425670E-005
  1.435283911604581E-005
  1.431398920312318E-005
  1.427551314746070E-005
  1.423738625091342E-005
  1.419958096858709E-005
  1.416206682303110E-005
  1.412481031894637E-005
  1.408777485827144E-005
  1.405092065541951E-005
  1.401420465243980E-005
  1.397758043398048E-005
  1.394099814180133E-005
  1.390440438869392E-005
  1.386774217160616E-005
  1.383095078383224E-005
  1.379396572607187E-005
  1.375671861623512E-005
  1.371913709779563E-005
  1.368114474658705E-005
  1.364266097590045E-005
  1.360360093970753E-005
  1.356387543392888E-005
  1.352339079560037E-005
  1.348204879985002E-005
  1.343974655453120E-005
  1.339637639245112E-005
  1.335182576109603E-005
  1.018456545672967E-005
  1.015092677267222E-005
  1.011759405742577E-005
  1.008457701420212E-005
  1.005188522616583E-005
  1.001952802806267E-005
  9.987514382545711E-006
  9.955852760977266E-006
  9.924551028598383E-006
  9.893616333886607E-006
  9.863055001921553E-006
  9.832872431591563E-006
  9.803072996488905E-006
  9.773659949283365E-006
  9.744635329417499E-006
  9.715999873917211E-006
  9.687752931191213E-006
  9.659892377563685E-006
  9.632414536419092E-006
  9.605314099754055E-006
  9.578584051930754E-006
  9.552215595521690E-006
  9.526198078987306E-006
  9.500518926051452E-006
  9.475163566625659E-006
  9.450115369032940E-006
  9.425355573445561E-006
  9.400863226316987E-006
  9.376615115661138E-006
  9.352585707018921E-006
  9.328747079953860E-006
  9.305068864927854E-006
  9.281518180384643E-006
  9.258059569940464E-006
  9.234654939493738E-006
  9.211263494138960E-006
  9.187841674772693E-006
  9.164343094201902E-006
  9.140718472702518E-006
  9.116915572876273E-006
  9.092879133667569E-006
  9.068550803500129E-006
  9.043869072340507E-006
  9.018769202683923E-006
  8.993183159288338E-006
  8.967039537631369E-006
  8.940263490944427E-006
  8.912776655829264E-006
  8.884497076296572E-006
  8.855339126222840E-006
  5.031257888860559E-006
  5.012388309631803E-006
  4.993761212143176E-006
  4.975384884731146E-006
  4.957267479091334E-006
  4.939416917553871E-006
  4.921840803925239E-006
  4.904546337809250E-006
  4.887540232278564E-006
  4.870828634790981E-006
  4.854417051237916E-006
  4.838310272979743E-006
  4.822512306767999E-006
  4.807026307422391E-006
  4.791854513129757E-006
  4.776998183228779E-006
  4.762457538376629E-006
  4.748231702931077E-006
  4.734318649449584E-006
  4.720715145152809E-006
  4.707416700221806E-006
  4.694417517830896E-006
  4.681710445727070E-006
  4.669286929294148E-006
  4.657136965933396E-006
  4.645249060639146E-006
  4.633610182673689E-006
  4.622205723187476E-006
  4.611019453681887E-006
  4.600033485216111E-006
  4.589228228206527E-006
  4.578582352746789E-006
  4.568072749311759E-006
  4.557674489775315E-006
  4.547360788596319E-006
  4.537102964125108E-006
  4.526870399897127E-006
  4.516630505860882E-006
  4.506348679406831E-006
  4.495988266165627E-006
  4.485510520480570E-006
  4.474874565442326E-006
  4.464037352496310E-006
  4.452953620478315E-006
  4.441575854052760E-006
  4.429854241509507E-006
  4.417736631849444E-006
  4.405168491097189E-006
  4.392092857824217E-006
  4.378450297844372E-006
 -1.060403756894762E-007
 -1.106652698740809E-007
 -1.151041602833918E-007
 -1.193491195857749E-007
 -1.233924435656978E-007
 -1.272267069954565E-007
 -1.308448168457820E-007
 -1.342400630247652E-007
 -1.374061665983017E-007
 -1.403373256733467E-007
 -1.430282589349282E-007
 -1.454742470001396E-007
 -1.476711716005176E-007
 -1.496155527225613E-007
 -1.513045837827594E-007
 -1.527361649171453E-007
 -1.539089344751371E-007
 -1.548222988138945E-007
 -1.554764604692656E-007
 -1.558724448086725E-007
 -1.560121252225691E-007
 -1.558982469878415E-007
 -1.555344498419835E-007
 -1.549252893814877E-007
 -1.540762573627267E-007
 -1.529938009930410E-007
 -1.516853412702203E-007
 -1.501592904710508E-007
 -1.484250688771424E-007
 -1.464931207643560E-007
 -1.443749297964479E-007
 -1.420830338292250E-007
 -1.396310392218254E-007
 -1.370336347491203E-007
 -1.343066051235015E-007
 -1.314668441981514E-007
 -1.285323679684425E-007
 -1.255223273192719E-007
 -1.224570206819567E-007
 -1.193579065446935E-007
 -1.162476159578558E-007
 -1.131499649877854E-007
 -1.100899672109497E-007
 -1.070938462795102E-007
 -1.041890485519977E-007
 -1.014042558573131E-007
 -9.876939839994277E-008
 -9.631566781239524E-008
 -9.407553039584353E-008
 -9.208274054329731E-008
 -5.244814303878732E-006
 -5.235535810072048E-006
 -5.226123168961890E-006
 -5.216568043270019E-006
 -5.206862456609008E-006
 -5.196998811453648E-006
 -5.186969905388020E-006
 -5.176768945650296E-006
 -5.166389562073873E-006
 -5.155825818414149E-006
 -5.145072222163136E-006
 -5.134123732833177E-006
 -5.122975768845318E-006
 -5.111624212997306E-006
 -5.100065416611211E-006
 -5.088296202378903E-006
 -5.076313865991140E-006
 -5.064116176563328E-006
 -5.051701375946350E-006
 -5.039068176945475E-006
 -5.026215760518519E-006
 -5.013143771975054E-006
 -4.999852316251252E-006
 -4.986341952309133E-006
 -4.972613686669189E-006
 -4.958668966167430E-006
 -4.944509669950338E-006
 -4.930138100763240E-006
 -4.915556975553317E-006
 -4.900769415456788E-006
 -4.885778935167325E-006
 -4.870589431760212E-006
 -4.855205172964342E-006
 -4.839630784944860E-006
 -4.823871239604039E-006
 -4.807931841433101E-006
 -4.791818213931396E-006
 -4.775536285621546E-006
 -4.759092275678970E-006
 -4.742492679171175E-006
 -4.725744251950512E-006
 -4.708853995173756E-006
 -4.691829139503000E-006
 -4.674677128928740E-006
 -4.657405604277680E-006
 -4.640022386367811E-006
 -4.622535458807168E-006
 -4.604952950457850E-006
 -4.587283117499908E-006
 -4.569534325147646E-006
 -1.040264002363582E-005
 -1.037962633357321E-005
 -1.035652725511525E-005
 -1.033333357115204E-005
 -1.031003659792425E-005
 -1.028662816415980E-005
 -1.026310058932676E-005
 -1.023944666100055E-005
 -1.021565961142320E-005
 -1.019173309317474E-005
 -1.016766115410227E-005
 -1.014343821143416E-005
 -1.011905902513164E-005
 -1.009451867052917E-005
 -1.006981251022312E-005
 -1.004493616528306E-005
 -1.001988548579706E-005
 -9.994656520709128E-006
 -9.969245487079821E-006
 -9.943648738661760E-006
 -9.917862733912622E-006
 -9.891884003377322E-006
 -9.865709116510643E-006
 -9.839334647915365E-006
 -9.812757143036932E-006
 -9.785973083286763E-006
 -9.758978850642479E-006
 -9.731770691693942E-006
 -9.704344681171606E-006
 -9.676696684924860E-006
 -9.648822322405644E-006
 -9.620716928575980E-006
 -9.592375515322510E-006
 -9.563792732316232E-006
 -9.534962827328119E-006
 -9.505879605996535E-006
 -9.476536391042482E-006
 -9.446925980886983E-006
 -9.417040607699364E-006
 -9.386871894840570E-006
 -9.356410813658204E-006
 -9.325647639676256E-006
 -9.294571908083440E-006
 -9.263172368531020E-006
 -9.231436939235741E-006
 -9.199352660295621E-006
 -9.166905646251738E-006
 -9.134081037817262E-006
 -9.100862952736492E-006
 -9.067234435784362E-006
 -1.559722290054482E-005
 -1.556047415076236E-005
 -1.552368662829153E-005
 -1.548685008305922E-005
 -1.544995499000891E-005
 -1.541299248840717E-005
 -1.537595432113740E-005
 -1.533883277385855E-005
 -1.530162061415349E-005
 -1.526431103057374E-005
 -1.522689757163355E-005
 -1.518937408475180E-005
 -1.515173465506550E-005
 -1.511397354423365E-005
 -1.507608512908428E-005
 -1.503806384020883E-005
 -1.499990410042575E-005
 -1.496160026312435E-005
 -1.492314655047806E-005
 -1.488453699149471E-005
 -1.484576535989398E-005
 -1.480682511181198E-005
 -1.476770932328819E-005
 -1.472841062748690E-005
 -1.468892115171939E-005
 -1.464923245413932E-005
 -1.460933546013424E-005
 -1.456922039839430E-005
 -1.452887673659598E-005
 -1.448829311669243E-005
 -1.444745728976297E-005
 -1.440635605040380E-005
 -1.436497517059326E-005
 -1.432329933303182E-005
 -1.428131206388656E-005
 -1.423899566491244E-005
 -1.419633114490692E-005
 -1.415329815044781E-005
 -1.410987489587008E-005
 -1.406603809243766E-005
 -1.402176287666331E-005
 -1.397702273770532E-005
 -1.393178944382516E-005
 -1.388603296779862E-005
 -1.383972141128550E-005
 -1.379282092805511E-005
 -1.374529564601104E-005
 -1.369710758797550E-005
 -1.364821659115583E-005
 -1.359858022522490E-005
 -2.084644264964063E-005
 -2.079579067274192E-005
 -2.074514505528627E-005
 -2.069449469300188E-005
 -2.064382940230333E-005
 -2.059313981870407E-005
 -2.054241729601869E-005
 -2.049165380631734E-005
 -2.044084184066294E-005
 -2.038997431053468E-005
 -2.033904444998964E-005
 -2.028804571847251E-005
 -2.023697170428471E-005
 -2.018581602863471E-005
 -2.013457225029580E-005
 -2.008323377074581E-005
 -2.003179373982935E-005
 -1.998024496183951E-005
 -1.992857980201723E-005
 -1.987679009335235E-005
 -1.982486704372680E-005
 -1.977280114324804E-005
 -1.972058207180722E-005
 -1.966819860672511E-005
 -1.961563853048236E-005
 -1.956288853845890E-005
 -1.950993414658432E-005
 -1.945675959889503E-005
 -1.940334777489671E-005
 -1.934968009663652E-005
 -1.929573643549550E-005
 -1.924149501854982E-005
 -1.918693233448105E-005
 -1.913202303892891E-005
 -1.907673985924818E-005
 -1.902105349855598E-005
 -1.896493253903253E-005
 -1.890834334434664E-005
 -1.885124996119601E-005
 -1.879361401980547E-005
 -1.873539463337563E-005
 -1.867654829633701E-005
 -1.861702878137344E-005
 -1.855678703509925E-005
 -1.849577107232660E-005
 -1.843392586881526E-005
 -1.837119325243589E-005
 -1.830751179265276E-005
 -1.824281668820999E-005
 -1.817703965298384E-005
 -2.616840217127209E-005
 -2.610350468507774E-005
 -2.603865784289719E-005
 -2.597385021265429E-005
 -2.590907146672181E-005
 -2.584431223821687E-005
 -2.577956397899579E-005
 -2.571481881934341E-005
 -2.565006942929837E-005
 -2.558530888156909E-005
 -2.552053051598282E-005
 -2.545572780540763E-005
 -2.539089422311208E-005
 -2.532602311144109E-005
 -2.526110755179922E-005
 -2.519614023581481E-005
 -2.513111333764781E-005
 -2.506601838733631E-005
 -2.500084614510014E-005
 -2.493558647652672E-005
 -2.487022822853653E-005
 -2.480475910604535E-005
 -2.473916554922838E-005
 -2.467343261127288E-005
 -2.460754383656423E-005
 -2.454148113913606E-005
 -2.447522468137138E-005
 -2.440875275276136E-005
 -2.434204164868864E-005
 -2.427506554907898E-005
 -2.420779639686104E-005
 -2.414020377607067E-005
 -2.407225478955702E-005
 -2.400391393611415E-005
 -2.393514298697534E-005
 -2.386590086153609E-005
 -2.379614350221197E-005
 -2.372582374829328E-005
 -2.365489120870263E-005
 -2.358329213354542E-005
 -2.351096928432424E-005
 -2.343786180270727E-005
 -2.336390507775213E-005
 -2.328903061143776E-005
 -2.321316588242436E-005
 -2.313623420790576E-005
 -2.305815460342412E-005
 -2.297884164057182E-005
 -2.289820530241529E-005
 -2.281615083655330E-005
 -3.158147674961600E-005
 -3.150180577958969E-005
 -3.142222978741774E-005
 -3.134273790336353E-005
 -3.126332051636637E-005
 -3.118396908693548E-005
 -3.110467596282421E-005
 -3.102543419744144E-005
 -3.094623737085684E-005
 -3.086707941342207E-005
 -3.078795443180900E-005
 -3.070885653747067E-005
 -3.062977967733951E-005
 -3.055071746672106E-005
 -3.047166302424519E-005
 -3.039260880874085E-005
 -3.031354645798948E-005
 -3.023446662912027E-005
 -3.015535884062385E-005
 -3.007621131581157E-005
 -2.999701082757294E-005
 -2.991774254432974E-005
 -2.983838987702549E-005
 -2.975893432702312E-005
 -2.967935533474200E-005
 -2.959963012895423E-005
 -2.951973357650935E-005
 -2.943963803240640E-005
 -2.935931319005402E-005
 -2.927872593152903E-005
 -2.919784017774767E-005
 -2.911661673835620E-005
 -2.903501316119840E-005
 -2.895298358122510E-005
 -2.887047856868081E-005
 -2.878744497641405E-005
 -2.870382578619805E-005
 -2.861955995383474E-005
 -2.853458225300010E-005
 -2.844882311755960E-005
 -2.836220848233123E-005
 -2.827465962202472E-005
 -2.818609298831486E-005
 -2.809642004482657E-005
 -2.800554709992342E-005
 -2.791337513714239E-005
 -2.781979964311737E-005
 -2.772471043287764E-005
 -2.762799147232286E-005
 -2.752952069778861E-005
 -3.710436007286399E-005
 -3.700918446818827E-005
 -3.691414969738939E-005
 -3.681924672229136E-005
 -3.672446786765716E-005
 -3.662980658952486E-005
 -3.653525724755845E-005
 -3.644081488131696E-005
 -3.634647499032215E-005
 -3.625223331778177E-005
 -3.615808563787533E-005
 -3.606402754641401E-005
 -3.597005425475853E-005
 -3.587616038683644E-005
 -3.578233977909929E-005
 -3.568858528322736E-005
 -3.559488857147726E-005
 -3.550123994442340E-005
 -3.540762814097025E-005
 -3.531404015042673E-005
 -3.522046102646792E-005
 -3.512687370280127E-005
 -3.503325881032685E-005
 -3.493959449564452E-005
 -3.484585624064927E-005
 -3.475201668308902E-005
 -3.465804543784587E-005
 -3.456390891874784E-005
 -3.446957016074485E-005
 -3.437498864220913E-005
 -3.428012010720175E-005
 -3.418491638748425E-005
 -3.408932522409054E-005
 -3.399329008825589E-005
 -3.389675000151549E-005
 -3.379963935478247E-005
 -3.370188772619433E-005
 -3.360341969756270E-005
 -3.350415466920552E-005
 -3.340400667300474E-005
 -3.330288418349062E-005
 -3.320068992673771E-005
 -3.309732068694748E-005
 -3.299266711047726E-005
 -3.288661350718009E-005
 -3.277903764883203E-005
 -3.266981056452209E-005
 -3.255879633276727E-005
 -3.244585187024726E-005
 -3.233082671690684E-005
 -4.275610321791350E-005
 -4.264446520925986E-005
 -4.253301782625303E-005
 -4.242175552258301E-005
 -4.231067414492113E-005
 -4.219977065582888E-005
 -4.208904286212545E-005
 -4.197848914859347E-005
 -4.186810821681265E-005
 -4.175789882895708E-005
 -4.164785955636538E-005
 -4.153798853267457E-005
 -4.142828321131475E-005
 -4.131874012713053E-005
 -4.120935466196092E-005
 -4.110012081386271E-005
 -4.099103096984029E-005
 -4.088207568177486E-005
 -4.077324344535284E-005
 -4.066452048172059E-005
 -4.055589052164031E-005
 -4.044733459189234E-005
 -4.033883080366420E-005
 -4.023035414269045E-005
 -4.012187626085370E-005
 -4.001336526905229E-005
 -3.990478553103352E-005
 -3.979609745792552E-005
 -3.968725730328180E-005
 -3.957821695830232E-005
 -3.946892374705355E-005
 -3.935932022137371E-005
 -3.924934395525095E-005
 -3.913892733843735E-005
 -3.902799736901128E-005
 -3.891647544466452E-005
 -3.880427715251569E-005
 -3.869131205712942E-005
 -3.857748348657661E-005
 -3.846268831627171E-005
 -3.834681675035886E-005
 -3.822975210043571E-005
 -3.811137056136159E-005
 -3.799154098397997E-005
 -3.787012464446347E-005
 -3.774697501015909E-005
 -3.762193750163391E-005
 -3.749484925078589E-005
 -3.736553885474905E-005
 -3.723382612546123E-005
 -4.855614228983068E-005
 -4.842682816498911E-005
 -4.829776218038154E-005
 -4.816894433775272E-005
 -4.804037595847475E-005
 -4.791205936073562E-005
 -4.778399754393153E-005
 -4.765619388002116E-005
 -4.752865181159811E-005
 -4.740137455643055E-005
 -4.727436481815642E-005
 -4.714762450292488E-005
 -4.702115444162044E-005
 -4.689495411743896E-005
 -4.676902139846494E-005
 -4.664335227499412E-005
 -4.651794060123229E-005
 -4.639277784109591E-005
 -4.626785281781621E-005
 -4.614315146693725E-005
 -4.601865659250086E-005
 -4.589434762599162E-005
 -4.577020038778437E-005
 -4.564618685073558E-005
 -4.552227490559076E-005
 -4.539842812791868E-005
 -4.527460554617980E-005
 -4.515076141068847E-005
 -4.502684496306326E-005
 -4.490280020592549E-005
 -4.477856567247163E-005
 -4.465407419562295E-005
 -4.452925267646078E-005
 -4.440402185161223E-005
 -4.427829605929292E-005
 -4.415198300372774E-005
 -4.402498351761298E-005
 -4.389719132237015E-005
 -4.376849278587340E-005
 -4.363876667740398E-005
 -4.350788391951020E-005
 -4.337570733653690E-005
 -4.324209139954938E-005
 -4.310688196737390E-005
 -4.296991602352361E-005
 -4.283102140873585E-005
 -4.269001654888315E-005
 -4.254671017801460E-005
 -4.240090105631413E-005
 -4.225237768267702E-005
 -5.452430982654908E-005
 -5.437581498761274E-005
 -5.422763920720454E-005
 -5.407979047931599E-005
 -5.393227790565475E-005
 -5.378511132783265E-005
 -5.363830096879682E-005
 -5.349185708315043E-005
 -5.334578961598047E-005
 -5.320010786992915E-005
 -5.305482018001039E-005
 -5.290993359589314E-005
 -5.276545357121588E-005
 -5.262138365951739E-005
 -5.247772521646376E-005
 -5.233447710787159E-005
 -5.219163542318084E-005
 -5.204919319394048E-005
 -5.190714011690779E-005
 -5.176546228131299E-005
 -5.162414189992731E-005
 -5.148315704345685E-005
 -5.134248137789270E-005
 -5.120208390437712E-005
 -5.106192870118520E-005
 -5.092197466740214E-005
 -5.078217526788991E-005
 -5.064247827915984E-005
 -5.050282553569269E-005
 -5.036315267639837E-005
 -5.022338889072859E-005
 -5.008345666412030E-005
 -4.994327152238535E-005
 -4.980274177461009E-005
 -4.966176825426404E-005
 -4.952024405814144E-005
 -4.937805428273379E-005
 -4.923507575771566E-005
 -4.909117677621203E-005
 -4.894621682149751E-005
 -4.880004628976347E-005
 -4.865250620869392E-005
 -4.850342795147408E-005
 -4.835263294598161E-005
 -4.819993237879139E-005
 -4.804512689377430E-005
 -4.788800628494964E-005
 -4.772834918333021E-005
 -4.756592273749521E-005
 -4.740048228763778E-005
 -6.068082439123900E-005
 -6.051131332436194E-005
 -6.034221383934035E-005
 -6.017354472675491E-005
 -6.000532549234439E-005
 -5.983757594643875E-005
 -5.967031580496218E-005
 -5.950356430156102E-005
 -5.933733981037043E-005
 -5.917165947888798E-005
 -5.900653887051745E-005
 -5.884199161622875E-005
 -5.867802907482954E-005
 -5.851466000134043E-005
 -5.835189022292387E-005
 -5.818972232187635E-005
 -5.802815532509446E-005
 -5.786718439958307E-005
 -5.770680055334489E-005
 -5.754699034123032E-005
 -5.738773557517007E-005
 -5.722901303826252E-005
 -5.707079420219708E-005
 -5.691304494750786E-005
 -5.675572528611519E-005
 -5.659878908566328E-005
 -5.644218379513573E-005
 -5.628585017126270E-005
 -5.612972200520489E-005
 -5.597372584905162E-005
 -5.581778074163067E-005
 -5.566179793316858E-005
 -5.550568060835595E-005
 -5.534932360730225E-005
 -5.519261314402566E-005
 -5.503542652193641E-005
 -5.487763184597393E-005
 -5.471908773093007E-005
 -5.455964300553071E-005
 -5.439913641195951E-005
 -5.423739630032563E-005
 -5.407424031776744E-005
 -5.390947509181678E-005
 -5.374289590762318E-005
 -5.357428637872717E-005
 -5.340341811104151E-005
 -5.323005035968719E-005
 -5.305392967839211E-005
 -5.287478956111505E-005
 -5.269235007565650E-005
 -6.704625201088487E-005
 -6.685351406812384E-005
 -6.666131330797827E-005
 -6.646968242491951E-005
 -6.627865420557134E-005
 -6.608826107977310E-005
 -6.589853468588187E-005
 -6.570950544971549E-005
 -6.552120217649177E-005
 -6.533365165505611E-005
 -6.514687827380687E-005
 -6.496090364760053E-005
 -6.477574625496867E-005
 -6.459142108497913E-005
 -6.440793929308585E-005
 -6.422530786522114E-005
 -6.404352928955288E-005
 -6.386260123512926E-005
 -6.368251623682886E-005
 -6.350326138586105E-005
 -6.332481802524462E-005
 -6.314716144952521E-005
 -6.297026060813107E-005
 -6.279407781168659E-005
 -6.261856844068660E-005
 -6.244368065585831E-005
 -6.226935510962218E-005
 -6.209552465801780E-005
 -6.192211407251774E-005
 -6.174903975109740E-005
 -6.157620942804284E-005
 -6.140352188185000E-005
 -6.123086664073678E-005
 -6.105812368513116E-005
 -6.088516314670232E-005
 -6.071184500332372E-005
 -6.053801876950498E-005
 -6.036352318178460E-005
 -6.018818587861569E-005
 -6.001182307421731E-005
 -5.983423922601810E-005
 -5.965522669517122E-005
 -5.947456539975926E-005
 -5.929202246023746E-005
 -5.910735183675136E-005
 -5.892029395789446E-005
 -5.873057534055348E-005
 -5.853790820049793E-005
 -5.834199005331014E-005
 -5.814250330539168E-005
 -7.364143232724449E-005
 -7.342283471221615E-005
 -7.320494859125420E-005
 -7.298782387477501E-005
 -7.277150965392078E-005
 -7.255605372053056E-005
 -7.234150210437548E-005
 -7.212789862681601E-005
 -7.191528447002366E-005
 -7.170369776091549E-005
 -7.149317316891169E-005
 -7.128374151667738E-005
 -7.107542940296684E-005
 -7.086825883668593E-005
 -7.066224688137522E-005
 -7.045740530917828E-005
 -7.025374026347100E-005
 -7.005125192935055E-005
 -6.984993421105422E-005
 -6.964977441556802E-005
 -6.945075294152518E-005
 -6.925284297265311E-005
 -6.905601017490263E-005
 -6.886021239651727E-005
 -6.866539937023291E-005
 -6.847151241686713E-005
 -6.827848414951829E-005
 -6.808623817765240E-005
 -6.789468881036518E-005
 -6.770374075805911E-005
 -6.751328883191447E-005
 -6.732321764039458E-005
 -6.713340128217807E-005
 -6.694370303482931E-005
 -6.675397503861868E-005
 -6.656405797481747E-005
 -6.637378073790678E-005
 -6.618296010111647E-005
 -6.599140037468805E-005
 -6.579889305637222E-005
 -6.560521647355756E-005
 -6.541013541656625E-005
 -6.521340076260455E-005
 -6.501474908986755E-005
 -6.481390228135600E-005
 -6.461056711793536E-005
 -6.440443486025293E-005
 -6.419518081903164E-005
 -6.398246391341854E-005
 -6.376592621694582E-005
 -8.048736157288396E-005
 -8.023980156005066E-005
 -7.999319689734205E-005
 -7.974761807463189E-005
 -7.950313349635931E-005
 -7.925980898158789E-005
 -7.901770728459457E-005
 -7.877688763488838E-005
 -7.853740529553254E-005
 -7.829931113868428E-005
 -7.806265123722838E-005
 -7.782746647138739E-005
 -7.759379214921862E-005
 -7.736165763993236E-005
 -7.713108601889786E-005
 -7.690209372331255E-005
 -7.667469021745818E-005
 -7.644887766645902E-005
 -7.622465061759919E-005
 -7.600199568806653E-005
 -7.578089125819384E-005
 -7.556130716919547E-005
 -7.534320442440023E-005
 -7.512653489303537E-005
 -7.491124101565719E-005
 -7.469725551024303E-005
 -7.448450107809605E-005
 -7.427289010866665E-005
 -7.406232438239674E-005
 -7.385269477079868E-005
 -7.364388093288352E-005
 -7.343575100716911E-005
 -7.322816129848840E-005
 -7.302095595880177E-005
 -7.281396666130198E-005
 -7.260701226705484E-005
 -7.239989848352816E-005
 -7.219241751425161E-005
 -7.198434769901508E-005
 -7.177545314392560E-005
 -7.156548334072088E-005
 -7.135417277474019E-005
 -7.114124052097141E-005
 -7.092638982762563E-005
 -7.070930768671063E-005
 -7.048966439108086E-005
 -7.026711307748512E-005
 -7.004128925512151E-005
 -6.981181031931319E-005
 -6.957827504979383E-005
 -8.760502385979157E-005
 -8.732488308221267E-005
 -8.704603828417218E-005
 -8.676858372453760E-005
 -8.649260988191935E-005
 -8.621820295088163E-005
 -8.594544436213527E-005
 -8.567441032531202E-005
 -8.540517139279740E-005
 -8.513779204331813E-005
 -8.487233028380597E-005
 -8.460883726819825E-005
 -8.434735693178191E-005
 -8.408792563972864E-005
 -8.383057184847633E-005
 -8.357531577866969E-005
 -8.332216909828992E-005
 -8.307113461481055E-005
 -8.282220597496839E-005
 -8.257536737106325E-005
 -8.233059325246802E-005
 -8.208784804122602E-005
 -8.184708585051851E-005
 -8.160825020491123E-005
 -8.137127376120772E-005
 -8.113607802887154E-005
 -8.090257308890792E-005
 -8.067065731020084E-005
 -8.044021706223409E-005
 -8.021112642326907E-005
 -7.998324688296951E-005
 -7.975642703854278E-005
 -7.953050228349037E-005
 -7.930529448807520E-005
 -7.908061167063113E-005
 -7.885624765888253E-005
 -7.863198174048653E-005
 -7.840757830195333E-005
 -7.818278645523694E-005
 -7.795733965124056E-005
 -7.773095527951007E-005
 -7.750333425346594E-005
 -7.727416058046095E-005
 -7.704310091609498E-005
 -7.680980410211506E-005
 -7.657390068737025E-005
 -7.633500243123035E-005
 -7.609270178893753E-005
 -7.584657137841099E-005
 -7.559616342800728E-005
 -9.501516188807570E-005
 -9.469826651843874E-005
 -9.438313949738705E-005
 -9.406990155136783E-005
 -9.375866742283994E-005
 -9.344954538493161E-005
 -9.314263678351718E-005
 -9.283803560485208E-005
 -9.253582806705517E-005
 -9.223609223359109E-005
 -9.193889764708043E-005
 -9.164430498170500E-005
 -9.135236571246411E-005
 -9.106312179974396E-005
 -9.077660538744632E-005
 -9.049283851314489E-005
 -9.021183282869257E-005
 -8.993358932972518E-005
 -8.965809809256120E-005
 -8.938533801703771E-005
 -8.911527657382644E-005
 -8.884786955481463E-005
 -8.858306082519684E-005
 -8.832078207592320E-005
 -8.806095257518821E-005
 -8.780347891768544E-005
 -8.754825477039416E-005
 -8.729516061367003E-005
 -8.704406347646808E-005
 -8.679481666456012E-005
 -8.654725948059310E-005
 -8.630121693496072E-005
 -8.605649944638406E-005
 -8.581290253119336E-005
 -8.557020648035775E-005
 -8.532817602323477E-005
 -8.508655997714916E-005
 -8.484509088193119E-005
 -8.460348461845228E-005
 -8.436144001042306E-005
 -8.411863840855793E-005
 -8.387474325639792E-005
 -8.362939963695818E-005
 -8.338223379956053E-005
 -8.313285266609404E-005
 -8.288084331607826E-005
 -8.262577244989118E-005
 -8.236718582951583E-005
 -8.210460769631162E-005
 -8.183754016517889E-005
 -1.027379781935821E-004
 -1.023795700299828E-004
 -1.020235784993783E-004
 -1.016701525724372E-004
 -1.013194324395457E-004
 -1.009715490736448E-004
 -1.006266238236556E-004
 -1.002847680362396E-004
 -9.994608270366666E-005
 -9.961065813563207E-005
 -9.927857365290531E-005
 -9.894989730073594E-005
 -9.862468557995211E-005
 -9.830298319375141E-005
 -9.798482280827007E-005
 -9.767022482497765E-005
 -9.735919716304990E-005
 -9.705173504991086E-005
 -9.674782081815620E-005
 -9.644742370712736E-005
 -9.615049966746269E-005
 -9.585699116696395E-005
 -9.556682699621040E-005
 -9.527992207232041E-005
 -9.499617723942330E-005
 -9.471547906426646E-005
 -9.443769962563143E-005
 -9.416269629610665E-005
 -9.389031151488795E-005
 -9.362037255030407E-005
 -9.335269125080315E-005
 -9.308706378313586E-005
 -9.282327035657009E-005
 -9.256107493198980E-005
 -9.230022491471101E-005
 -9.204045082997277E-005
 -9.178146598004495E-005
 -9.152296608188448E-005
 -9.126462888446089E-005
 -9.100611376467848E-005
 -9.074706130108352E-005
 -9.048709282441061E-005
 -9.022580994414033E-005
 -8.996279405024381E-005
 -8.969760578932866E-005
 -8.942978451445096E-005
 -8.915884770783232E-005
 -8.888429037585670E-005
 -8.860558441560075E-005
 -8.832217795237788E-005
 -1.107927586340351E-004
 -1.103874834880384E-004
 -1.099855041226396E-004
 -1.095869980381065E-004
 -1.091921304826118E-004
 -1.088010541019421E-004
 -1.084139086223327E-004
 -1.080308205637196E-004
 -1.076519029806838E-004
 -1.072772552285043E-004
 -1.069069627517416E-004
 -1.065410968929022E-004
 -1.061797147187162E-004
 -1.058228588616585E-004
 -1.054705573744809E-004
 -1.051228235954257E-004
 -1.047796560220067E-004
 -1.044410381912264E-004
 -1.041069385641702E-004
 -1.037773104129972E-004
 -1.034520917083583E-004
 -1.031312050054176E-004
 -1.028145573266210E-004
 -1.025020400394108E-004
 -1.021935287272827E-004
 -1.018888830523905E-004
 -1.015879466082043E-004
 -1.012905467605593E-004
 -1.009964944757075E-004
 -1.007055841337625E-004
 -1.004175933262616E-004
 -1.001322826363545E-004
 -9.984939540036193E-005
 -9.956865744938847E-005
 -9.928977682974633E-005
 -9.901244350096361E-005
 -9.873632901022646E-005
 -9.846108614214575E-005
 -9.818634854267852E-005
 -9.791173031623254E-005
 -9.763682559487243E-005
 -9.736120807865827E-005
 -9.708443054615229E-005
 -9.680602433419828E-005
 -9.652549878605944E-005
 -9.624234066708253E-005
 -9.595601354703810E-005
 -9.566595714841318E-005
 -9.537158665984190E-005
 -9.507229201398951E-005
 -1.191974111728060E-004
 -1.187393325309163E-004
 -1.182857269907055E-004
 -1.178367986422956E-004
 -1.173927351006148E-004
 -1.169537072909827E-004
 -1.165198692693025E-004
 -1.160913580735481E-004
 -1.156682936033894E-004
 -1.152507785248099E-004
 -1.148388981967555E-004
 -1.144327206168642E-004
 -1.140322963834263E-004
 -1.136376586708864E-004
 -1.132488232161706E-004
 -1.128657883133241E-004
 -1.124885348138944E-004
 -1.121170261307385E-004
 -1.117512082428536E-004
 -1.113910096990266E-004
 -1.110363416181111E-004
 -1.106870976838034E-004
 -1.103431541319504E-004
 -1.100043697283495E-004
 -1.096705857352048E-004
 -1.093416258643634E-004
 -1.090172962155806E-004
 -1.086973851981065E-004
 -1.083816634339252E-004
 -1.080698836410192E-004
 -1.077617804951932E-004
 -1.074570704688336E-004
 -1.071554516452808E-004
 -1.068566035073035E-004
 -1.065601866983788E-004
 -1.062658427554304E-004
 -1.059731938117633E-004
 -1.056818422689287E-004
 -1.053913704363632E-004
 -1.051013401375873E-004
 -1.048112922818740E-004
 -1.045207464002813E-004
 -1.042292001449808E-004
 -1.039361287508571E-004
 -1.036409844584227E-004
 -1.033431958970139E-004
 -1.030421674274179E-004
 -1.027372784429840E-004
 -1.024278826283782E-004
 -1.021133071751587E-004
 -1.279679153934093E-004
 -1.274505630524392E-004
 -1.269392405036384E-004
 -1.264341733373251E-004
 -1.259355656345721E-004
 -1.254435999493436E-004
 -1.249584373249814E-004
 -1.244802173411221E-004
 -1.240090581873533E-004
 -1.235450567599725E-004
 -1.230882887783916E-004
 -1.226388089178418E-004
 -1.221966509550969E-004
 -1.217618279241503E-004
 -1.213343322788120E-004
 -1.209141360593569E-004
 -1.205011910603992E-004
 -1.200954289973714E-004
 -1.196967616690072E-004
 -1.193050811133007E-004
 -1.189202597546742E-004
 -1.185421505399238E-004
 -1.181705870608498E-004
 -1.178053836613628E-004
 -1.174463355270949E-004
 -1.170932187554523E-004
 -1.167457904043242E-004
 -1.164037885175124E-004
 -1.160669321251967E-004
 -1.157349212176737E-004
 -1.154074366907500E-004
 -1.150841402611850E-004
 -1.147646743506718E-004
 -1.144486619368149E-004
 -1.141357063696875E-004
 -1.138253911525725E-004
 -1.135172796854900E-004
 -1.132109149702166E-004
 -1.129058192755009E-004
 -1.126014937611939E-004
 -1.122974180601212E-004
 -1.119930498164514E-004
 -1.116878241794410E-004
 -1.113811532514072E-004
 -1.110724254888172E-004
 -1.107610050554419E-004
 -1.104462311264921E-004
 -1.101274171427620E-004
 -1.098038500137256E-004
 -1.094747892687020E-004
 -1.371176818186128E-004
 -1.365341470213694E-004
 -1.359586744794354E-004
 -1.353915019030630E-004
 -1.348328396167395E-004
 -1.342828708113732E-004
 -1.337417518278983E-004
 -1.332096124679447E-004
 -1.326865563272389E-004
 -1.321726611476010E-004
 -1.316679791837716E-004
 -1.311725375811440E-004
 -1.306863387608343E-004
 -1.302093608087255E-004
 -1.297415578650628E-004
 -1.292828605115068E-004
 -1.288331761526103E-004
 -1.283923893888011E-004
 -1.279603623781676E-004
 -1.275369351842833E-004
 -1.271219261076878E-004
 -1.267151319984741E-004
 -1.263163285477458E-004
 -1.259252705556758E-004
 -1.255416921740500E-004
 -1.251653071212802E-004
 -1.247958088678873E-004
 -1.244328707905718E-004
 -1.240761462930940E-004
 -1.237252688921826E-004
 -1.233798522667687E-004
 -1.230394902689829E-004
 -1.227037568952479E-004
 -1.223722062159993E-004
 -1.220443722625125E-004
 -1.217197688694110E-004
 -1.213978894714426E-004
 -1.210782068530820E-004
 -1.207601728497362E-004
 -1.204432179991034E-004
 -1.201267511414822E-004
 -1.198101589676968E-004
 -1.194928055134201E-004
 -1.191740315986524E-004
 -1.188531542111443E-004
 -1.185294658325588E-004
 -1.182022337061993E-004
 -1.178706990451637E-004
 -1.175340761797214E-004
 -1.171915516428443E-004
 -1.466568252630150E-004
 -1.459999156882176E-004
 -1.453536891532296E-004
 -1.447183804395306E-004
 -1.440941902365282E-004
 -1.434812857505888E-004
 -1.428798013389963E-004
 -1.422898391639566E-004
 -1.417114698617815E-004
 -1.411447332228232E-004
 -1.405896388777961E-004
 -1.400461669863834E-004
 -1.395142689242832E-004
 -1.389938679648874E-004
 -1.384848599522059E-004
 -1.379871139615795E-004
 -1.375004729450790E-004
 -1.370247543585412E-004
 -1.365597507674215E-004
 -1.361052304287193E-004
 -1.356609378464089E-004
 -1.352265942979356E-004
 -1.348018983294333E-004
 -1.343865262174705E-004
 -1.339801323952029E-004
 -1.335823498408769E-004
 -1.331927904268511E-004
 -1.328110452271866E-004
 -1.324366847821086E-004
 -1.320692593176136E-004
 -1.317082989185631E-004
 -1.313533136536974E-004
 -1.310037936510372E-004
 -1.306592091221402E-004
 -1.303190103338028E-004
 -1.299826275257272E-004
 -1.296494707727890E-004
 -1.293189297905375E-004
 -1.289903736824860E-004
 -1.286631506279821E-004
 -1.283365875091887E-004
 -1.280099894759242E-004
 -1.276826394470346E-004
 -1.273537975469366E-004
 -1.270227004760857E-004
 -1.266885608139673E-004
 -1.263505662533748E-004
 -1.260078787645722E-004
 -1.256596336881288E-004
 -1.253049387549805E-004
 -1.565913633279125E-004
 -1.558538329772333E-004
 -1.551303237827385E-004
 -1.544210452514748E-004
 -1.537261653393316E-004
 -1.530458115169789E-004
 -1.523800718493774E-004
 -1.517289960834611E-004
 -1.510925967388456E-004
 -1.504708501967152E-004
 -1.498636977823132E-004
 -1.492710468367924E-004
 -1.486927717742230E-004
 -1.481287151201219E-004
 -1.475786885277816E-004
 -1.470424737690769E-004
 -1.465198236965710E-004
 -1.460104631739775E-004
 -1.455140899721125E-004
 -1.450303756277803E-004
 -1.445589662630778E-004
 -1.440994833628627E-004
 -1.436515245080781E-004
 -1.432146640630189E-004
 -1.427884538144856E-004
 -1.423724235610162E-004
 -1.419660816504770E-004
 -1.415689154642819E-004
 -1.411803918467126E-004
 -1.407999574777573E-004
 -1.404270391880495E-004
 -1.400610442144086E-004
 -1.397013603946884E-004
 -1.393473563004970E-004
 -1.389983813064836E-004
 -1.386537655949112E-004
 -1.383128200941417E-004
 -1.379748363498159E-004
 -1.376390863273218E-004
 -1.373048221443593E-004
 -1.369712757321667E-004
 -1.366376584241749E-004
 -1.363031604706358E-004
 -1.359669504779412E-004
 -1.356281747711222E-004
 -1.352859566782320E-004
 -1.349393957350128E-004
 -1.345875668084544E-004
 -1.342295191376710E-004
 -1.338642752906498E-004
 -1.669223598691203E-004
 -1.660972302498982E-004
 -1.652903221007354E-004
 -1.645017881304646E-004
 -1.637317314513879E-004
 -1.629802072142807E-004
 -1.622472242391989E-004
 -1.615327466363119E-004
 -1.608366954115593E-004
 -1.601589500520386E-004
 -1.594993500865909E-004
 -1.588576966172776E-004
 -1.582337538176553E-004
 -1.576272503942418E-004
 -1.570378810076782E-004
 -1.564653076504040E-004
 -1.559091609779174E-004
 -1.553690415908872E-004
 -1.548445212656213E-004
 -1.543351441305461E-004
 -1.538404277865513E-004
 -1.533598643693037E-004
 -1.528929215515540E-004
 -1.524390434838825E-004
 -1.519976516722108E-004
 -1.515681457906452E-004
 -1.511499044283063E-004
 -1.507422857687393E-004
 -1.503446282008172E-004
 -1.499562508598319E-004
 -1.495764540977331E-004
 -1.492045198813466E-004
 -1.488397121175486E-004
 -1.484812769042772E-004
 -1.481284427063613E-004
 -1.477804204550626E-004
 -1.474364035702536E-004
 -1.470955679041001E-004
 -1.467570716051243E-004
 -1.464200549014829E-004
 -1.460836398021444E-004
 -1.457469297147976E-004
 -1.454090089790759E-004
 -1.450689423137306E-004
 -1.447257741762847E-004
 -1.443785280336653E-004
 -1.440262055421716E-004
 -1.436677856351714E-004
 -1.433022235167602E-004
 -1.429284495595165E-004
 -1.776450437762867E-004
 -1.767260335435238E-004
 -1.758304661139710E-004
 -1.749583945778929E-004
 -1.741098140836678E-004
 -1.732846641634744E-004
 -1.724828310286859E-004
 -1.717041498293897E-004
 -1.709484068727581E-004
 -1.702153417955647E-004
 -1.695046496863265E-004
 -1.688159831532638E-004
 -1.681489543342391E-004
 -1.675031368455279E-004
 -1.668780676663415E-004
 -1.662732489564900E-004
 -1.656881498046703E-004
 -1.651222079053558E-004
 -1.645748311622221E-004
 -1.640453992164788E-004
 -1.635332648985744E-004
 -1.630377556019157E-004
 -1.625581745774073E-004
 -1.620938021477638E-004
 -1.616438968406793E-004
 -1.612076964399940E-004
 -1.607844189541219E-004
 -1.603732635010642E-004
 -1.599734111093841E-004
 -1.595840254345507E-004
 -1.592042533900764E-004
 -1.588332256929128E-004
 -1.584700573225022E-004
 -1.581138478929547E-004
 -1.577636819376831E-004
 -1.574186291058755E-004
 -1.570777442700689E-004
 -1.567400675440638E-004
 -1.564046242103066E-004
 -1.560704245558495E-004
 -1.557364636157877E-004
 -1.554017208231002E-004
 -1.550651595636793E-004
 -1.547257266350951E-004
 -1.543823516077847E-004
 -1.540339460869257E-004
 -1.536794028733930E-004
 -1.533175950219567E-004
 -1.529473747945523E-004
 -1.525675725069442E-004
 -1.887479453392455E-004
 -1.877300254123926E-004
 -1.867419597909643E-004
 -1.857836455130474E-004
 -1.848549134711190E-004
 -1.839555315546482E-004
 -1.830852077263215E-004
 -1.822435930266378E-004
 -1.814302845021893E-004
 -1.806448280533974E-004
 -1.798867211981005E-004
 -1.791554157476147E-004
 -1.784503203924481E-004
 -1.777708031952291E-004
 -1.771161939887172E-004
 -1.764857866770839E-004
 -1.758788414390388E-004
 -1.752945868315797E-004
 -1.747322217934086E-004
 -1.741909175473335E-004
 -1.736698194010825E-004
 -1.731680484462717E-004
 -1.726847031552721E-004
 -1.722188608759848E-004
 -1.717695792245615E-004
 -1.713358973762306E-004
 -1.709168372544335E-004
 -1.705114046185949E-004
 -1.701185900507539E-004
 -1.697373698413974E-004
 -1.693667067748114E-004
 -1.690055508141554E-004
 -1.686528396865649E-004
 -1.683074993683512E-004
 -1.679684444704582E-004
 -1.676345785241231E-004
 -1.673047941666317E-004
 -1.669779732269350E-004
 -1.666529867107342E-004
 -1.663286946845460E-004
 -1.660039460580791E-004
 -1.656775782640010E-004
 -1.653484168341917E-004
 -1.650152748712256E-004
 -1.646769524136603E-004
 -1.643322356936130E-004
 -1.639798962848210E-004
 -1.636186901389783E-004
 -1.632473565088063E-004
 -1.628646167542096E-004
 -2.002121050103487E-004
 -1.990921947388275E-004
 -1.980099140684709E-004
 -1.969649314925965E-004
 -1.959568419334456E-004
 -1.949851708258694E-004
 -1.940493780860897E-004
 -1.931488619615328E-004
 -1.922829627579329E-004
 -1.914509664408836E-004
 -1.906521081092227E-004
 -1.898855753383328E-004
 -1.891505113918212E-004
 -1.884460183004766E-004
 -1.877711598077996E-004
 -1.871249641817830E-004
 -1.865064268928597E-004
 -1.859145131583921E-004
 -1.853481603541469E-004
 -1.848062802935925E-004
 -1.842877613759390E-004
 -1.837914706041552E-004
 -1.833162554741622E-004
 -1.828609457367050E-004
 -1.824243550333535E-004
 -1.820052824082432E-004
 -1.816025136971789E-004
 -1.812148227956902E-004
 -1.808409728076971E-004
 -1.804797170764025E-004
 -1.801298000988584E-004
 -1.797899583257638E-004
 -1.794589208477915E-004
 -1.791354099696984E-004
 -1.788181416733275E-004
 -1.785058259704132E-004
 -1.781971671459926E-004
 -1.778908638929450E-004
 -1.775856093380650E-004
 -1.772800909597391E-004
 -1.769729903971251E-004
 -1.766629831506078E-004
 -1.763487381725877E-004
 -1.760289173480236E-004
 -1.757021748633765E-004
 -1.753671564623284E-004
 -1.750224985867563E-004
 -1.746668274010246E-004
 -1.742987576954449E-004
 -1.739168916702857E-004
 -2.120104209402585E-004
 -2.107882377499800E-004
 -2.096129927354096E-004
 -2.084840348234235E-004
 -2.074006335977387E-004
 -2.063619844355072E-004
 -2.053672134661598E-004
 -2.044153823502958E-004
 -2.035054928767196E-004
 -2.026364913766019E-004
 -2.018072729541279E-004
 -2.010166855337612E-004
 -2.002635337244554E-004
 -1.995465825019637E-004
 -1.988645607103401E-004
 -1.982161643846610E-004
 -1.976000598967847E-004
 -1.970148869267000E-004
 -1.964592612619750E-004
 -1.959317774282680E-004
 -1.954310111538895E-004
 -1.949555216716733E-004
 -1.945038538614973E-004
 -1.940745402368960E-004
 -1.936661027792545E-004
 -1.932770546231930E-004
 -1.929059015965573E-004
 -1.925511436186960E-004
 -1.922112759603143E-004
 -1.918847903683715E-004
 -1.915701760592937E-004
 -1.912659205835097E-004
 -1.909705105643790E-004
 -1.906824323141714E-004
 -1.904001723296504E-004
 -1.901222176695950E-004
 -1.898470562161620E-004
 -1.895731768219907E-004
 -1.892990693442561E-004
 -1.890232245669194E-004
 -1.887441340119870E-004
 -1.884602896395876E-004
 -1.881701834378871E-004
 -1.878723069013515E-004
 -1.875651503969974E-004
 -1.872472024178778E-004
 -1.869169487209949E-004
 -1.865728713471010E-004
 -1.862134475259625E-004
 -1.858371484484462E-004
 -2.241072096512017E-004
 -2.227862793994123E-004
 -2.215232826102790E-004
 -2.203171367421000E-004
 -2.191666769484968E-004
 -2.180706623546226E-004
 -2.170277820766551E-004
 -2.160366609848766E-004
 -2.150958652113056E-004
 -2.142039074035571E-004
 -2.133592517271584E-004
 -2.125603186191190E-004
 -2.118054892960684E-004
 -2.110931100207456E-004
 -2.104214961310327E-004
 -2.097889358360620E-004
 -2.091936937843385E-004
 -2.086340144090973E-004
 -2.081081250562729E-004
 -2.076142389008086E-004
 -2.071505576571378E-004
 -2.067152740898012E-004
 -2.063065743303048E-004
 -2.059226400063382E-004
 -2.055616501895708E-004
 -2.052217831681134E-004
 -2.049012180498741E-004
 -2.045981362027243E-004
 -2.043107225374844E-004
 -2.040371666394288E-004
 -2.037756637539547E-004
 -2.035244156317062E-004
 -2.032816312383184E-004
 -2.030455273335272E-004
 -2.028143289242815E-004
 -2.025862695957253E-004
 -2.023595917243475E-004
 -2.021325465758129E-004
 -2.019033942914516E-004
 -2.016704037650679E-004
 -2.014318524118002E-004
 -2.011860258326291E-004
 -2.009312173714520E-004
 -2.006657275692400E-004
 -2.003878635132743E-004
 -2.000959380787286E-004
 -1.997882690656854E-004
 -1.994631782297107E-004
 -1.991189901824839E-004
 -1.987540312163348E-004
 -2.364580545530202E-004
 -2.350468823745609E-004
 -2.337064473429185E-004
 -2.324351006075777E-004
 -2.312311123427531E-004
 -2.300926792094703E-004
 -2.290179314639711E-004
 -2.280049397167312E-004
 -2.270517213466632E-004
 -2.261562465759234E-004
 -2.253164442112521E-004
 -2.245302070584659E-004
 -2.237953970169203E-004
 -2.231098498616124E-004
 -2.224713797206287E-004
 -2.218777832563136E-004
 -2.213268435585324E-004
 -2.208163337591253E-004
 -2.203440203763533E-004
 -2.199076663988316E-004
 -2.195050341182271E-004
 -2.191338877203926E-004
 -2.187919956444390E-004
 -2.184771327194896E-004
 -2.181870820886968E-004
 -2.179196369301225E-004
 -2.176726019839591E-004
 -2.174437948954776E-004
 -2.172310473827886E-004
 -2.170322062384551E-004
 -2.168451341735446E-004
 -2.166677105125202E-004
 -2.164978317469472E-004
 -2.163334119557942E-004
 -2.161723830989960E-004
 -2.160126951920380E-004
 -2.158523163659713E-004
 -2.156892328211943E-004
 -2.155214486765646E-004
 -2.153469857212517E-004
 -2.151638830734159E-004
 -2.149701967414644E-004
 -2.147639991054146E-004
 -2.145433783029875E-004
 -2.143064375295127E-004
 -2.140512942585467E-004
 -2.137760793637994E-004
 -2.134789361458124E-004
 -2.131580193293731E-004
 -2.128114938203581E-004
 -2.490100038412444E-004
 -2.475233958524655E-004
 -2.461222071792280E-004
 -2.448040633078869E-004
 -2.435665162080405E-004
 -2.424070529690176E-004
 -2.413231039673831E-004
 -2.403120505744525E-004
 -2.393712324131243E-004
 -2.384979541741217E-004
 -2.376894920023974E-004
 -2.369430994645918E-004
 -2.362560131093401E-004
 -2.356254576323313E-004
 -2.350486506585942E-004
 -2.345228071546898E-004
 -2.340451434840107E-004
 -2.336128811184185E-004
 -2.332232500198395E-004
 -2.328734917056421E-004
 -2.325608620115952E-004
 -2.322826335665537E-004
 -2.320360979928768E-004
 -2.318185678466775E-004
 -2.316273783119606E-004
 -2.314598886626421E-004
 -2.313134835062451E-004
 -2.311855738228998E-004
 -2.310735978131317E-004
 -2.309750215673454E-004
 -2.308873395700596E-004
 -2.308080750508387E-004
 -2.307347801944797E-004
 -2.306650362204841E-004
 -2.305964533451642E-004
 -2.305266706322818E-004
 -2.304533557484254E-004
 -2.303742046218587E-004
 -2.302869410261287E-004
 -2.301893160835727E-004
 -2.300791076952371E-004
 -2.299541199285403E-004
 -2.298121823091606E-004
 -2.296511490893436E-004
 -2.294688984582377E-004
 -2.292633316711872E-004
 -2.290323721726003E-004
 -2.287739646741526E-004
 -2.284860739644712E-004
 -2.281666841972358E-004
 -2.617021449419737E-004
 -2.601626609080363E-004
 -2.587251511400692E-004
 -2.573863306567727E-004
 -2.561428567688408E-004
 -2.549913388053891E-004
 -2.539283472375671E-004
 -2.529504222137169E-004
 -2.520540815211071E-004
 -2.512358279898719E-004
 -2.504921563550845E-004
 -2.498195595936394E-004
 -2.492145347527428E-004
 -2.486735882874158E-004
 -2.481932409248127E-004
 -2.477700320733720E-004
 -2.474005237953279E-004
 -2.470813043612424E-004
 -2.468089914055871E-004
 -2.465802347025616E-004
 -2.463917185815787E-004
 -2.462401640018224E-004
 -2.461223303056286E-004
 -2.460350166701960E-004
 -2.459750632772736E-004
 -2.459393522203707E-004
 -2.459248081687248E-004
 -2.459283988074444E-004
 -2.459471350723789E-004
 -2.459780711987914E-004
 -2.460183046010168E-004
 -2.460649756021221E-004
 -2.461152670283602E-004
 -2.461664036894954E-004
 -2.462156517517859E-004
 -2.462603180341286E-004
 -2.462977492166667E-004
 -2.463253310126531E-004
 -2.463404872648446E-004
 -2.463406790263894E-004
 -2.463234036289833E-004
 -2.462861936569484E-004
 -2.462266160531278E-004
 -2.461422710862796E-004
 -2.460307913468163E-004
 -2.458898408583013E-004
 -2.457171140111138E-004
 -2.455103345184500E-004
 -2.452672550965681E-004
 -2.449856551797411E-004
 -2.744665184760716E-004
 -2.729060270279061E-004
 -2.714658275038359E-004
 -2.701415139612852E-004
 -2.689286495325216E-004
 -2.678227770739385E-004
 -2.668194290595059E-004
 -2.659141367396430E-004
 -2.651024385864770E-004
 -2.643798880469532E-004
 -2.637420606257523E-004
 -2.631845603204445E-004
 -2.627030254317680E-004
 -2.622931337723301E-004
 -2.619506072974345E-004
 -2.616712161823411E-004
 -2.614507823703746E-004
 -2.612851826169266E-004
 -2.611703510547001E-004
 -2.611022813056767E-004
 -2.610770281658623E-004
 -2.610907088888256E-004
 -2.611395040943627E-004
 -2.612196583287030E-004
 -2.613274803027230E-004
 -2.614593428346728E-004
 -2.616116825240388E-004
 -2.617809991819670E-004
 -2.619638550455397E-004
 -2.621568737993795E-004
 -2.623567394336960E-004
 -2.625601949579127E-004
 -2.627640410022609E-004
 -2.629651343140488E-004
 -2.631603862038626E-004
 -2.633467609056252E-004
 -2.635212739639323E-004
 -2.636809905270654E-004
 -2.638230237572426E-004
 -2.639445331798989E-004
 -2.640427230366697E-004
 -2.641148409672030E-004
 -2.641581762152555E-004
 -2.641700584704745E-004
 -2.641478566503711E-004
 -2.640889773462455E-004
 -2.639908641035773E-004
 -2.638509965993762E-004
 -2.636668875306118E-004
 -2.634360867560132E-004
 -2.872292344173248E-004
 -2.856905402960628E-004
 -2.842919709031868E-004
 -2.830277634743429E-004
 -2.818921651399592E-004
 -2.808794442437937E-004
 -2.799839007363038E-004
 -2.791998756671878E-004
 -2.785217598042970E-004
 -2.779440014069923E-004
 -2.774611131816457E-004
 -2.770676784481915E-004
 -2.767583565465840E-004
 -2.765278875132600E-004
 -2.763710960576929E-004
 -2.762828948699447E-004
 -2.762582872908105E-004
 -2.762923693763469E-004
 -2.763803313892986E-004
 -2.765174587503970E-004
 -2.766991324829531E-004
 -2.769208291845828E-004
 -2.771781205602981E-004
 -2.774666725514256E-004
 -2.777822440954632E-004
 -2.781206855512986E-004
 -2.784779368245706E-004
 -2.788500252312008E-004
 -2.792330631289098E-004
 -2.796232453597645E-004
 -2.800168465237871E-004
 -2.804102181391001E-004
 -2.807997856918246E-004
 -2.811820456683129E-004
 -2.815535624811448E-004
 -2.819109655334049E-004
 -2.822509461030462E-004
 -2.825702546048950E-004
 -2.828656975247683E-004
 -2.831341348221835E-004
 -2.833724775571027E-004
 -2.835776846945726E-004
 -2.837467621396143E-004
 -2.838767596794947E-004
 -2.839647688695628E-004
 -2.840079227858301E-004
 -2.840033930739336E-004
 -2.839483884245791E-004
 -2.838401611512923E-004
 -2.836759882507963E-004
 -2.999115205130912E-004
 -2.984500444801638E-004
 -2.971496174288812E-004
 -2.960028590562602E-004
 -2.950024573998023E-004
 -2.941411805062913E-004
 -2.934118869699988E-004
 -2.928075353814140E-004
 -2.923211927188865E-004
 -2.919460417149092E-004
 -2.916753872337224E-004
 -2.915026616939913E-004
 -2.914214295745665E-004
 -2.914253910387726E-004
 -2.915083847161327E-004
 -2.916643896792294E-004
 -2.918875266548631E-004
 -2.921720585093740E-004
 -2.925123900481297E-004
 -2.929030671703493E-004
 -2.933387754206203E-004
 -2.938143379792047E-004
 -2.943247131342611E-004
 -2.948649912794487E-004
 -2.954303914804792E-004
 -2.960162576573327E-004
 -2.966180544282717E-004
 -2.972313626508337E-004
 -2.978518747272540E-004
 -2.984753896899158E-004
 -2.990978081675719E-004
 -2.997151271962877E-004
 -3.003234350349320E-004
 -3.009189058162236E-004
 -3.014977945229883E-004
 -3.020564315401611E-004
 -3.025912181278339E-004
 -3.030986208651651E-004
 -3.035751678671273E-004
 -3.040174437972275E-004
 -3.044220850124187E-004
 -3.047857785082677E-004
 -3.051052534922343E-004
 -3.053772825344668E-004
 -3.055986795307718E-004
 -3.057662917932117E-004
 -3.058770042193711E-004
 -3.059277382386787E-004
 -3.059154254939358E-004
 -3.058370737432277E-004
 -3.124302969948666E-004
 -3.111158206089382E-004
 -3.099837615123570E-004
 -3.090248364780740E-004
 -3.082299110994351E-004
 -3.075900113729388E-004
 -3.070963339466541E-004
 -3.067402550437961E-004
 -3.065133381031636E-004
 -3.064073401862986E-004
 -3.064142171887819E-004
 -3.065261279071874E-004
 -3.067354370010564E-004
 -3.070347169021230E-004
 -3.074167487146185E-004
 -3.078745221557856E-004
 -3.084012345844597E-004
 -3.089902891653639E-004
 -3.096352922176283E-004
 -3.103300497957056E-004
 -3.110685635518896E-004
 -3.118450259299951E-004
 -3.126538147396626E-004
 -3.134894871614365E-004
 -3.143467732382022E-004
 -3.152205688986451E-004
 -3.161059285699215E-004
 -3.169980574724214E-004
 -3.178923035742337E-004
 -3.187841493820308E-004
 -3.196692034340281E-004
 -3.205431918751959E-004
 -3.214019497487658E-004
 -3.222414128418277E-004
 -3.230576085164376E-004
 -3.238466485497825E-004
 -3.246047191769702E-004
 -3.253280759089683E-004
 -3.260130327846150E-004
 -3.266559577580479E-004
 -3.272532683543397E-004
 -3.278014153833347E-004
 -3.282968959616626E-004
 -3.287362306157242E-004
 -3.291159578228608E-004
 -3.294326528161142E-004
 -3.296829007477968E-004
 -3.298632949680409E-004
 -3.299705203106227E-004
 -3.300011139260004E-004
 -3.246978085977257E-004
 -3.236163488105800E-004
 -3.227381826726485E-004
 -3.220518140502319E-004
 -3.215460037478851E-004
 -3.212097805655742E-004
 -3.210324506020777E-004
 -3.210036049576154E-004
 -3.211131258964006E-004
 -3.213511915017480E-004
 -3.217082789099627E-004
 -3.221751661604722E-004
 -3.227429327514489E-004
 -3.234029589447441E-004
 -3.241469238949271E-004
 -3.249668026596679E-004
 -3.258548621514405E-004
 -3.268036560906061E-004
 -3.278060190159569E-004
 -3.288550594070646E-004
 -3.299441519703098E-004
 -3.310669291381932E-004
 -3.322172718349659E-004
 -3.333892995600351E-004
 -3.345773598276952E-004
 -3.357760170434141E-004
 -3.369800408545358E-004
 -3.381843939188583E-004
 -3.393842194697519E-004
 -3.405748283062345E-004
 -3.417516859958348E-004
 -3.429103991724431E-004
 -3.440467026754844E-004
 -3.451564448224426E-004
 -3.462355768930482E-004
 -3.472801358568800E-004
 -3.482862386768954E-004
 -3.492500599760118E-004
 -3.501678323447807E-004
 -3.510358249329760E-004
 -3.518503261519205E-004
 -3.526076714052851E-004
 -3.533041648353965E-004
 -3.539361444435202E-004
 -3.544999720656611E-004
 -3.549919382712252E-004
 -3.554083530833064E-004
 -3.557455386346686E-004
 -3.559995433641382E-004
 -3.561669828222362E-004
 -3.366199998924989E-004
 -3.358759313031768E-004
 -3.353542181084662E-004
 -3.350408184770862E-004
 -3.349220915594666E-004
 -3.349848066613014E-004
 -3.352161506312268E-004
 -3.356037332337665E-004
 -3.361355905659373E-004
 -3.368001867161742E-004
 -3.375864136716931E-004
 -3.384835896789021E-004
 -3.394814560540663E-004
 -3.405701726162197E-004
 -3.417403117919541E-004
 -3.429828514946897E-004
 -3.442891668648920E-004
 -3.456510209403253E-004
 -3.470605543278733E-004
 -3.485102739383203E-004
 -3.499930408406130E-004
 -3.515020572830634E-004
 -3.530308529039811E-004
 -3.545732701589419E-004
 -3.561234490293279E-004
 -3.576758109293574E-004
 -3.592250419226482E-004
 -3.607660756231384E-004
 -3.622940746153841E-004
 -3.638044121612360E-004
 -3.652926516925988E-004
 -3.667545286884631E-004
 -3.681859286047324E-004
 -3.695828712835084E-004
 -3.709414801975817E-004
 -3.722579781457164E-004
 -3.735286410953593E-004
 -3.747498169500936E-004
 -3.759178617784659E-004
 -3.770291618970463E-004
 -3.780801345539824E-004
 -3.790670739030480E-004
 -3.799863951014074E-004
 -3.808343326753618E-004
 -3.816069735789049E-004
 -3.823005944254888E-004
 -3.829112662393275E-004
 -3.834348546547526E-004
 -3.838679769949358E-004
 -3.842050873286523E-004
 -3.480938933592640E-004
 -3.478124229503646E-004
 -3.477686892780485E-004
 -3.479457618864699E-004
 -3.483273010755471E-004
 -3.488975646820086E-004
 -3.496414112205595E-004
 -3.505443005487913E-004
 -3.515922924248934E-004
 -3.527720427682736E-004
 -3.540707981569780E-004
 -3.554763883060821E-004
 -3.569772170873664E-004
 -3.585622519650657E-004
 -3.602210121524445E-004
 -3.619435555873594E-004
 -3.637204648340211E-004
 -3.655428320535626E-004
 -3.674022431340179E-004
 -3.692907610618304E-004
 -3.712009085895286E-004
 -3.731256502450130E-004
 -3.750583737625923E-004
 -3.769928709239532E-004
 -3.789233176308746E-004
 -3.808442535275604E-004
 -3.827505606677187E-004
 -3.846374400903083E-004
 -3.865003906022004E-004
 -3.883351827876743E-004
 -3.901378373992647E-004
 -3.919045913228306E-004
 -3.936318762986613E-004
 -3.953162720670139E-004
 -3.969545134033617E-004
 -3.985433964482731E-004
 -4.000798432830700E-004
 -4.015607243368688E-004
 -4.029829948612974E-004
 -4.043435128992597E-004
 -4.056389717409759E-004
 -4.068663744346503E-004
 -4.080220370036130E-004
 -4.091026721779719E-004
 -4.101050733102405E-004
 -4.110247956458507E-004
 -4.118577333715607E-004
 -4.126001444288446E-004
 -4.132452818215110E-004
 -4.137932396761691E-004
 -3.590053735741435E-004
 -3.593352546336161E-004
 -3.599119309726089E-004
 -3.607152624872503E-004
 -3.617259552959851E-004
 -3.629255572355909E-004
 -3.642964532569377E-004
 -3.658218580245054E-004
 -3.674858051126163E-004
 -3.692731343717844E-004
 -3.711694763215880E-004
 -3.731612355613766E-004
 -3.752355719262167E-004
 -3.773803807055552E-004
 -3.795842716098574E-004
 -3.818365468270274E-004
 -3.841271784783163E-004
 -3.864467855731344E-004
 -3.887866106719590E-004
 -3.911384964196266E-004
 -3.934948621031982E-004
 -3.958486803029415E-004
 -3.981934535029938E-004
 -4.005231908216252E-004
 -4.028323853979494E-004
 -4.051159909859812E-004
 -4.073693993807975E-004
 -4.095884212870446E-004
 -4.117692542903493E-004
 -4.139084647284707E-004
 -4.160029484946258E-004
 -4.180499307448453E-004
 -4.200469046987275E-004
 -4.219916546128262E-004
 -4.238820739133910E-004
 -4.257163550946098E-004
 -4.274925706826934E-004
 -4.292091552522668E-004
 -4.308642058833538E-004
 -4.324559782503398E-004
 -4.339828907259994E-004
 -4.354416921654484E-004
 -4.368310816758670E-004
 -4.381474857026207E-004
 -4.393865173065646E-004
 -4.405475541151868E-004
 -4.416271468567182E-004
 -4.426186708433230E-004
 -4.435246262879018E-004
 -4.443241330295902E-004
 -3.692303314040823E-004
 -3.703461031242325E-004
 -3.717076560778127E-004
 -3.732914432485800E-004
 -3.750750838889825E-004
 -3.770373573122601E-004
 -3.791581828421287E-004
 -3.814185949266513E-004
 -3.838007175439996E-004
 -3.862877338421042E-004
 -3.888638571327612E-004
 -3.915142967485296E-004
 -3.942252251014610E-004
 -3.969837423119517E-004
 -3.997778407266561E-004
 -4.025963694050126E-004
 -4.054289984605264E-004
 -4.082661838947480E-004
 -4.110991330952634E-004
 -4.139197712542210E-004
 -4.167207089317463E-004
 -4.194952111954385E-004
 -4.222371691699727E-004
 -4.249410733621574E-004
 -4.276019870305571E-004
 -4.302155250520510E-004
 -4.327778315065489E-004
 -4.352855487848747E-004
 -4.377358349236787E-004
 -4.401263213341162E-004
 -4.424551415150241E-004
 -4.447208126005283E-004
 -4.469223537170048E-004
 -4.490590704057974E-004
 -4.511310502067458E-004
 -4.531382233863175E-004
 -4.550817186211313E-004
 -4.569618100793694E-004
 -4.587802269251099E-004
 -4.605379402753346E-004
 -4.622348859251832E-004
 -4.638758862789874E-004
 -4.654566650545896E-004
 -4.669794855551459E-004
 -4.684466254562466E-004
 -4.698449820040509E-004
 -4.711724355661674E-004
 -4.724386667042952E-004
 -4.736172310931827E-004
 -4.747499419688308E-004
 -3.786432734112224E-004
 -3.807451230710351E-004
 -3.830765197652495E-004
 -3.856105311532708E-004
 -3.883218535822313E-004
 -3.911867387277543E-004
 -3.941829455767940E-004
 -3.972896958143179E-004
 -4.004876195153248E-004
 -4.037587074857369E-004
 -4.070862478083177E-004
 -4.104547746170595E-004
 -4.138500065836546E-004
 -4.172587906843599E-004
 -4.206690448929204E-004
 -4.240697005844309E-004
 -4.274506469340583E-004
 -4.308026766179329E-004
 -4.341174336339065E-004
 -4.373873636341538E-004
 -4.406056671113059E-004
 -4.437662550703304E-004
 -4.468637060610853E-004
 -4.498932291344784E-004
 -4.528506390080376E-004
 -4.557323228178180E-004
 -4.585352251968056E-004
 -4.612568698618456E-004
 -4.638952219686182E-004
 -4.664488127221751E-004
 -4.689166156157216E-004
 -4.712984511511449E-004
 -4.735944450806966E-004
 -4.758058057935084E-004
 -4.779330837888867E-004
 -4.799798045146939E-004
 -4.819471821052257E-004
 -4.838414911344864E-004
 -4.856652275399007E-004
 -4.874251020699903E-004
 -4.891325630046676E-004
 -4.907829579373425E-004
 -4.924059920012706E-004
 -4.940044483637994E-004
 -4.955774692860787E-004
 -4.971676130646162E-004
 -4.987596284504341E-004
 -5.002851596879762E-004
 -5.018178113368769E-004
 -5.032439331330658E-004
 -3.871365074156823E-004
 -3.904444196682560E-004
 -3.939434517937916E-004
 -3.976039976918038E-004
 -4.013984707166512E-004
 -4.053013182824352E-004
 -4.092889527236318E-004
 -4.133396524435877E-004
 -4.174334811234461E-004
 -4.215521695019245E-004
 -4.256790533562391E-004
 -4.297989593690911E-004
 -4.338981284635873E-004
 -4.379641201814622E-004
 -4.419857216590870E-004
 -4.459528627344295E-004
 -4.498565301531152E-004
 -4.536886850937528E-004
 -4.574421832291913E-004
 -4.611106982633382E-004
 -4.646886501229152E-004
 -4.681711407073781E-004
 -4.715539003241795E-004
 -4.748332277451208E-004
 -4.780059096220570E-004
 -4.810692038584631E-004
 -4.840207862246926E-004
 -4.868586165950222E-004
 -4.895813926083694E-004
 -4.921879762993359E-004
 -4.946778361042192E-004
 -4.970497259939277E-004
 -4.993041671109840E-004
 -5.014406104200547E-004
 -5.034635661046249E-004
 -5.053689132638246E-004
 -5.071652477214172E-004
 -5.088480681244342E-004
 -5.104331151911576E-004
 -5.119263835816600E-004
 -5.133208038518772E-004
 -5.146673320279493E-004
 -5.158943956160683E-004
 -5.170449769164938E-004
 -5.181939751023252E-004
 -5.193023172488170E-004
 -5.205654416773114E-004
 -5.223318173125710E-004
 -5.242909608179617E-004
 -5.265103428329621E-004
 -3.946484674628942E-004
 -3.993850976698362E-004
 -4.042442862523529E-004
 -4.091946183971855E-004
 -4.142077133164426E-004
 -4.192578174274765E-004
 -4.243215913605632E-004
 -4.293779884887985E-004
 -4.344080772533502E-004
 -4.393950130792393E-004
 -4.443237848483565E-004
 -4.491811644768140E-004
 -4.539555145875327E-004
 -4.586366692108354E-004
 -4.632158122478336E-004
 -4.676853416740612E-004
 -4.720387489522285E-004
 -4.762705011031233E-004
 -4.803759291747842E-004
 -4.843511201745820E-004
 -4.881928094862340E-004
 -4.918982685225494E-004
 -4.954651883432630E-004
 -4.988916249046413E-004
 -5.021760296813214E-004
 -5.053170379230447E-004
 -5.083134187953877E-004
 -5.111643206340071E-004
 -5.138675654816619E-004
 -5.164220627114977E-004
 -5.188260973849920E-004
 -5.210816263660893E-004
 -5.231839917362568E-004
 -5.251339861660612E-004
 -5.269179917614335E-004
 -5.285603421744988E-004
 -5.300374050703144E-004
 -5.313690005420582E-004
 -5.324990117911972E-004
 -5.334161504707614E-004
 -5.341847115385315E-004
 -5.347060725125578E-004
 -5.353476010974262E-004
 -5.360219029921132E-004
 -5.364597637243639E-004
 -5.366576609591605E-004
 -5.358017026218609E-004
 -5.328571836429496E-004
 -5.228347277310955E-004
 -5.096019821965856E-004
 -4.011894272525240E-004
 -4.075482305488970E-004
 -4.139194364703712E-004
 -4.202740628107587E-004
 -4.265855854371218E-004
 -4.328303886071983E-004
 -4.389878337405358E-004
 -4.450400652929640E-004
 -4.509719750840001E-004
 -4.567705490385329E-004
 -4.624251024435957E-004
 -4.679267316375270E-004
 -4.732683295869348E-004
 -4.784443626705156E-004
 -4.834506489144114E-004
 -4.882842149333068E-004
 -4.929431224529494E-004
 -4.974263082749553E-004
 -5.017334270801680E-004
 -5.058647104185863E-004
 -5.098208502308481E-004
 -5.136029106925158E-004
 -5.172122393948423E-004
 -5.206501636275857E-004
 -5.239175038698211E-004
 -5.270151371298451E-004
 -5.299439527176241E-004
 -5.327036964003398E-004
 -5.352983200683657E-004
 -5.377255534346080E-004
 -5.399840372389993E-004
 -5.420599946728600E-004
 -5.439684293145343E-004
 -5.456998083896375E-004
 -5.472835375712619E-004
 -5.485939714369201E-004
 -5.497049623384899E-004
 -5.505716487696610E-004
 -5.514446788170613E-004
 -5.523723563413889E-004
 -5.529942242014175E-004
 -5.533661338753021E-004
 -5.518890019110728E-004
 -5.487548019187584E-004
 -5.377575043505697E-004
 -5.257577815745554E-004
 -5.124066339870013E-004
 -4.961423774584431E-004
 -4.786494338532403E-004
 -4.609923665673664E-004
 -4.068483998011259E-004
 -4.149315635283258E-004
 -4.228725500805321E-004
 -4.306431882561101E-004
 -4.382216503270251E-004
 -4.455909446299393E-004
 -4.527377740946975E-004
 -4.596519237345063E-004
 -4.663251497683422E-004
 -4.727526180902358E-004
 -4.789309332677516E-004
 -4.848592818870730E-004
 -4.905384246749977E-004
 -4.959705269156822E-004
 -5.011591060046247E-004
 -5.061087051399435E-004
 -5.108246956457382E-004
 -5.153130642054809E-004
 -5.195802280840168E-004
 -5.236328354729096E-004
 -5.274775393950889E-004
 -5.311207747486509E-004
 -5.345686773339815E-004
 -5.378277412039199E-004
 -5.409057209818645E-004
 -5.438083657798548E-004
 -5.465388495191449E-004
 -5.491020412228846E-004
 -5.514871537959562E-004
 -5.537088445233167E-004
 -5.557731315307763E-004
 -5.577159262401257E-004
 -5.594439821646533E-004
 -5.609743965155063E-004
 -5.622315506948739E-004
 -5.637430532293240E-004
 -5.651604481584408E-004
 -5.663623048901074E-004
 -5.660949164500495E-004
 -5.636608394184870E-004
 -5.531604453275917E-004
 -5.425148045029676E-004
 -5.298155112163572E-004
 -5.150830126712108E-004
 -4.988279792920803E-004
 -4.826694068034321E-004
 -4.665635654586861E-004
 -4.504645514736404E-004
 -4.343195111798689E-004
 -4.182511007505886E-004
 -4.117323908211708E-004
 -4.214927408350566E-004
 -4.308770724091450E-004
 -4.398802943153725E-004
 -4.484979307851063E-004
 -4.567259363170059E-004
 -4.645618709764087E-004
 -4.720061441744173E-004
 -4.790653207806596E-004
 -4.857452738644684E-004
 -4.920574692768079E-004
 -4.980129468569210E-004
 -5.036246280312717E-004
 -5.089069188234049E-004
 -5.138746295919251E-004
 -5.185430276441806E-004
 -5.229275830434549E-004
 -5.270438755145034E-004
 -5.309074589640098E-004
 -5.345337900423636E-004
 -5.379381995399974E-004
 -5.411357253813867E-004
 -5.441403729574810E-004
 -5.469624169515307E-004
 -5.496063378391770E-004
 -5.520843174058350E-004
 -5.544172491010812E-004
 -5.566142822563546E-004
 -5.587261526720319E-004
 -5.606892588134626E-004
 -5.624876407889339E-004
 -5.640395236263089E-004
 -5.657809110210801E-004
 -5.675900611614914E-004
 -5.694554828777148E-004
 -5.690618627708171E-004
 -5.614563512244368E-004
 -5.519906051908487E-004
 -5.408554578439883E-004
 -5.271632842568558E-004
 -5.118142526540929E-004
 -4.963830072537609E-004
 -4.808088578926827E-004
 -4.654897748344898E-004
 -4.506256815855027E-004
 -4.355118795463091E-004
 -4.212083463414267E-004
 -4.079533515755808E-004
 -3.979388661633748E-004
 -3.895029133806857E-004
 -4.159271439194345E-004
 -4.269313012036092E-004
 -4.373220854178401E-004
 -4.470891193665154E-004
 -4.562255124339941E-004
 -4.647383533917487E-004
 -4.726496122145067E-004
 -4.799895044074313E-004
 -4.867800200035477E-004
 -4.930578740111891E-004
 -4.988470583805627E-004
 -5.041804195765556E-004
 -5.090895918472621E-004
 -5.136037976028111E-004
 -5.177526285120343E-004
 -5.215649207504554E-004
 -5.250687260856692E-004
 -5.282907698821685E-004
 -5.312562700960845E-004
 -5.339888372599670E-004
 -5.365105664866361E-004
 -5.388428753592779E-004
 -5.410089791752496E-004
 -5.430405157356808E-004
 -5.449787127387697E-004
 -5.468218963110332E-004
 -5.485293266355685E-004
 -5.501161227675789E-004
 -5.514840958206156E-004
 -5.529808229033924E-004
 -5.546479502987900E-004
 -5.565912936864777E-004
 -5.555377346882556E-004
 -5.475206483786242E-004
 -5.394597595196368E-004
 -5.281574374843541E-004
 -5.141328300949149E-004
 -4.991374860250279E-004
 -4.834529882714909E-004
 -4.671564438765921E-004
 -4.508777682328377E-004
 -4.344988855963999E-004
 -4.185410618971141E-004
 -4.022095145124934E-004
 -3.875219754727945E-004
 -3.775688269086390E-004
 -3.797466865931803E-004
 -3.820855325155021E-004
 -3.876916975783017E-004
 -3.945985604943568E-004
 -4.189095509652176E-004
 -4.305730852341273E-004
 -4.411309838485360E-004
 -4.506206172042015E-004
 -4.591470342831620E-004
 -4.668155320156400E-004
 -4.736951903459122E-004
 -4.798310409519076E-004
 -4.853036644210635E-004
 -4.901401550418885E-004
 -4.944204067502452E-004
 -4.981899006094579E-004
 -5.014938651836880E-004
 -5.043847422558872E-004
 -5.069107506237424E-004
 -5.091179028083859E-004
 -5.110484115019263E-004
 -5.127414432628996E-004
 -5.142327985324644E-004
 -5.155543901282770E-004
 -5.167333505601179E-004
 -5.177895074428447E-004
 -5.187301326192403E-004
 -5.195385266113976E-004
 -5.201822783281088E-004
 -5.207950509016341E-004
 -5.216262006667156E-004
 -5.226313406165135E-004
 -5.240036619304194E-004
 -5.207750568709454E-004
 -5.148539333208743E-004
 -5.086829349209719E-004
 -4.994976646084799E-004
 -4.872949575570362E-004
 -4.739524783816296E-004
 -4.592393014447764E-004
 -4.435607069893597E-004
 -4.268341406957964E-004
 -4.092195266734294E-004
 -3.909442936669245E-004
 -3.720657104126103E-004
 -3.528395105429990E-004
 -3.331559024406758E-004
 -3.266280924280086E-004
 -3.286041688527799E-004
 -3.354087767576124E-004
 -3.445730870836354E-004
 -3.535713780585069E-004
 -3.624315620127776E-004
 -3.707636827854504E-004
 -4.215617921216535E-004
 -4.310241482619527E-004
 -4.390786158754804E-004
 -4.461219226019302E-004
 -4.522105108004471E-004
 -4.573007379656998E-004
 -4.614519077086343E-004
 -4.648102450425069E-004
 -4.673846274629383E-004
 -4.693810512404734E-004
 -4.707835301745928E-004
 -4.716990401313659E-004
 -4.722383255143948E-004
 -4.724695876603856E-004
 -4.724551138967143E-004
 -4.722443812602856E-004
 -4.718818286577316E-004
 -4.714059740843528E-004
 -4.708522976594739E-004
 -4.702565763959509E-004
 -4.696580177127284E-004
 -4.691045054039691E-004
 -4.686596916811285E-004
 -4.684155542836204E-004
 -4.672177868005084E-004
 -4.646936314518765E-004
 -4.607588918483963E-004
 -4.566141096774946E-004
 -4.520876665963588E-004
 -4.450715989923280E-004
 -4.358177088761822E-004
 -4.254261540166088E-004
 -4.137131839864077E-004
 -4.008466834206666E-004
 -3.866553185081107E-004
 -3.712904425915102E-004
 -3.546950573483027E-004
 -3.368548858372251E-004
 -3.176672648449488E-004
 -2.970166748850384E-004
 -2.748298240759479E-004
 -2.513078653075404E-004
 -2.370048796413692E-004
 -2.441622452563971E-004
 -2.523441579721685E-004
 -2.618516616996935E-004
 -2.719151308469394E-004
 -2.821966169106459E-004
 -2.920329472243691E-004
 -3.017524344840035E-004
 -4.123565218789028E-004
 -4.172808783588669E-004
 -4.216764439974112E-004
 -4.243881367137985E-004
 -4.254608399150066E-004
 -4.254769127778285E-004
 -4.246903728095799E-004
 -4.230219234451571E-004
 -4.209098740983514E-004
 -4.175493284888198E-004
 -4.138893036116988E-004
 -4.103363295059782E-004
 -4.068496941879967E-004
 -4.034703535966467E-004
 -4.001933552690699E-004
 -3.970208683075343E-004
 -3.939303693756020E-004
 -3.908949284049137E-004
 -3.878861516946437E-004
 -3.848721050132725E-004
 -3.818178965957916E-004
 -3.786797616522247E-004
 -3.754053482388867E-004
 -3.719280456699563E-004
 -3.680685003495543E-004
 -3.633618755117912E-004
 -3.570437397759054E-004
 -3.499877049409630E-004
 -3.420386403898714E-004
 -3.331921013163752E-004
 -3.232811526555803E-004
 -3.123178556202988E-004
 -3.003842481403938E-004
 -2.874359354023507E-004
 -2.734600317320878E-004
 -2.583478034191873E-004
 -2.420118865453588E-004
 -2.243019943589520E-004
 -2.050947401351989E-004
 -1.842350347468721E-004
 -1.615221494592019E-004
 -1.369590903734992E-004
 -1.209485235243772E-004
 -1.164026945927086E-004
 -1.244817618242666E-004
 -1.348101141861144E-004
 -1.458963369599980E-004
 -1.589033388746782E-004
 -1.731966343697505E-004
 -1.866224352726273E-004
 -3.836471406479646E-004
 -3.803812401798648E-004
 -3.730740529408131E-004
 -3.624221954515204E-004
 -3.499957203058432E-004
 -3.374187254681937E-004
 -3.256393375032502E-004
 -3.147920263154723E-004
 -3.045913288972019E-004
 -2.971579481049414E-004
 -2.903031499375031E-004
 -2.838469969304095E-004
 -2.780340222608945E-004
 -2.727339159699913E-004
 -2.678958159556839E-004
 -2.633528296627943E-004
 -2.590157455141305E-004
 -2.548081151515594E-004
 -2.506553014379745E-004
 -2.464713844663874E-004
 -2.421648285780288E-004
 -2.376480515873000E-004
 -2.328253058507564E-004
 -2.275928928081390E-004
 -2.219093429050529E-004
 -2.156378029017131E-004
 -2.086451374945138E-004
 -2.009065543014323E-004
 -1.924390292638853E-004
 -1.832489733544766E-004
 -1.733521699514155E-004
 -1.626877781516733E-004
 -1.511890662952583E-004
 -1.388151643583083E-004
 -1.255022938071574E-004
 -1.112139965965574E-004
 -9.588273774444462E-005
 -7.942200567614490E-005
 -6.169928847406746E-005
 -4.256928507529675E-005
 -2.189092124277704E-005
  4.852603399282122E-007
  2.421160247722670E-005
  4.430891464269059E-005
  5.060231045915101E-005
  5.291983892028334E-005
  4.459779925899646E-005
  3.091104311895420E-005
  1.060370810833145E-005
 -1.808391959607392E-005
 -3.566260298101328E-004
 -3.099121481533713E-004
 -2.721487278432576E-004
 -2.411494215983099E-004
 -2.154487916765109E-004
 -1.928159955741029E-004
 -1.625128995216272E-004
 -1.331057297231879E-004
 -1.097444607683112E-004
 -9.113868584400333E-005
 -8.012655007905708E-005
 -7.509336367128080E-005
 -7.056432308564627E-005
 -6.644977245938677E-005
 -6.269091478350675E-005
 -5.917201276998095E-005
 -5.582914125638873E-005
 -5.251816109868107E-005
 -4.914402374890958E-005
 -4.562449604435899E-005
 -4.187750926604080E-005
 -3.782291156436902E-005
 -3.339621907283195E-005
 -2.853334626947752E-005
 -2.318008025947046E-005
 -1.729502914566460E-005
 -1.084669754807560E-005
 -3.800533242933622E-006
  3.882324251638219E-006
  1.224355366396159E-005
  2.131842435169330E-005
  3.114643571045279E-005
  4.176186711520511E-005
  5.320376258515867E-005
  6.552168665360687E-005
  7.877449449238811E-005
  9.300082469148466E-005
  1.083054882704569E-004
  1.247846134006112E-004
  1.425678019264747E-004
  1.618382384978331E-004
  1.828102564750482E-004
  2.057394271275480E-004
  2.309310402088484E-004
  2.592235805821396E-004
  2.882335835472713E-004
  2.819992770999379E-004
  2.698928783608919E-004
  2.496788117884329E-004
  2.176917157871332E-004
SCALARS elementIsPlast double 
LOOKUP_TABLE default
  0.000000000000000E+000
  0.000000000000000E+000
  0.000000000000000E+000
   1.00000000000000     
   1.00000000000000     
   1.00000000000000     
   1.00000000000000     
   1.00000000000000     
   1.00000000000000     
   1.00000000000000     
   1.00000000000000     
   1.00000000000000     
   1.00000000000000     
   1.00000000000000     
   1.00000000000000     
   1.00000000000000     
   1.00000000000000     
   1.00000000000000     
   1.00000000000000     
   1.00000000000000     
   1.00000000000000     
   1.00000000000000     
   1.00000000000000     
   1.00000000000000     
   1.00000000000000     
   1.00000000000000     
   1.00000000000000     
   1.00000000000000     
   1.00000000000000     
   1.00000000000000     
   1.00000000000000     
   1.00000000000000     
   1.00000000000000     
   1.00000000000000     
   1.00000000000000     
   1.00000000000000     
   1.00000000000000     
   1.00000000000000     
   1.00000000000000     
   1.00000000000000     
   1.00000000000000     
   1.00000000000000     
   1.00000000000000     
   1.00000000000000     
   1.00000000000000     
   1.00000000000000     
   1.00000000000000     
   1.00000000000000     
   1.00000000000000     
   1.00000000000000     
   1.00000000000000     
   1.00000000000000     
   1.00000000000000     
   1.00000000000000     
   1.00000000000000     
   1.00000000000000     
   1.00000000000000     
   1.00000000000000     
   1.00000000000000     
   1.00000000000000     
   1.00000000000000     
   1.00000000000000     
   1.00000000000000     
   1.00000000000000     
   1.00000000000000     
   1.00000000000000     
   1.00000000000000     
   1.00000000000000     
   1.00000000000000     
   1.00000000000000     
   1.00000000000000     
   1.00000000000000     
   1.00000000000000     
   1.00000000000000     
   1.00000000000000     
   1.00000000000000     
   1.00000000000000     
   1.00000000000000     
   1.00000000000000     
   1.00000000000000     
   1.00000000000000     
   1.00000000000000     
   1.00000000000000     
   1.00000000000000     
   1.00000000000000     
   1.00000000000000     
   1.00000000000000     
   1.00000000000000     
   1.00000000000000     
   1.00000000000000     
   1.00000000000000     
   1.00000000000000     
   1.00000000000000     
   1.00000000000000     
   1.00000000000000     
   1.00000000000000     
   1.00000000000000     
   1.00000000000000     
   1.00000000000000     
   1.00000000000000     
   1.00000000000000     
   1.00000000000000     
   1.00000000000000     
   1.00000000000000     
   1.00000000000000     
   1.00000000000000     
   1.00000000000000     
   1.00000000000000     
   1.00000000000000     
   1.00000000000000     
   1.00000000000000     
   1.00000000000000     
   1.00000000000000     
   1.00000000000000     
   1.00000000000000     
   1.00000000000000     
   1.00000000000000     
   1.00000000000000     
   1.00000000000000     
   1.00000000000000     
   1.00000000000000     
   1.00000000000000     
   1.00000000000000     
   1.00000000000000     
   1.00000000000000     
   1.00000000000000     
   1.00000000000000     
   1.00000000000000     
   1.00000000000000     
   1.00000000000000     
   1.00000000000000     
   1.00000000000000     
   1.00000000000000     
   1.00000000000000     
   1.00000000000000     
   1.00000000000000     
   1.00000000000000     
   1.00000000000000     
   1.00000000000000     
   1.00000000000000     
   1.00000000000000     
   1.00000000000000     
   1.00000000000000     
   1.00000000000000     
   1.00000000000000     
   1.00000000000000     
   1.00000000000000     
   1.00000000000000     
   1.00000000000000     
   1.00000000000000     
   1.00000000000000     
   1.00000000000000     
   1.00000000000000     
   1.00000000000000     
   1.00000000000000     
   1.00000000000000     
   1.00000000000000     
   1.00000000000000     
   1.00000000000000     
   1.00000000000000     
   1.00000000000000     
   1.00000000000000     
   1.00000000000000     
   1.00000000000000     
   1.00000000000000     
   1.00000000000000     
   1.00000000000000     
   1.00000000000000     
   1.00000000000000     
   1.00000000000000     
   1.00000000000000     
   1.00000000000000     
   1.00000000000000     
   1.00000000000000     
   1.00000000000000     
   1.00000000000000     
   1.00000000000000     
   1.00000000000000     
   1.00000000000000     
   1.00000000000000     
   1.00000000000000     
   1.00000000000000     
   1.00000000000000     
   1.00000000000000     
   1.00000000000000     
   1.00000000000000     
   1.00000000000000     
   1.00000000000000     
   1.00000000000000     
   1.00000000000000     
   1.00000000000000     
   1.00000000000000     
   1.00000000000000     
   1.00000000000000     
   1.00000000000000     
   1.00000000000000     
   1.00000000000000     
   1.00000000000000     
   1.00000000000000     
   1.00000000000000     
  0.000000000000000E+000
  0.000000000000000E+000
  0.000000000000000E+000
  0.000000000000000E+000
  0.000000000000000E+000
  0.000000000000000E+000
  0.000000000000000E+000
  0.000000000000000E+000
  0.000000000000000E+000
  0.000000000000000E+000
  0.000000000000000E+000
  0.000000000000000E+000
  0.000000000000000E+000
  0.000000000000000E+000
   1.00000000000000     
   1.00000000000000     
   1.00000000000000     
   1.00000000000000     
   1.00000000000000     
   1.00000000000000     
   1.00000000000000     
   1.00000000000000     
   1.00000000000000     
   1.00000000000000     
   1.00000000000000     
   1.00000000000000     
   1.00000000000000     
   1.00000000000000     
   1.00000000000000     
   1.00000000000000     
   1.00000000000000     
   1.00000000000000     
   1.00000000000000     
   1.00000000000000     
   1.00000000000000     
   1.00000000000000     
   1.00000000000000     
   1.00000000000000     
   1.00000000000000     
   1.00000000000000     
   1.00000000000000     
   1.00000000000000     
   1.00000000000000     
   1.00000000000000     
   1.00000000000000     
   1.00000000000000     
   1.00000000000000     
   1.00000000000000     
   1.00000000000000     
   1.00000000000000     
  0.000000000000000E+000
  0.000000000000000E+000
  0.000000000000000E+000
  0.000000000000000E+000
  0.000000000000000E+000
  0.000000000000000E+000
  0.000000000000000E+000
  0.000000000000000E+000
  0.000000000000000E+000
  0.000000000000000E+000
  0.000000000000000E+000
  0.000000000000000E+000
  0.000000000000000E+000
  0.000000000000000E+000
  0.000000000000000E+000
  0.000000000000000E+000
  0.000000000000000E+000
  0.000000000000000E+000
  0.000000000000000E+000
  0.000000000000000E+000
  0.000000000000000E+000
  0.000000000000000E+000
  0.000000000000000E+000
  0.000000000000000E+000
  0.000000000000000E+000
  0.000000000000000E+000
  0.000000000000000E+000
  0.000000000000000E+000
  0.000000000000000E+000
  0.000000000000000E+000
  0.000000000000000E+000
  0.000000000000000E+000
  0.000000000000000E+000
  0.000000000000000E+000
  0.000000000000000E+000
  0.000000000000000E+000
  0.000000000000000E+000
   1.00000000000000     
   1.00000000000000     
   1.00000000000000     
   1.00000000000000     
   1.00000000000000     
   1.00000000000000     
   1.00000000000000     
   1.00000000000000     
   1.00000000000000     
   1.00000000000000     
   1.00000000000000     
   1.00000000000000     
   1.00000000000000     
  0.000000000000000E+000
  0.000000000000000E+000
  0.000000000000000E+000
  0.000000000000000E+000
  0.000000000000000E+000
  0.000000000000000E+000
  0.000000000000000E+000
  0.000000000000000E+000
  0.000000000000000E+000
  0.000000000000000E+000
  0.000000000000000E+000
  0.000000000000000E+000
  0.000000000000000E+000
  0.000000000000000E+000
  0.000000000000000E+000
  0.000000000000000E+000
  0.000000000000000E+000
  0.000000000000000E+000
  0.000000000000000E+000
  0.000000000000000E+000
  0.000000000000000E+000
  0.000000000000000E+000
  0.000000000000000E+000
  0.000000000000000E+000
  0.000000000000000E+000
  0.000000000000000E+000
  0.000000000000000E+000
  0.000000000000000E+000
  0.000000000000000E+000
  0.000000000000000E+000
  0.000000000000000E+000
  0.000000000000000E+000
  0.000000000000000E+000
  0.000000000000000E+000
  0.000000000000000E+000
  0.000000000000000E+000
  0.000000000000000E+000
  0.000000000000000E+000
  0.000000000000000E+000
  0.000000000000000E+000
  0.000000000000000E+000
   1.00000000000000     
   1.00000000000000     
   1.00000000000000     
   1.00000000000000     
   1.00000000000000     
   1.00000000000000     
   1.00000000000000     
   1.00000000000000     
   1.00000000000000     
  0.000000000000000E+000
  0.000000000000000E+000
  0.000000000000000E+000
  0.000000000000000E+000
  0.000000000000000E+000
  0.000000000000000E+000
  0.000000000000000E+000
  0.000000000000000E+000
  0.000000000000000E+000
  0.000000000000000E+000
  0.000000000000000E+000
  0.000000000000000E+000
  0.000000000000000E+000
  0.000000000000000E+000
  0.000000000000000E+000
  0.000000000000000E+000
  0.000000000000000E+000
  0.000000000000000E+000
  0.000000000000000E+000
  0.000000000000000E+000
  0.000000000000000E+000
  0.000000000000000E+000
  0.000000000000000E+000
  0.000000000000000E+000
  0.000000000000000E+000
  0.000000000000000E+000
  0.000000000000000E+000
  0.000000000000000E+000
  0.000000000000000E+000
  0.000000000000000E+000
  0.000000000000000E+000
  0.000000000000000E+000
  0.000000000000000E+000
  0.000000000000000E+000
  0.000000000000000E+000
  0.000000000000000E+000
  0.000000000000000E+000
  0.000000000000000E+000
  0.000000000000000E+000
  0.000000000000000E+000
  0.000000000000000E+000
  0.000000000000000E+000
  0.000000000000000E+000
  0.000000000000000E+000
  0.000000000000000E+000
   1.00000000000000     
   1.00000000000000     
   1.00000000000000     
   1.00000000000000     
   1.00000000000000     
  0.000000000000000E+000
  0.000000000000000E+000
  0.000000000000000E+000
  0.000000000000000E+000
  0.000000000000000E+000
  0.000000000000000E+000
  0.000000000000000E+000
  0.000000000000000E+000
  0.000000000000000E+000
  0.000000000000000E+000
  0.000000000000000E+000
  0.000000000000000E+000
  0.000000000000000E+000
  0.000000000000000E+000
  0.000000000000000E+000
  0.000000000000000E+000
  0.000000000000000E+000
  0.000000000000000E+000
  0.000000000000000E+000
  0.000000000000000E+000
  0.000000000000000E+000
  0.000000000000000E+000
  0.000000000000000E+000
  0.000000000000000E+000
  0.000000000000000E+000
  0.000000000000000E+000
  0.000000000000000E+000
  0.000000000000000E+000
  0.000000000000000E+000
  0.000000000000000E+000
  0.000000000000000E+000
  0.000000000000000E+000
  0.000000000000000E+000
  0.000000000000000E+000
  0.000000000000000E+000
  0.000000000000000E+000
  0.000000000000000E+000
  0.000000000000000E+000
  0.000000000000000E+000
  0.000000000000000E+000
  0.000000000000000E+000
  0.000000000000000E+000
  0.000000000000000E+000
  0.000000000000000E+000
  0.000000000000000E+000
  0.000000000000000E+000
  0.000000000000000E+000
  0.000000000000000E+000
  0.000000000000000E+000
   1.00000000000000     
  0.000000000000000E+000
  0.000000000000000E+000
  0.000000000000000E+000
  0.000000000000000E+000
  0.000000000000000E+000
  0.000000000000000E+000
  0.000000000000000E+000
  0.000000000000000E+000
  0.000000000000000E+000
  0.000000000000000E+000
  0.000000000000000E+000
  0.000000000000000E+000
  0.000000000000000E+000
  0.000000000000000E+000
  0.000000000000000E+000
  0.000000000000000E+000
  0.000000000000000E+000
  0.000000000000000E+000
  0.000000000000000E+000
  0.000000000000000E+000
  0.000000000000000E+000
  0.000000000000000E+000
  0.000000000000000E+000
  0.000000000000000E+000
  0.000000000000000E+000
  0.000000000000000E+000
  0.000000000000000E+000
  0.000000000000000E+000
  0.000000000000000E+000
  0.000000000000000E+000
  0.000000000000000E+000
  0.000000000000000E+000
  0.000000000000000E+000
  0.000000000000000E+000
  0.000000000000000E+000
  0.000000000000000E+000
  0.000000000000000E+000
  0.000000000000000E+000
  0.000000000000000E+000
  0.000000000000000E+000
  0.000000000000000E+000
  0.000000000000000E+000
  0.000000000000000E+000
  0.000000000000000E+000
  0.000000000000000E+000
  0.000000000000000E+000
  0.000000000000000E+000
  0.000000000000000E+000
  0.000000000000000E+000
  0.000000000000000E+000
  0.000000000000000E+000
  0.000000000000000E+000
  0.000000000000000E+000
  0.000000000000000E+000
  0.000000000000000E+000
  0.000000000000000E+000
  0.000000000000000E+000
  0.000000000000000E+000
  0.000000000000000E+000
  0.000000000000000E+000
  0.000000000000000E+000
  0.000000000000000E+000
  0.000000000000000E+000
  0.000000000000000E+000
  0.000000000000000E+000
  0.000000000000000E+000
  0.000000000000000E+000
  0.000000000000000E+000
  0.000000000000000E+000
  0.000000000000000E+000
  0.000000000000000E+000
  0.000000000000000E+000
  0.000000000000000E+000
  0.000000000000000E+000
  0.000000000000000E+000
  0.000000000000000E+000
  0.000000000000000E+000
  0.000000000000000E+000
  0.000000000000000E+000
  0.000000000000000E+000
  0.000000000000000E+000
  0.000000000000000E+000
  0.000000000000000E+000
  0.000000000000000E+000
  0.000000000000000E+000
  0.000000000000000E+000
  0.000000000000000E+000
  0.000000000000000E+000
  0.000000000000000E+000
  0.000000000000000E+000
  0.000000000000000E+000
  0.000000000000000E+000
  0.000000000000000E+000
  0.000000000000000E+000
  0.000000000000000E+000
  0.000000000000000E+000
  0.000000000000000E+000
  0.000000000000000E+000
  0.000000000000000E+000
  0.000000000000000E+000
  0.000000000000000E+000
  0.000000000000000E+000
  0.000000000000000E+000
  0.000000000000000E+000
  0.000000000000000E+000
  0.000000000000000E+000
  0.000000000000000E+000
  0.000000000000000E+000
  0.000000000000000E+000
  0.000000000000000E+000
  0.000000000000000E+000
  0.000000000000000E+000
  0.000000000000000E+000
  0.000000000000000E+000
  0.000000000000000E+000
  0.000000000000000E+000
  0.000000000000000E+000
  0.000000000000000E+000
  0.000000000000000E+000
  0.000000000000000E+000
  0.000000000000000E+000
  0.000000000000000E+000
  0.000000000000000E+000
  0.000000000000000E+000
  0.000000000000000E+000
  0.000000000000000E+000
  0.000000000000000E+000
  0.000000000000000E+000
  0.000000000000000E+000
  0.000000000000000E+000
  0.000000000000000E+000
  0.000000000000000E+000
  0.000000000000000E+000
  0.000000000000000E+000
  0.000000000000000E+000
  0.000000000000000E+000
  0.000000000000000E+000
  0.000000000000000E+000
  0.000000000000000E+000
  0.000000000000000E+000
  0.000000000000000E+000
  0.000000000000000E+000
  0.000000000000000E+000
  0.000000000000000E+000
  0.000000000000000E+000
  0.000000000000000E+000
  0.000000000000000E+000
  0.000000000000000E+000
  0.000000000000000E+000
  0.000000000000000E+000
  0.000000000000000E+000
  0.000000000000000E+000
  0.000000000000000E+000
  0.000000000000000E+000
  0.000000000000000E+000
  0.000000000000000E+000
  0.000000000000000E+000
  0.000000000000000E+000
  0.000000000000000E+000
  0.000000000000000E+000
  0.000000000000000E+000
  0.000000000000000E+000
  0.000000000000000E+000
  0.000000000000000E+000
  0.000000000000000E+000
  0.000000000000000E+000
  0.000000000000000E+000
  0.000000000000000E+000
  0.000000000000000E+000
  0.000000000000000E+000
  0.000000000000000E+000
  0.000000000000000E+000
  0.000000000000000E+000
  0.000000000000000E+000
  0.000000000000000E+000
  0.000000000000000E+000
  0.000000000000000E+000
  0.000000000000000E+000
  0.000000000000000E+000
  0.000000000000000E+000
  0.000000000000000E+000
  0.000000000000000E+000
  0.000000000000000E+000
  0.000000000000000E+000
  0.000000000000000E+000
  0.000000000000000E+000
  0.000000000000000E+000
  0.000000000000000E+000
  0.000000000000000E+000
  0.000000000000000E+000
  0.000000000000000E+000
  0.000000000000000E+000
  0.000000000000000E+000
  0.000000000000000E+000
  0.000000000000000E+000
  0.000000000000000E+000
  0.000000000000000E+000
  0.000000000000000E+000
  0.000000000000000E+000
  0.000000000000000E+000
  0.000000000000000E+000
  0.000000000000000E+000
  0.000000000000000E+000
  0.000000000000000E+000
  0.000000000000000E+000
  0.000000000000000E+000
  0.000000000000000E+000
  0.000000000000000E+000
  0.000000000000000E+000
  0.000000000000000E+000
  0.000000000000000E+000
  0.000000000000000E+000
  0.000000000000000E+000
  0.000000000000000E+000
  0.000000000000000E+000
  0.000000000000000E+000
  0.000000000000000E+000
  0.000000000000000E+000
  0.000000000000000E+000
  0.000000000000000E+000
  0.000000000000000E+000
  0.000000000000000E+000
  0.000000000000000E+000
  0.000000000000000E+000
  0.000000000000000E+000
  0.000000000000000E+000
  0.000000000000000E+000
  0.000000000000000E+000
  0.000000000000000E+000
  0.000000000000000E+000
  0.000000000000000E+000
  0.000000000000000E+000
  0.000000000000000E+000
  0.000000000000000E+000
  0.000000000000000E+000
  0.000000000000000E+000
  0.000000000000000E+000
  0.000000000000000E+000
  0.000000000000000E+000
  0.000000000000000E+000
  0.000000000000000E+000
  0.000000000000000E+000
  0.000000000000000E+000
  0.000000000000000E+000
  0.000000000000000E+000
  0.000000000000000E+000
  0.000000000000000E+000
  0.000000000000000E+000
  0.000000000000000E+000
  0.000000000000000E+000
  0.000000000000000E+000
  0.000000000000000E+000
  0.000000000000000E+000
  0.000000000000000E+000
  0.000000000000000E+000
  0.000000000000000E+000
  0.000000000000000E+000
  0.000000000000000E+000
  0.000000000000000E+000
  0.000000000000000E+000
  0.000000000000000E+000
  0.000000000000000E+000
  0.000000000000000E+000
  0.000000000000000E+000
  0.000000000000000E+000
  0.000000000000000E+000
  0.000000000000000E+000
  0.000000000000000E+000
  0.000000000000000E+000
  0.000000000000000E+000
  0.000000000000000E+000
  0.000000000000000E+000
  0.000000000000000E+000
  0.000000000000000E+000
  0.000000000000000E+000
  0.000000000000000E+000
  0.000000000000000E+000
  0.000000000000000E+000
  0.000000000000000E+000
  0.000000000000000E+000
  0.000000000000000E+000
  0.000000000000000E+000
  0.000000000000000E+000
  0.000000000000000E+000
  0.000000000000000E+000
  0.000000000000000E+000
  0.000000000000000E+000
  0.000000000000000E+000
  0.000000000000000E+000
  0.000000000000000E+000
  0.000000000000000E+000
  0.000000000000000E+000
  0.000000000000000E+000
  0.000000000000000E+000
  0.000000000000000E+000
  0.000000000000000E+000
  0.000000000000000E+000
  0.000000000000000E+000
  0.000000000000000E+000
  0.000000000000000E+000
  0.000000000000000E+000
  0.000000000000000E+000
  0.000000000000000E+000
  0.000000000000000E+000
  0.000000000000000E+000
  0.000000000000000E+000
  0.000000000000000E+000
  0.000000000000000E+000
  0.000000000000000E+000
  0.000000000000000E+000
  0.000000000000000E+000
  0.000000000000000E+000
  0.000000000000000E+000
  0.000000000000000E+000
  0.000000000000000E+000
  0.000000000000000E+000
  0.000000000000000E+000
  0.000000000000000E+000
  0.000000000000000E+000
  0.000000000000000E+000
  0.000000000000000E+000
  0.000000000000000E+000
  0.000000000000000E+000
  0.000000000000000E+000
  0.000000000000000E+000
  0.000000000000000E+000
  0.000000000000000E+000
  0.000000000000000E+000
  0.000000000000000E+000
  0.000000000000000E+000
  0.000000000000000E+000
  0.000000000000000E+000
  0.000000000000000E+000
  0.000000000000000E+000
  0.000000000000000E+000
  0.000000000000000E+000
  0.000000000000000E+000
  0.000000000000000E+000
  0.000000000000000E+000
  0.000000000000000E+000
  0.000000000000000E+000
  0.000000000000000E+000
  0.000000000000000E+000
  0.000000000000000E+000
  0.000000000000000E+000
  0.000000000000000E+000
  0.000000000000000E+000
  0.000000000000000E+000
  0.000000000000000E+000
  0.000000000000000E+000
  0.000000000000000E+000
  0.000000000000000E+000
  0.000000000000000E+000
  0.000000000000000E+000
  0.000000000000000E+000
  0.000000000000000E+000
  0.000000000000000E+000
  0.000000000000000E+000
  0.000000000000000E+000
  0.000000000000000E+000
  0.000000000000000E+000
  0.000000000000000E+000
  0.000000000000000E+000
  0.000000000000000E+000
  0.000000000000000E+000
  0.000000000000000E+000
  0.000000000000000E+000
  0.000000000000000E+000
  0.000000000000000E+000
  0.000000000000000E+000
  0.000000000000000E+000
  0.000000000000000E+000
  0.000000000000000E+000
  0.000000000000000E+000
  0.000000000000000E+000
  0.000000000000000E+000
  0.000000000000000E+000
  0.000000000000000E+000
  0.000000000000000E+000
  0.000000000000000E+000
  0.000000000000000E+000
  0.000000000000000E+000
  0.000000000000000E+000
  0.000000000000000E+000
  0.000000000000000E+000
  0.000000000000000E+000
  0.000000000000000E+000
  0.000000000000000E+000
  0.000000000000000E+000
  0.000000000000000E+000
  0.000000000000000E+000
  0.000000000000000E+000
  0.000000000000000E+000
  0.000000000000000E+000
  0.000000000000000E+000
  0.000000000000000E+000
  0.000000000000000E+000
  0.000000000000000E+000
  0.000000000000000E+000
  0.000000000000000E+000
  0.000000000000000E+000
  0.000000000000000E+000
  0.000000000000000E+000
  0.000000000000000E+000
  0.000000000000000E+000
  0.000000000000000E+000
  0.000000000000000E+000
  0.000000000000000E+000
  0.000000000000000E+000
  0.000000000000000E+000
  0.000000000000000E+000
  0.000000000000000E+000
  0.000000000000000E+000
  0.000000000000000E+000
  0.000000000000000E+000
  0.000000000000000E+000
  0.000000000000000E+000
  0.000000000000000E+000
  0.000000000000000E+000
  0.000000000000000E+000
  0.000000000000000E+000
  0.000000000000000E+000
  0.000000000000000E+000
  0.000000000000000E+000
  0.000000000000000E+000
  0.000000000000000E+000
  0.000000000000000E+000
  0.000000000000000E+000
  0.000000000000000E+000
  0.000000000000000E+000
  0.000000000000000E+000
  0.000000000000000E+000
  0.000000000000000E+000
  0.000000000000000E+000
  0.000000000000000E+000
  0.000000000000000E+000
  0.000000000000000E+000
  0.000000000000000E+000
  0.000000000000000E+000
  0.000000000000000E+000
  0.000000000000000E+000
  0.000000000000000E+000
  0.000000000000000E+000
  0.000000000000000E+000
  0.000000000000000E+000
  0.000000000000000E+000
  0.000000000000000E+000
  0.000000000000000E+000
  0.000000000000000E+000
  0.000000000000000E+000
  0.000000000000000E+000
  0.000000000000000E+000
  0.000000000000000E+000
  0.000000000000000E+000
  0.000000000000000E+000
  0.000000000000000E+000
  0.000000000000000E+000
  0.000000000000000E+000
  0.000000000000000E+000
  0.000000000000000E+000
  0.000000000000000E+000
  0.000000000000000E+000
  0.000000000000000E+000
  0.000000000000000E+000
  0.000000000000000E+000
  0.000000000000000E+000
  0.000000000000000E+000
  0.000000000000000E+000
  0.000000000000000E+000
  0.000000000000000E+000
  0.000000000000000E+000
  0.000000000000000E+000
  0.000000000000000E+000
  0.000000000000000E+000
  0.000000000000000E+000
  0.000000000000000E+000
  0.000000000000000E+000
  0.000000000000000E+000
  0.000000000000000E+000
  0.000000000000000E+000
  0.000000000000000E+000
  0.000000000000000E+000
  0.000000000000000E+000
  0.000000000000000E+000
  0.000000000000000E+000
  0.000000000000000E+000
  0.000000000000000E+000
  0.000000000000000E+000
  0.000000000000000E+000
  0.000000000000000E+000
  0.000000000000000E+000
  0.000000000000000E+000
  0.000000000000000E+000
  0.000000000000000E+000
  0.000000000000000E+000
  0.000000000000000E+000
  0.000000000000000E+000
  0.000000000000000E+000
  0.000000000000000E+000
  0.000000000000000E+000
  0.000000000000000E+000
  0.000000000000000E+000
  0.000000000000000E+000
  0.000000000000000E+000
  0.000000000000000E+000
  0.000000000000000E+000
  0.000000000000000E+000
  0.000000000000000E+000
  0.000000000000000E+000
  0.000000000000000E+000
  0.000000000000000E+000
  0.000000000000000E+000
  0.000000000000000E+000
  0.000000000000000E+000
  0.000000000000000E+000
  0.000000000000000E+000
  0.000000000000000E+000
  0.000000000000000E+000
  0.000000000000000E+000
  0.000000000000000E+000
  0.000000000000000E+000
  0.000000000000000E+000
  0.000000000000000E+000
  0.000000000000000E+000
  0.000000000000000E+000
  0.000000000000000E+000
  0.000000000000000E+000
  0.000000000000000E+000
  0.000000000000000E+000
  0.000000000000000E+000
  0.000000000000000E+000
  0.000000000000000E+000
  0.000000000000000E+000
  0.000000000000000E+000
  0.000000000000000E+000
  0.000000000000000E+000
  0.000000000000000E+000
  0.000000000000000E+000
  0.000000000000000E+000
  0.000000000000000E+000
  0.000000000000000E+000
  0.000000000000000E+000
  0.000000000000000E+000
  0.000000000000000E+000
  0.000000000000000E+000
  0.000000000000000E+000
  0.000000000000000E+000
  0.000000000000000E+000
  0.000000000000000E+000
  0.000000000000000E+000
  0.000000000000000E+000
  0.000000000000000E+000
  0.000000000000000E+000
  0.000000000000000E+000
  0.000000000000000E+000
  0.000000000000000E+000
  0.000000000000000E+000
  0.000000000000000E+000
  0.000000000000000E+000
  0.000000000000000E+000
  0.000000000000000E+000
  0.000000000000000E+000
  0.000000000000000E+000
  0.000000000000000E+000
  0.000000000000000E+000
  0.000000000000000E+000
  0.000000000000000E+000
  0.000000000000000E+000
  0.000000000000000E+000
  0.000000000000000E+000
  0.000000000000000E+000
  0.000000000000000E+000
  0.000000000000000E+000
  0.000000000000000E+000
  0.000000000000000E+000
  0.000000000000000E+000
  0.000000000000000E+000
  0.000000000000000E+000
  0.000000000000000E+000
  0.000000000000000E+000
  0.000000000000000E+000
  0.000000000000000E+000
  0.000000000000000E+000
  0.000000000000000E+000
  0.000000000000000E+000
  0.000000000000000E+000
  0.000000000000000E+000
  0.000000000000000E+000
  0.000000000000000E+000
  0.000000000000000E+000
  0.000000000000000E+000
  0.000000000000000E+000
  0.000000000000000E+000
  0.000000000000000E+000
  0.000000000000000E+000
  0.000000000000000E+000
  0.000000000000000E+000
  0.000000000000000E+000
  0.000000000000000E+000
  0.000000000000000E+000
  0.000000000000000E+000
  0.000000000000000E+000
  0.000000000000000E+000
  0.000000000000000E+000
  0.000000000000000E+000
  0.000000000000000E+000
  0.000000000000000E+000
  0.000000000000000E+000
  0.000000000000000E+000
  0.000000000000000E+000
  0.000000000000000E+000
  0.000000000000000E+000
  0.000000000000000E+000
  0.000000000000000E+000
  0.000000000000000E+000
  0.000000000000000E+000
  0.000000000000000E+000
  0.000000000000000E+000
  0.000000000000000E+000
  0.000000000000000E+000
  0.000000000000000E+000
  0.000000000000000E+000
  0.000000000000000E+000
  0.000000000000000E+000
  0.000000000000000E+000
  0.000000000000000E+000
  0.000000000000000E+000
  0.000000000000000E+000
  0.000000000000000E+000
  0.000000000000000E+000
  0.000000000000000E+000
  0.000000000000000E+000
  0.000000000000000E+000
  0.000000000000000E+000
  0.000000000000000E+000
  0.000000000000000E+000
  0.000000000000000E+000
  0.000000000000000E+000
  0.000000000000000E+000
  0.000000000000000E+000
  0.000000000000000E+000
  0.000000000000000E+000
  0.000000000000000E+000
  0.000000000000000E+000
  0.000000000000000E+000
  0.000000000000000E+000
  0.000000000000000E+000
  0.000000000000000E+000
  0.000000000000000E+000
  0.000000000000000E+000
  0.000000000000000E+000
  0.000000000000000E+000
  0.000000000000000E+000
  0.000000000000000E+000
  0.000000000000000E+000
  0.000000000000000E+000
  0.000000000000000E+000
  0.000000000000000E+000
  0.000000000000000E+000
  0.000000000000000E+000
  0.000000000000000E+000
  0.000000000000000E+000
  0.000000000000000E+000
  0.000000000000000E+000
  0.000000000000000E+000
  0.000000000000000E+000
  0.000000000000000E+000
  0.000000000000000E+000
  0.000000000000000E+000
  0.000000000000000E+000
  0.000000000000000E+000
  0.000000000000000E+000
  0.000000000000000E+000
  0.000000000000000E+000
  0.000000000000000E+000
  0.000000000000000E+000
  0.000000000000000E+000
  0.000000000000000E+000
  0.000000000000000E+000
  0.000000000000000E+000
  0.000000000000000E+000
  0.000000000000000E+000
  0.000000000000000E+000
  0.000000000000000E+000
  0.000000000000000E+000
  0.000000000000000E+000
  0.000000000000000E+000
  0.000000000000000E+000
  0.000000000000000E+000
  0.000000000000000E+000
  0.000000000000000E+000
  0.000000000000000E+000
  0.000000000000000E+000
  0.000000000000000E+000
  0.000000000000000E+000
  0.000000000000000E+000
  0.000000000000000E+000
  0.000000000000000E+000
  0.000000000000000E+000
  0.000000000000000E+000
  0.000000000000000E+000
  0.000000000000000E+000
  0.000000000000000E+000
  0.000000000000000E+000
  0.000000000000000E+000
  0.000000000000000E+000
  0.000000000000000E+000
  0.000000000000000E+000
  0.000000000000000E+000
  0.000000000000000E+000
  0.000000000000000E+000
  0.000000000000000E+000
  0.000000000000000E+000
  0.000000000000000E+000
  0.000000000000000E+000
  0.000000000000000E+000
  0.000000000000000E+000
  0.000000000000000E+000
  0.000000000000000E+000
  0.000000000000000E+000
  0.000000000000000E+000
  0.000000000000000E+000
  0.000000000000000E+000
  0.000000000000000E+000
  0.000000000000000E+000
  0.000000000000000E+000
  0.000000000000000E+000
  0.000000000000000E+000
  0.000000000000000E+000
  0.000000000000000E+000
  0.000000000000000E+000
  0.000000000000000E+000
  0.000000000000000E+000
  0.000000000000000E+000
  0.000000000000000E+000
  0.000000000000000E+000
  0.000000000000000E+000
  0.000000000000000E+000
  0.000000000000000E+000
  0.000000000000000E+000
  0.000000000000000E+000
  0.000000000000000E+000
  0.000000000000000E+000
  0.000000000000000E+000
  0.000000000000000E+000
  0.000000000000000E+000
  0.000000000000000E+000
  0.000000000000000E+000
  0.000000000000000E+000
  0.000000000000000E+000
  0.000000000000000E+000
  0.000000000000000E+000
  0.000000000000000E+000
  0.000000000000000E+000
  0.000000000000000E+000
  0.000000000000000E+000
  0.000000000000000E+000
  0.000000000000000E+000
  0.000000000000000E+000
  0.000000000000000E+000
  0.000000000000000E+000
  0.000000000000000E+000
  0.000000000000000E+000
  0.000000000000000E+000
  0.000000000000000E+000
  0.000000000000000E+000
  0.000000000000000E+000
  0.000000000000000E+000
  0.000000000000000E+000
  0.000000000000000E+000
  0.000000000000000E+000
  0.000000000000000E+000
  0.000000000000000E+000
  0.000000000000000E+000
  0.000000000000000E+000
  0.000000000000000E+000
  0.000000000000000E+000
  0.000000000000000E+000
  0.000000000000000E+000
  0.000000000000000E+000
  0.000000000000000E+000
  0.000000000000000E+000
  0.000000000000000E+000
  0.000000000000000E+000
  0.000000000000000E+000
  0.000000000000000E+000
  0.000000000000000E+000
  0.000000000000000E+000
  0.000000000000000E+000
  0.000000000000000E+000
  0.000000000000000E+000
  0.000000000000000E+000
  0.000000000000000E+000
  0.000000000000000E+000
  0.000000000000000E+000
  0.000000000000000E+000
  0.000000000000000E+000
  0.000000000000000E+000
  0.000000000000000E+000
  0.000000000000000E+000
  0.000000000000000E+000
  0.000000000000000E+000
  0.000000000000000E+000
  0.000000000000000E+000
  0.000000000000000E+000
  0.000000000000000E+000
  0.000000000000000E+000
  0.000000000000000E+000
  0.000000000000000E+000
  0.000000000000000E+000
  0.000000000000000E+000
  0.000000000000000E+000
  0.000000000000000E+000
  0.000000000000000E+000
  0.000000000000000E+000
  0.000000000000000E+000
  0.000000000000000E+000
  0.000000000000000E+000
  0.000000000000000E+000
  0.000000000000000E+000
  0.000000000000000E+000
  0.000000000000000E+000
  0.000000000000000E+000
  0.000000000000000E+000
  0.000000000000000E+000
  0.000000000000000E+000
  0.000000000000000E+000
  0.000000000000000E+000
  0.000000000000000E+000
  0.000000000000000E+000
  0.000000000000000E+000
  0.000000000000000E+000
  0.000000000000000E+000
  0.000000000000000E+000
  0.000000000000000E+000
  0.000000000000000E+000
  0.000000000000000E+000
  0.000000000000000E+000
  0.000000000000000E+000
  0.000000000000000E+000
  0.000000000000000E+000
  0.000000000000000E+000
  0.000000000000000E+000
  0.000000000000000E+000
  0.000000000000000E+000
  0.000000000000000E+000
  0.000000000000000E+000
  0.000000000000000E+000
  0.000000000000000E+000
  0.000000000000000E+000
  0.000000000000000E+000
  0.000000000000000E+000
  0.000000000000000E+000
  0.000000000000000E+000
  0.000000000000000E+000
  0.000000000000000E+000
  0.000000000000000E+000
  0.000000000000000E+000
  0.000000000000000E+000
  0.000000000000000E+000
  0.000000000000000E+000
  0.000000000000000E+000
  0.000000000000000E+000
  0.000000000000000E+000
  0.000000000000000E+000
  0.000000000000000E+000
  0.000000000000000E+000
  0.000000000000000E+000
  0.000000000000000E+000
  0.000000000000000E+000
  0.000000000000000E+000
  0.000000000000000E+000
  0.000000000000000E+000
  0.000000000000000E+000
  0.000000000000000E+000
  0.000000000000000E+000
  0.000000000000000E+000
  0.000000000000000E+000
  0.000000000000000E+000
  0.000000000000000E+000
  0.000000000000000E+000
  0.000000000000000E+000
  0.000000000000000E+000
  0.000000000000000E+000
  0.000000000000000E+000
  0.000000000000000E+000
  0.000000000000000E+000
  0.000000000000000E+000
  0.000000000000000E+000
  0.000000000000000E+000
  0.000000000000000E+000
  0.000000000000000E+000
  0.000000000000000E+000
  0.000000000000000E+000
  0.000000000000000E+000
  0.000000000000000E+000
  0.000000000000000E+000
  0.000000000000000E+000
  0.000000000000000E+000
  0.000000000000000E+000
  0.000000000000000E+000
  0.000000000000000E+000
  0.000000000000000E+000
  0.000000000000000E+000
  0.000000000000000E+000
  0.000000000000000E+000
  0.000000000000000E+000
  0.000000000000000E+000
  0.000000000000000E+000
  0.000000000000000E+000
  0.000000000000000E+000
  0.000000000000000E+000
  0.000000000000000E+000
  0.000000000000000E+000
  0.000000000000000E+000
  0.000000000000000E+000
  0.000000000000000E+000
  0.000000000000000E+000
  0.000000000000000E+000
  0.000000000000000E+000
  0.000000000000000E+000
  0.000000000000000E+000
  0.000000000000000E+000
  0.000000000000000E+000
  0.000000000000000E+000
  0.000000000000000E+000
  0.000000000000000E+000
  0.000000000000000E+000
  0.000000000000000E+000
  0.000000000000000E+000
  0.000000000000000E+000
  0.000000000000000E+000
  0.000000000000000E+000
  0.000000000000000E+000
  0.000000000000000E+000
  0.000000000000000E+000
  0.000000000000000E+000
  0.000000000000000E+000
  0.000000000000000E+000
  0.000000000000000E+000
  0.000000000000000E+000
  0.000000000000000E+000
  0.000000000000000E+000
  0.000000000000000E+000
  0.000000000000000E+000
  0.000000000000000E+000
  0.000000000000000E+000
  0.000000000000000E+000
  0.000000000000000E+000
  0.000000000000000E+000
  0.000000000000000E+000
  0.000000000000000E+000
  0.000000000000000E+000
  0.000000000000000E+000
  0.000000000000000E+000
  0.000000000000000E+000
  0.000000000000000E+000
  0.000000000000000E+000
  0.000000000000000E+000
  0.000000000000000E+000
  0.000000000000000E+000
  0.000000000000000E+000
  0.000000000000000E+000
  0.000000000000000E+000
  0.000000000000000E+000
  0.000000000000000E+000
  0.000000000000000E+000
  0.000000000000000E+000
  0.000000000000000E+000
  0.000000000000000E+000
  0.000000000000000E+000
  0.000000000000000E+000
  0.000000000000000E+000
  0.000000000000000E+000
  0.000000000000000E+000
  0.000000000000000E+000
  0.000000000000000E+000
  0.000000000000000E+000
  0.000000000000000E+000
  0.000000000000000E+000
  0.000000000000000E+000
  0.000000000000000E+000
  0.000000000000000E+000
  0.000000000000000E+000
  0.000000000000000E+000
  0.000000000000000E+000
  0.000000000000000E+000
  0.000000000000000E+000
  0.000000000000000E+000
  0.000000000000000E+000
  0.000000000000000E+000
  0.000000000000000E+000
  0.000000000000000E+000
  0.000000000000000E+000
  0.000000000000000E+000
  0.000000000000000E+000
  0.000000000000000E+000
  0.000000000000000E+000
  0.000000000000000E+000
  0.000000000000000E+000
  0.000000000000000E+000
  0.000000000000000E+000
  0.000000000000000E+000
  0.000000000000000E+000
  0.000000000000000E+000
  0.000000000000000E+000
  0.000000000000000E+000
  0.000000000000000E+000
  0.000000000000000E+000
  0.000000000000000E+000
  0.000000000000000E+000
  0.000000000000000E+000
  0.000000000000000E+000
  0.000000000000000E+000
  0.000000000000000E+000
  0.000000000000000E+000
  0.000000000000000E+000
  0.000000000000000E+000
  0.000000000000000E+000
  0.000000000000000E+000
  0.000000000000000E+000
  0.000000000000000E+000
  0.000000000000000E+000
  0.000000000000000E+000
  0.000000000000000E+000
  0.000000000000000E+000
  0.000000000000000E+000
  0.000000000000000E+000
  0.000000000000000E+000
  0.000000000000000E+000
  0.000000000000000E+000
  0.000000000000000E+000
  0.000000000000000E+000
  0.000000000000000E+000
  0.000000000000000E+000
  0.000000000000000E+000
  0.000000000000000E+000
  0.000000000000000E+000
  0.000000000000000E+000
  0.000000000000000E+000
  0.000000000000000E+000
  0.000000000000000E+000
  0.000000000000000E+000
  0.000000000000000E+000
  0.000000000000000E+000
  0.000000000000000E+000
  0.000000000000000E+000
  0.000000000000000E+000
  0.000000000000000E+000
  0.000000000000000E+000
  0.000000000000000E+000
  0.000000000000000E+000
  0.000000000000000E+000
  0.000000000000000E+000
  0.000000000000000E+000
  0.000000000000000E+000
  0.000000000000000E+000
  0.000000000000000E+000
  0.000000000000000E+000
  0.000000000000000E+000
  0.000000000000000E+000
  0.000000000000000E+000
  0.000000000000000E+000
  0.000000000000000E+000
  0.000000000000000E+000
  0.000000000000000E+000
  0.000000000000000E+000
  0.000000000000000E+000
  0.000000000000000E+000
  0.000000000000000E+000
  0.000000000000000E+000
  0.000000000000000E+000
  0.000000000000000E+000
  0.000000000000000E+000
  0.000000000000000E+000
  0.000000000000000E+000
  0.000000000000000E+000
  0.000000000000000E+000
  0.000000000000000E+000
  0.000000000000000E+000
  0.000000000000000E+000
  0.000000000000000E+000
  0.000000000000000E+000
  0.000000000000000E+000
  0.000000000000000E+000
  0.000000000000000E+000
  0.000000000000000E+000
  0.000000000000000E+000
  0.000000000000000E+000
  0.000000000000000E+000
  0.000000000000000E+000
  0.000000000000000E+000
  0.000000000000000E+000
  0.000000000000000E+000
  0.000000000000000E+000
  0.000000000000000E+000
  0.000000000000000E+000
  0.000000000000000E+000
  0.000000000000000E+000
  0.000000000000000E+000
  0.000000000000000E+000
  0.000000000000000E+000
  0.000000000000000E+000
  0.000000000000000E+000
  0.000000000000000E+000
  0.000000000000000E+000
  0.000000000000000E+000
  0.000000000000000E+000
  0.000000000000000E+000
  0.000000000000000E+000
  0.000000000000000E+000
  0.000000000000000E+000
  0.000000000000000E+000
  0.000000000000000E+000
  0.000000000000000E+000
  0.000000000000000E+000
  0.000000000000000E+000
  0.000000000000000E+000
  0.000000000000000E+000
  0.000000000000000E+000
  0.000000000000000E+000
  0.000000000000000E+000
  0.000000000000000E+000
  0.000000000000000E+000
  0.000000000000000E+000
  0.000000000000000E+000
  0.000000000000000E+000
  0.000000000000000E+000
  0.000000000000000E+000
  0.000000000000000E+000
  0.000000000000000E+000
  0.000000000000000E+000
  0.000000000000000E+000
  0.000000000000000E+000
  0.000000000000000E+000
  0.000000000000000E+000
  0.000000000000000E+000
  0.000000000000000E+000
  0.000000000000000E+000
  0.000000000000000E+000
  0.000000000000000E+000
  0.000000000000000E+000
  0.000000000000000E+000
  0.000000000000000E+000
  0.000000000000000E+000
  0.000000000000000E+000
  0.000000000000000E+000
  0.000000000000000E+000
  0.000000000000000E+000
  0.000000000000000E+000
  0.000000000000000E+000
  0.000000000000000E+000
  0.000000000000000E+000
  0.000000000000000E+000
  0.000000000000000E+000
  0.000000000000000E+000
  0.000000000000000E+000
  0.000000000000000E+000
  0.000000000000000E+000
  0.000000000000000E+000
  0.000000000000000E+000
  0.000000000000000E+000
  0.000000000000000E+000
  0.000000000000000E+000
  0.000000000000000E+000
  0.000000000000000E+000
  0.000000000000000E+000
  0.000000000000000E+000
  0.000000000000000E+000
  0.000000000000000E+000
  0.000000000000000E+000
  0.000000000000000E+000
  0.000000000000000E+000
  0.000000000000000E+000
  0.000000000000000E+000
  0.000000000000000E+000
  0.000000000000000E+000
  0.000000000000000E+000
  0.000000000000000E+000
  0.000000000000000E+000
  0.000000000000000E+000
  0.000000000000000E+000
  0.000000000000000E+000
  0.000000000000000E+000
  0.000000000000000E+000
  0.000000000000000E+000
  0.000000000000000E+000
  0.000000000000000E+000
  0.000000000000000E+000
  0.000000000000000E+000
  0.000000000000000E+000
  0.000000000000000E+000
  0.000000000000000E+000
  0.000000000000000E+000
  0.000000000000000E+000
  0.000000000000000E+000
  0.000000000000000E+000
  0.000000000000000E+000
  0.000000000000000E+000
  0.000000000000000E+000
  0.000000000000000E+000
  0.000000000000000E+000
  0.000000000000000E+000
  0.000000000000000E+000
  0.000000000000000E+000
  0.000000000000000E+000
  0.000000000000000E+000
  0.000000000000000E+000
  0.000000000000000E+000
  0.000000000000000E+000
  0.000000000000000E+000
  0.000000000000000E+000
  0.000000000000000E+000
  0.000000000000000E+000
  0.000000000000000E+000
  0.000000000000000E+000
  0.000000000000000E+000
  0.000000000000000E+000
  0.000000000000000E+000
  0.000000000000000E+000
  0.000000000000000E+000
  0.000000000000000E+000
  0.000000000000000E+000
  0.000000000000000E+000
  0.000000000000000E+000
  0.000000000000000E+000
  0.000000000000000E+000
  0.000000000000000E+000
  0.000000000000000E+000
  0.000000000000000E+000
  0.000000000000000E+000
  0.000000000000000E+000
  0.000000000000000E+000
  0.000000000000000E+000
  0.000000000000000E+000
  0.000000000000000E+000
  0.000000000000000E+000
  0.000000000000000E+000
  0.000000000000000E+000
  0.000000000000000E+000
  0.000000000000000E+000
  0.000000000000000E+000
  0.000000000000000E+000
  0.000000000000000E+000
  0.000000000000000E+000
  0.000000000000000E+000
  0.000000000000000E+000
  0.000000000000000E+000
  0.000000000000000E+000
  0.000000000000000E+000
  0.000000000000000E+000
  0.000000000000000E+000
  0.000000000000000E+000
  0.000000000000000E+000
  0.000000000000000E+000
  0.000000000000000E+000
  0.000000000000000E+000
  0.000000000000000E+000
  0.000000000000000E+000
  0.000000000000000E+000
  0.000000000000000E+000
  0.000000000000000E+000
  0.000000000000000E+000
  0.000000000000000E+000
  0.000000000000000E+000
  0.000000000000000E+000
  0.000000000000000E+000
  0.000000000000000E+000
  0.000000000000000E+000
  0.000000000000000E+000
  0.000000000000000E+000
  0.000000000000000E+000
  0.000000000000000E+000
  0.000000000000000E+000
  0.000000000000000E+000
  0.000000000000000E+000
  0.000000000000000E+000
  0.000000000000000E+000
  0.000000000000000E+000
  0.000000000000000E+000
  0.000000000000000E+000
  0.000000000000000E+000
  0.000000000000000E+000
  0.000000000000000E+000
  0.000000000000000E+000
  0.000000000000000E+000
  0.000000000000000E+000
  0.000000000000000E+000
  0.000000000000000E+000
  0.000000000000000E+000
  0.000000000000000E+000
  0.000000000000000E+000
  0.000000000000000E+000
  0.000000000000000E+000
  0.000000000000000E+000
  0.000000000000000E+000
  0.000000000000000E+000
  0.000000000000000E+000
  0.000000000000000E+000
  0.000000000000000E+000
  0.000000000000000E+000
  0.000000000000000E+000
  0.000000000000000E+000
  0.000000000000000E+000
  0.000000000000000E+000
  0.000000000000000E+000
  0.000000000000000E+000
  0.000000000000000E+000
  0.000000000000000E+000
  0.000000000000000E+000
  0.000000000000000E+000
  0.000000000000000E+000
  0.000000000000000E+000
  0.000000000000000E+000
  0.000000000000000E+000
  0.000000000000000E+000
  0.000000000000000E+000
  0.000000000000000E+000
  0.000000000000000E+000
  0.000000000000000E+000
  0.000000000000000E+000
  0.000000000000000E+000
  0.000000000000000E+000
  0.000000000000000E+000
  0.000000000000000E+000
  0.000000000000000E+000
  0.000000000000000E+000
  0.000000000000000E+000
  0.000000000000000E+000
  0.000000000000000E+000
  0.000000000000000E+000
  0.000000000000000E+000
  0.000000000000000E+000
  0.000000000000000E+000
  0.000000000000000E+000
  0.000000000000000E+000
  0.000000000000000E+000
  0.000000000000000E+000
  0.000000000000000E+000
  0.000000000000000E+000
  0.000000000000000E+000
  0.000000000000000E+000
  0.000000000000000E+000
  0.000000000000000E+000
  0.000000000000000E+000
  0.000000000000000E+000
  0.000000000000000E+000
  0.000000000000000E+000
  0.000000000000000E+000
  0.000000000000000E+000
  0.000000000000000E+000
  0.000000000000000E+000
  0.000000000000000E+000
  0.000000000000000E+000
  0.000000000000000E+000
  0.000000000000000E+000
  0.000000000000000E+000
  0.000000000000000E+000
  0.000000000000000E+000
  0.000000000000000E+000
  0.000000000000000E+000
  0.000000000000000E+000
  0.000000000000000E+000
  0.000000000000000E+000
  0.000000000000000E+000
  0.000000000000000E+000
  0.000000000000000E+000
  0.000000000000000E+000
  0.000000000000000E+000
  0.000000000000000E+000
  0.000000000000000E+000
  0.000000000000000E+000
  0.000000000000000E+000
  0.000000000000000E+000
  0.000000000000000E+000
  0.000000000000000E+000
  0.000000000000000E+000
  0.000000000000000E+000
  0.000000000000000E+000
  0.000000000000000E+000
  0.000000000000000E+000
  0.000000000000000E+000
  0.000000000000000E+000
  0.000000000000000E+000
  0.000000000000000E+000
  0.000000000000000E+000
  0.000000000000000E+000
  0.000000000000000E+000
  0.000000000000000E+000
  0.000000000000000E+000
  0.000000000000000E+000
  0.000000000000000E+000
  0.000000000000000E+000
  0.000000000000000E+000
  0.000000000000000E+000
  0.000000000000000E+000
  0.000000000000000E+000
  0.000000000000000E+000
  0.000000000000000E+000
  0.000000000000000E+000
  0.000000000000000E+000
  0.000000000000000E+000
  0.000000000000000E+000
  0.000000000000000E+000
  0.000000000000000E+000
  0.000000000000000E+000
  0.000000000000000E+000
  0.000000000000000E+000
  0.000000000000000E+000
  0.000000000000000E+000
  0.000000000000000E+000
  0.000000000000000E+000
  0.000000000000000E+000
  0.000000000000000E+000
  0.000000000000000E+000
  0.000000000000000E+000
  0.000000000000000E+000
  0.000000000000000E+000
  0.000000000000000E+000
  0.000000000000000E+000
  0.000000000000000E+000
  0.000000000000000E+000
  0.000000000000000E+000
  0.000000000000000E+000
  0.000000000000000E+000
  0.000000000000000E+000
  0.000000000000000E+000
  0.000000000000000E+000
  0.000000000000000E+000
  0.000000000000000E+000
  0.000000000000000E+000
  0.000000000000000E+000
  0.000000000000000E+000
  0.000000000000000E+000
  0.000000000000000E+000
  0.000000000000000E+000
  0.000000000000000E+000
  0.000000000000000E+000
  0.000000000000000E+000
  0.000000000000000E+000
  0.000000000000000E+000
  0.000000000000000E+000
  0.000000000000000E+000
  0.000000000000000E+000
  0.000000000000000E+000
  0.000000000000000E+000
  0.000000000000000E+000
  0.000000000000000E+000
  0.000000000000000E+000
  0.000000000000000E+000
  0.000000000000000E+000
  0.000000000000000E+000
  0.000000000000000E+000
  0.000000000000000E+000
  0.000000000000000E+000
  0.000000000000000E+000
  0.000000000000000E+000
  0.000000000000000E+000
  0.000000000000000E+000
  0.000000000000000E+000
  0.000000000000000E+000
  0.000000000000000E+000
  0.000000000000000E+000
  0.000000000000000E+000
  0.000000000000000E+000
  0.000000000000000E+000
  0.000000000000000E+000
  0.000000000000000E+000
  0.000000000000000E+000
  0.000000000000000E+000
  0.000000000000000E+000
  0.000000000000000E+000
  0.000000000000000E+000
  0.000000000000000E+000
  0.000000000000000E+000
  0.000000000000000E+000
  0.000000000000000E+000
  0.000000000000000E+000
  0.000000000000000E+000
  0.000000000000000E+000
  0.000000000000000E+000
  0.000000000000000E+000
  0.000000000000000E+000
  0.000000000000000E+000
  0.000000000000000E+000
  0.000000000000000E+000
  0.000000000000000E+000
  0.000000000000000E+000
  0.000000000000000E+000
  0.000000000000000E+000
  0.000000000000000E+000
  0.000000000000000E+000
  0.000000000000000E+000
  0.000000000000000E+000
  0.000000000000000E+000
  0.000000000000000E+000
  0.000000000000000E+000
  0.000000000000000E+000
  0.000000000000000E+000
  0.000000000000000E+000
  0.000000000000000E+000
  0.000000000000000E+000
  0.000000000000000E+000
  0.000000000000000E+000
  0.000000000000000E+000
  0.000000000000000E+000
  0.000000000000000E+000
  0.000000000000000E+000
  0.000000000000000E+000
  0.000000000000000E+000
  0.000000000000000E+000
  0.000000000000000E+000
  0.000000000000000E+000
  0.000000000000000E+000
  0.000000000000000E+000
  0.000000000000000E+000
  0.000000000000000E+000
  0.000000000000000E+000
  0.000000000000000E+000
  0.000000000000000E+000
  0.000000000000000E+000
  0.000000000000000E+000
  0.000000000000000E+000
  0.000000000000000E+000
  0.000000000000000E+000
  0.000000000000000E+000
  0.000000000000000E+000
  0.000000000000000E+000
  0.000000000000000E+000
  0.000000000000000E+000
  0.000000000000000E+000
  0.000000000000000E+000
  0.000000000000000E+000
  0.000000000000000E+000
  0.000000000000000E+000
  0.000000000000000E+000
  0.000000000000000E+000
  0.000000000000000E+000
  0.000000000000000E+000
  0.000000000000000E+000
  0.000000000000000E+000
  0.000000000000000E+000
  0.000000000000000E+000
  0.000000000000000E+000
  0.000000000000000E+000
  0.000000000000000E+000
  0.000000000000000E+000
  0.000000000000000E+000
  0.000000000000000E+000
  0.000000000000000E+000
  0.000000000000000E+000
  0.000000000000000E+000
  0.000000000000000E+000
  0.000000000000000E+000
  0.000000000000000E+000
  0.000000000000000E+000
  0.000000000000000E+000
  0.000000000000000E+000
  0.000000000000000E+000
  0.000000000000000E+000
  0.000000000000000E+000
  0.000000000000000E+000
  0.000000000000000E+000
  0.000000000000000E+000
  0.000000000000000E+000
  0.000000000000000E+000
  0.000000000000000E+000
  0.000000000000000E+000
  0.000000000000000E+000
  0.000000000000000E+000
  0.000000000000000E+000
  0.000000000000000E+000
  0.000000000000000E+000
  0.000000000000000E+000
  0.000000000000000E+000
  0.000000000000000E+000
  0.000000000000000E+000
  0.000000000000000E+000
  0.000000000000000E+000
  0.000000000000000E+000
  0.000000000000000E+000
  0.000000000000000E+000
  0.000000000000000E+000
  0.000000000000000E+000
  0.000000000000000E+000
  0.000000000000000E+000
  0.000000000000000E+000
  0.000000000000000E+000
  0.000000000000000E+000
  0.000000000000000E+000
  0.000000000000000E+000
  0.000000000000000E+000
  0.000000000000000E+000
  0.000000000000000E+000
  0.000000000000000E+000
  0.000000000000000E+000
  0.000000000000000E+000
  0.000000000000000E+000
  0.000000000000000E+000
  0.000000000000000E+000
  0.000000000000000E+000
  0.000000000000000E+000
  0.000000000000000E+000
  0.000000000000000E+000
  0.000000000000000E+000
  0.000000000000000E+000
  0.000000000000000E+000
  0.000000000000000E+000
  0.000000000000000E+000
  0.000000000000000E+000
  0.000000000000000E+000
  0.000000000000000E+000
  0.000000000000000E+000
  0.000000000000000E+000
  0.000000000000000E+000
  0.000000000000000E+000
  0.000000000000000E+000
  0.000000000000000E+000
  0.000000000000000E+000
  0.000000000000000E+000
  0.000000000000000E+000
  0.000000000000000E+000
  0.000000000000000E+000
  0.000000000000000E+000
  0.000000000000000E+000
  0.000000000000000E+000
  0.000000000000000E+000
  0.000000000000000E+000
  0.000000000000000E+000
  0.000000000000000E+000
  0.000000000000000E+000
  0.000000000000000E+000
  0.000000000000000E+000
  0.000000000000000E+000
  0.000000000000000E+000
  0.000000000000000E+000
  0.000000000000000E+000
  0.000000000000000E+000
  0.000000000000000E+000
  0.000000000000000E+000
  0.000000000000000E+000
  0.000000000000000E+000
  0.000000000000000E+000
  0.000000000000000E+000
  0.000000000000000E+000
  0.000000000000000E+000
  0.000000000000000E+000
  0.000000000000000E+000
  0.000000000000000E+000
  0.000000000000000E+000
  0.000000000000000E+000
  0.000000000000000E+000
  0.000000000000000E+000
  0.000000000000000E+000
  0.000000000000000E+000
  0.000000000000000E+000
  0.000000000000000E+000
  0.000000000000000E+000
  0.000000000000000E+000
  0.000000000000000E+000
  0.000000000000000E+000
  0.000000000000000E+000
  0.000000000000000E+000
  0.000000000000000E+000
  0.000000000000000E+000
  0.000000000000000E+000
  0.000000000000000E+000
  0.000000000000000E+000
  0.000000000000000E+000
  0.000000000000000E+000
  0.000000000000000E+000
  0.000000000000000E+000
  0.000000000000000E+000
  0.000000000000000E+000
  0.000000000000000E+000
  0.000000000000000E+000
  0.000000000000000E+000
  0.000000000000000E+000
  0.000000000000000E+000
  0.000000000000000E+000
  0.000000000000000E+000
  0.000000000000000E+000
  0.000000000000000E+000
  0.000000000000000E+000
  0.000000000000000E+000
  0.000000000000000E+000
  0.000000000000000E+000
  0.000000000000000E+000
  0.000000000000000E+000
  0.000000000000000E+000
  0.000000000000000E+000
  0.000000000000000E+000
  0.000000000000000E+000
  0.000000000000000E+000
  0.000000000000000E+000
  0.000000000000000E+000
  0.000000000000000E+000
  0.000000000000000E+000
  0.000000000000000E+000
  0.000000000000000E+000
  0.000000000000000E+000
  0.000000000000000E+000
  0.000000000000000E+000
  0.000000000000000E+000
  0.000000000000000E+000
  0.000000000000000E+000
  0.000000000000000E+000
  0.000000000000000E+000
  0.000000000000000E+000
  0.000000000000000E+000
  0.000000000000000E+000
  0.000000000000000E+000
  0.000000000000000E+000
  0.000000000000000E+000
  0.000000000000000E+000
  0.000000000000000E+000
  0.000000000000000E+000
  0.000000000000000E+000
  0.000000000000000E+000
  0.000000000000000E+000
  0.000000000000000E+000
  0.000000000000000E+000
  0.000000000000000E+000
  0.000000000000000E+000
  0.000000000000000E+000
  0.000000000000000E+000
  0.000000000000000E+000
  0.000000000000000E+000
  0.000000000000000E+000
  0.000000000000000E+000
  0.000000000000000E+000
  0.000000000000000E+000
  0.000000000000000E+000
  0.000000000000000E+000
  0.000000000000000E+000
  0.000000000000000E+000
  0.000000000000000E+000
  0.000000000000000E+000
  0.000000000000000E+000
  0.000000000000000E+000
  0.000000000000000E+000
  0.000000000000000E+000
  0.000000000000000E+000
  0.000000000000000E+000
  0.000000000000000E+000
  0.000000000000000E+000
  0.000000000000000E+000
  0.000000000000000E+000
  0.000000000000000E+000
  0.000000000000000E+000
  0.000000000000000E+000
  0.000000000000000E+000
  0.000000000000000E+000
  0.000000000000000E+000
  0.000000000000000E+000
  0.000000000000000E+000
  0.000000000000000E+000
  0.000000000000000E+000
  0.000000000000000E+000
  0.000000000000000E+000
  0.000000000000000E+000
  0.000000000000000E+000
  0.000000000000000E+000
  0.000000000000000E+000
  0.000000000000000E+000
  0.000000000000000E+000
  0.000000000000000E+000
  0.000000000000000E+000
  0.000000000000000E+000
  0.000000000000000E+000
  0.000000000000000E+000
  0.000000000000000E+000
  0.000000000000000E+000
  0.000000000000000E+000
  0.000000000000000E+000
  0.000000000000000E+000
  0.000000000000000E+000
  0.000000000000000E+000
  0.000000000000000E+000
  0.000000000000000E+000
  0.000000000000000E+000
  0.000000000000000E+000
  0.000000000000000E+000
  0.000000000000000E+000
  0.000000000000000E+000
  0.000000000000000E+000
  0.000000000000000E+000
  0.000000000000000E+000
  0.000000000000000E+000
  0.000000000000000E+000
  0.000000000000000E+000
  0.000000000000000E+000
  0.000000000000000E+000
  0.000000000000000E+000
  0.000000000000000E+000
  0.000000000000000E+000
  0.000000000000000E+000
  0.000000000000000E+000
  0.000000000000000E+000
  0.000000000000000E+000
  0.000000000000000E+000
  0.000000000000000E+000
  0.000000000000000E+000
  0.000000000000000E+000
  0.000000000000000E+000
  0.000000000000000E+000
  0.000000000000000E+000
  0.000000000000000E+000
  0.000000000000000E+000
  0.000000000000000E+000
  0.000000000000000E+000
  0.000000000000000E+000
  0.000000000000000E+000
  0.000000000000000E+000
  0.000000000000000E+000
  0.000000000000000E+000
  0.000000000000000E+000
  0.000000000000000E+000
  0.000000000000000E+000
  0.000000000000000E+000
  0.000000000000000E+000
  0.000000000000000E+000
  0.000000000000000E+000
  0.000000000000000E+000
  0.000000000000000E+000
  0.000000000000000E+000
  0.000000000000000E+000
  0.000000000000000E+000
  0.000000000000000E+000
  0.000000000000000E+000
  0.000000000000000E+000
  0.000000000000000E+000
  0.000000000000000E+000
  0.000000000000000E+000
  0.000000000000000E+000
  0.000000000000000E+000
  0.000000000000000E+000
  0.000000000000000E+000
  0.000000000000000E+000
  0.000000000000000E+000
  0.000000000000000E+000
  0.000000000000000E+000
  0.000000000000000E+000
  0.000000000000000E+000
  0.000000000000000E+000
  0.000000000000000E+000
  0.000000000000000E+000
  0.000000000000000E+000
  0.000000000000000E+000
  0.000000000000000E+000
  0.000000000000000E+000
  0.000000000000000E+000
  0.000000000000000E+000
  0.000000000000000E+000
  0.000000000000000E+000
  0.000000000000000E+000
  0.000000000000000E+000
  0.000000000000000E+000
  0.000000000000000E+000
  0.000000000000000E+000
  0.000000000000000E+000
  0.000000000000000E+000
  0.000000000000000E+000
  0.000000000000000E+000
  0.000000000000000E+000
  0.000000000000000E+000
  0.000000000000000E+000
  0.000000000000000E+000
  0.000000000000000E+000
  0.000000000000000E+000
  0.000000000000000E+000
  0.000000000000000E+000
  0.000000000000000E+000
  0.000000000000000E+000
  0.000000000000000E+000
  0.000000000000000E+000
  0.000000000000000E+000
  0.000000000000000E+000
  0.000000000000000E+000
  0.000000000000000E+000
  0.000000000000000E+000
  0.000000000000000E+000
  0.000000000000000E+000
  0.000000000000000E+000
  0.000000000000000E+000
  0.000000000000000E+000
  0.000000000000000E+000
  0.000000000000000E+000
  0.000000000000000E+000
  0.000000000000000E+000
  0.000000000000000E+000
  0.000000000000000E+000
  0.000000000000000E+000
  0.000000000000000E+000
  0.000000000000000E+000
  0.000000000000000E+000
  0.000000000000000E+000
  0.000000000000000E+000
  0.000000000000000E+000
  0.000000000000000E+000
  0.000000000000000E+000
  0.000000000000000E+000
  0.000000000000000E+000
  0.000000000000000E+000
  0.000000000000000E+000
  0.000000000000000E+000
  0.000000000000000E+000
  0.000000000000000E+000
  0.000000000000000E+000
  0.000000000000000E+000
  0.000000000000000E+000
  0.000000000000000E+000
  0.000000000000000E+000
  0.000000000000000E+000
  0.000000000000000E+000
  0.000000000000000E+000
  0.000000000000000E+000
  0.000000000000000E+000
  0.000000000000000E+000
  0.000000000000000E+000
  0.000000000000000E+000
  0.000000000000000E+000
  0.000000000000000E+000
  0.000000000000000E+000
  0.000000000000000E+000
  0.000000000000000E+000
  0.000000000000000E+000
  0.000000000000000E+000
  0.000000000000000E+000
  0.000000000000000E+000
  0.000000000000000E+000
  0.000000000000000E+000
  0.000000000000000E+000
  0.000000000000000E+000
  0.000000000000000E+000
  0.000000000000000E+000
  0.000000000000000E+000
  0.000000000000000E+000
  0.000000000000000E+000
  0.000000000000000E+000
  0.000000000000000E+000
  0.000000000000000E+000
  0.000000000000000E+000
  0.000000000000000E+000
  0.000000000000000E+000
  0.000000000000000E+000
  0.000000000000000E+000
  0.000000000000000E+000
  0.000000000000000E+000
  0.000000000000000E+000
  0.000000000000000E+000
  0.000000000000000E+000
  0.000000000000000E+000
  0.000000000000000E+000
  0.000000000000000E+000
  0.000000000000000E+000
  0.000000000000000E+000
  0.000000000000000E+000
  0.000000000000000E+000
  0.000000000000000E+000
  0.000000000000000E+000
  0.000000000000000E+000
  0.000000000000000E+000
  0.000000000000000E+000
  0.000000000000000E+000
  0.000000000000000E+000
  0.000000000000000E+000
  0.000000000000000E+000
  0.000000000000000E+000
  0.000000000000000E+000
  0.000000000000000E+000
  0.000000000000000E+000
  0.000000000000000E+000
  0.000000000000000E+000
  0.000000000000000E+000
  0.000000000000000E+000
  0.000000000000000E+000
  0.000000000000000E+000
  0.000000000000000E+000
  0.000000000000000E+000
  0.000000000000000E+000
  0.000000000000000E+000
  0.000000000000000E+000
  0.000000000000000E+000
  0.000000000000000E+000
  0.000000000000000E+000
  0.000000000000000E+000
  0.000000000000000E+000
  0.000000000000000E+000
  0.000000000000000E+000
  0.000000000000000E+000
  0.000000000000000E+000
  0.000000000000000E+000
  0.000000000000000E+000
  0.000000000000000E+000
  0.000000000000000E+000
  0.000000000000000E+000
  0.000000000000000E+000
  0.000000000000000E+000
  0.000000000000000E+000
  0.000000000000000E+000
  0.000000000000000E+000
  0.000000000000000E+000
  0.000000000000000E+000
  0.000000000000000E+000
  0.000000000000000E+000
  0.000000000000000E+000
  0.000000000000000E+000
  0.000000000000000E+000
  0.000000000000000E+000
  0.000000000000000E+000
  0.000000000000000E+000
  0.000000000000000E+000
  0.000000000000000E+000
  0.000000000000000E+000
  0.000000000000000E+000
  0.000000000000000E+000
  0.000000000000000E+000
  0.000000000000000E+000
  0.000000000000000E+000
  0.000000000000000E+000
  0.000000000000000E+000
  0.000000000000000E+000
  0.000000000000000E+000
  0.000000000000000E+000
  0.000000000000000E+000
  0.000000000000000E+000
  0.000000000000000E+000
  0.000000000000000E+000
  0.000000000000000E+000
  0.000000000000000E+000
  0.000000000000000E+000
  0.000000000000000E+000
  0.000000000000000E+000
  0.000000000000000E+000
  0.000000000000000E+000
  0.000000000000000E+000
  0.000000000000000E+000
  0.000000000000000E+000
  0.000000000000000E+000
  0.000000000000000E+000
  0.000000000000000E+000
  0.000000000000000E+000
  0.000000000000000E+000
  0.000000000000000E+000
  0.000000000000000E+000
  0.000000000000000E+000
  0.000000000000000E+000
  0.000000000000000E+000
  0.000000000000000E+000
  0.000000000000000E+000
  0.000000000000000E+000
  0.000000000000000E+000
  0.000000000000000E+000
  0.000000000000000E+000
  0.000000000000000E+000
  0.000000000000000E+000
  0.000000000000000E+000
  0.000000000000000E+000
  0.000000000000000E+000
  0.000000000000000E+000
  0.000000000000000E+000
  0.000000000000000E+000
  0.000000000000000E+000
  0.000000000000000E+000
  0.000000000000000E+000
  0.000000000000000E+000
  0.000000000000000E+000
  0.000000000000000E+000
  0.000000000000000E+000
  0.000000000000000E+000
  0.000000000000000E+000
  0.000000000000000E+000
  0.000000000000000E+000
  0.000000000000000E+000
  0.000000000000000E+000
  0.000000000000000E+000
  0.000000000000000E+000
  0.000000000000000E+000
  0.000000000000000E+000
  0.000000000000000E+000
  0.000000000000000E+000
  0.000000000000000E+000
  0.000000000000000E+000
  0.000000000000000E+000
  0.000000000000000E+000
  0.000000000000000E+000
  0.000000000000000E+000
  0.000000000000000E+000
  0.000000000000000E+000
  0.000000000000000E+000
  0.000000000000000E+000
  0.000000000000000E+000
  0.000000000000000E+000
  0.000000000000000E+000
  0.000000000000000E+000
  0.000000000000000E+000
  0.000000000000000E+000
  0.000000000000000E+000
  0.000000000000000E+000
  0.000000000000000E+000
  0.000000000000000E+000
  0.000000000000000E+000
  0.000000000000000E+000
  0.000000000000000E+000
  0.000000000000000E+000
  0.000000000000000E+000
  0.000000000000000E+000
  0.000000000000000E+000
  0.000000000000000E+000
  0.000000000000000E+000
  0.000000000000000E+000
  0.000000000000000E+000
  0.000000000000000E+000
  0.000000000000000E+000
  0.000000000000000E+000
  0.000000000000000E+000
  0.000000000000000E+000
  0.000000000000000E+000
  0.000000000000000E+000
  0.000000000000000E+000
  0.000000000000000E+000
  0.000000000000000E+000
  0.000000000000000E+000
  0.000000000000000E+000
  0.000000000000000E+000
  0.000000000000000E+000
  0.000000000000000E+000
  0.000000000000000E+000
  0.000000000000000E+000
  0.000000000000000E+000
  0.000000000000000E+000
  0.000000000000000E+000
  0.000000000000000E+000
  0.000000000000000E+000
  0.000000000000000E+000
  0.000000000000000E+000
  0.000000000000000E+000
  0.000000000000000E+000
  0.000000000000000E+000
  0.000000000000000E+000
  0.000000000000000E+000
  0.000000000000000E+000
  0.000000000000000E+000
  0.000000000000000E+000
  0.000000000000000E+000
  0.000000000000000E+000
  0.000000000000000E+000
  0.000000000000000E+000
  0.000000000000000E+000
  0.000000000000000E+000
  0.000000000000000E+000
  0.000000000000000E+000
  0.000000000000000E+000
  0.000000000000000E+000
  0.000000000000000E+000
  0.000000000000000E+000
  0.000000000000000E+000
  0.000000000000000E+000
  0.000000000000000E+000
  0.000000000000000E+000
  0.000000000000000E+000
  0.000000000000000E+000
  0.000000000000000E+000
  0.000000000000000E+000
  0.000000000000000E+000
  0.000000000000000E+000
  0.000000000000000E+000
  0.000000000000000E+000
  0.000000000000000E+000
  0.000000000000000E+000
  0.000000000000000E+000
  0.000000000000000E+000
  0.000000000000000E+000
  0.000000000000000E+000
  0.000000000000000E+000
  0.000000000000000E+000
  0.000000000000000E+000
  0.000000000000000E+000
  0.000000000000000E+000
  0.000000000000000E+000
  0.000000000000000E+000
  0.000000000000000E+000
  0.000000000000000E+000
  0.000000000000000E+000
  0.000000000000000E+000
  0.000000000000000E+000
  0.000000000000000E+000
  0.000000000000000E+000
  0.000000000000000E+000
  0.000000000000000E+000
  0.000000000000000E+000
  0.000000000000000E+000
  0.000000000000000E+000
  0.000000000000000E+000
  0.000000000000000E+000
  0.000000000000000E+000
  0.000000000000000E+000
  0.000000000000000E+000
  0.000000000000000E+000
  0.000000000000000E+000
  0.000000000000000E+000
  0.000000000000000E+000
  0.000000000000000E+000
  0.000000000000000E+000
  0.000000000000000E+000
  0.000000000000000E+000
  0.000000000000000E+000
  0.000000000000000E+000
  0.000000000000000E+000
  0.000000000000000E+000
  0.000000000000000E+000
  0.000000000000000E+000
  0.000000000000000E+000
  0.000000000000000E+000
  0.000000000000000E+000
  0.000000000000000E+000
  0.000000000000000E+000
  0.000000000000000E+000
  0.000000000000000E+000
  0.000000000000000E+000
  0.000000000000000E+000
  0.000000000000000E+000
  0.000000000000000E+000
  0.000000000000000E+000
  0.000000000000000E+000
  0.000000000000000E+000
  0.000000000000000E+000
  0.000000000000000E+000
  0.000000000000000E+000
  0.000000000000000E+000
  0.000000000000000E+000
  0.000000000000000E+000
  0.000000000000000E+000
  0.000000000000000E+000
  0.000000000000000E+000
  0.000000000000000E+000
  0.000000000000000E+000
  0.000000000000000E+000
  0.000000000000000E+000
  0.000000000000000E+000
  0.000000000000000E+000
  0.000000000000000E+000
  0.000000000000000E+000
  0.000000000000000E+000
  0.000000000000000E+000
  0.000000000000000E+000
  0.000000000000000E+000
  0.000000000000000E+000
  0.000000000000000E+000
  0.000000000000000E+000
  0.000000000000000E+000
  0.000000000000000E+000
  0.000000000000000E+000
  0.000000000000000E+000
  0.000000000000000E+000
  0.000000000000000E+000
  0.000000000000000E+000
  0.000000000000000E+000
  0.000000000000000E+000
  0.000000000000000E+000
  0.000000000000000E+000
  0.000000000000000E+000
  0.000000000000000E+000
  0.000000000000000E+000
  0.000000000000000E+000
  0.000000000000000E+000
  0.000000000000000E+000
  0.000000000000000E+000
  0.000000000000000E+000
  0.000000000000000E+000
  0.000000000000000E+000
  0.000000000000000E+000
  0.000000000000000E+000
  0.000000000000000E+000
  0.000000000000000E+000
  0.000000000000000E+000
  0.000000000000000E+000
  0.000000000000000E+000
  0.000000000000000E+000
  0.000000000000000E+000
  0.000000000000000E+000
  0.000000000000000E+000
  0.000000000000000E+000
  0.000000000000000E+000
  0.000000000000000E+000
  0.000000000000000E+000
  0.000000000000000E+000
  0.000000000000000E+000
  0.000000000000000E+000
  0.000000000000000E+000
  0.000000000000000E+000
  0.000000000000000E+000
  0.000000000000000E+000
  0.000000000000000E+000
  0.000000000000000E+000
  0.000000000000000E+000
  0.000000000000000E+000
  0.000000000000000E+000
  0.000000000000000E+000
  0.000000000000000E+000
  0.000000000000000E+000
  0.000000000000000E+000
  0.000000000000000E+000
  0.000000000000000E+000
  0.000000000000000E+000
  0.000000000000000E+000
  0.000000000000000E+000
  0.000000000000000E+000
  0.000000000000000E+000
  0.000000000000000E+000
  0.000000000000000E+000
  0.000000000000000E+000
  0.000000000000000E+000
  0.000000000000000E+000
  0.000000000000000E+000
  0.000000000000000E+000
  0.000000000000000E+000
  0.000000000000000E+000
  0.000000000000000E+000
  0.000000000000000E+000
  0.000000000000000E+000
  0.000000000000000E+000
  0.000000000000000E+000
  0.000000000000000E+000
  0.000000000000000E+000
  0.000000000000000E+000
  0.000000000000000E+000
  0.000000000000000E+000
  0.000000000000000E+000
  0.000000000000000E+000
  0.000000000000000E+000
  0.000000000000000E+000
  0.000000000000000E+000
  0.000000000000000E+000
  0.000000000000000E+000
  0.000000000000000E+000
  0.000000000000000E+000
  0.000000000000000E+000
  0.000000000000000E+000
  0.000000000000000E+000
  0.000000000000000E+000
  0.000000000000000E+000
  0.000000000000000E+000
  0.000000000000000E+000
  0.000000000000000E+000
  0.000000000000000E+000
  0.000000000000000E+000
  0.000000000000000E+000
  0.000000000000000E+000
  0.000000000000000E+000
  0.000000000000000E+000
  0.000000000000000E+000
  0.000000000000000E+000
  0.000000000000000E+000
  0.000000000000000E+000
  0.000000000000000E+000
  0.000000000000000E+000
  0.000000000000000E+000
  0.000000000000000E+000
  0.000000000000000E+000
  0.000000000000000E+000
  0.000000000000000E+000
  0.000000000000000E+000
  0.000000000000000E+000
  0.000000000000000E+000
  0.000000000000000E+000
  0.000000000000000E+000
  0.000000000000000E+000
  0.000000000000000E+000
  0.000000000000000E+000
  0.000000000000000E+000
  0.000000000000000E+000
  0.000000000000000E+000
  0.000000000000000E+000
  0.000000000000000E+000
  0.000000000000000E+000
  0.000000000000000E+000
  0.000000000000000E+000
  0.000000000000000E+000
  0.000000000000000E+000
  0.000000000000000E+000
  0.000000000000000E+000
  0.000000000000000E+000
  0.000000000000000E+000
  0.000000000000000E+000
  0.000000000000000E+000
  0.000000000000000E+000
  0.000000000000000E+000
  0.000000000000000E+000
  0.000000000000000E+000
  0.000000000000000E+000
  0.000000000000000E+000
  0.000000000000000E+000
  0.000000000000000E+000
  0.000000000000000E+000
  0.000000000000000E+000
  0.000000000000000E+000
  0.000000000000000E+000
  0.000000000000000E+000
  0.000000000000000E+000
  0.000000000000000E+000
  0.000000000000000E+000
  0.000000000000000E+000
  0.000000000000000E+000
  0.000000000000000E+000
  0.000000000000000E+000
  0.000000000000000E+000
  0.000000000000000E+000
  0.000000000000000E+000
  0.000000000000000E+000
  0.000000000000000E+000
  0.000000000000000E+000
  0.000000000000000E+000
  0.000000000000000E+000
  0.000000000000000E+000
  0.000000000000000E+000
  0.000000000000000E+000
  0.000000000000000E+000
  0.000000000000000E+000
  0.000000000000000E+000
  0.000000000000000E+000
  0.000000000000000E+000
  0.000000000000000E+000
  0.000000000000000E+000
  0.000000000000000E+000
  0.000000000000000E+000
  0.000000000000000E+000
  0.000000000000000E+000
  0.000000000000000E+000
  0.000000000000000E+000
  0.000000000000000E+000
  0.000000000000000E+000
  0.000000000000000E+000
  0.000000000000000E+000
  0.000000000000000E+000
  0.000000000000000E+000
  0.000000000000000E+000
  0.000000000000000E+000
  0.000000000000000E+000
  0.000000000000000E+000
  0.000000000000000E+000
  0.000000000000000E+000
  0.000000000000000E+000
  0.000000000000000E+000
  0.000000000000000E+000
  0.000000000000000E+000
  0.000000000000000E+000
  0.000000000000000E+000
  0.000000000000000E+000
  0.000000000000000E+000
  0.000000000000000E+000
  0.000000000000000E+000
  0.000000000000000E+000
  0.000000000000000E+000
  0.000000000000000E+000
  0.000000000000000E+000
  0.000000000000000E+000
  0.000000000000000E+000
  0.000000000000000E+000
  0.000000000000000E+000
  0.000000000000000E+000
  0.000000000000000E+000
  0.000000000000000E+000
  0.000000000000000E+000
  0.000000000000000E+000
  0.000000000000000E+000
  0.000000000000000E+000
  0.000000000000000E+000
  0.000000000000000E+000
  0.000000000000000E+000
  0.000000000000000E+000
  0.000000000000000E+000
  0.000000000000000E+000
  0.000000000000000E+000
  0.000000000000000E+000
  0.000000000000000E+000
  0.000000000000000E+000
  0.000000000000000E+000
  0.000000000000000E+000
  0.000000000000000E+000
  0.000000000000000E+000
  0.000000000000000E+000
  0.000000000000000E+000
  0.000000000000000E+000
  0.000000000000000E+000
  0.000000000000000E+000
  0.000000000000000E+000
  0.000000000000000E+000
  0.000000000000000E+000
  0.000000000000000E+000
  0.000000000000000E+000
  0.000000000000000E+000
  0.000000000000000E+000
  0.000000000000000E+000
  0.000000000000000E+000
  0.000000000000000E+000
  0.000000000000000E+000
  0.000000000000000E+000
  0.000000000000000E+000
  0.000000000000000E+000
  0.000000000000000E+000
  0.000000000000000E+000
  0.000000000000000E+000
  0.000000000000000E+000
  0.000000000000000E+000
  0.000000000000000E+000
  0.000000000000000E+000
  0.000000000000000E+000
  0.000000000000000E+000
  0.000000000000000E+000
  0.000000000000000E+000
  0.000000000000000E+000
  0.000000000000000E+000
  0.000000000000000E+000
  0.000000000000000E+000
  0.000000000000000E+000
  0.000000000000000E+000
  0.000000000000000E+000
  0.000000000000000E+000
  0.000000000000000E+000
  0.000000000000000E+000
  0.000000000000000E+000
  0.000000000000000E+000
  0.000000000000000E+000
  0.000000000000000E+000
  0.000000000000000E+000
  0.000000000000000E+000
  0.000000000000000E+000
  0.000000000000000E+000
  0.000000000000000E+000
  0.000000000000000E+000
  0.000000000000000E+000
  0.000000000000000E+000
  0.000000000000000E+000
  0.000000000000000E+000
  0.000000000000000E+000
  0.000000000000000E+000
  0.000000000000000E+000
  0.000000000000000E+000
  0.000000000000000E+000
  0.000000000000000E+000
  0.000000000000000E+000
  0.000000000000000E+000
  0.000000000000000E+000
  0.000000000000000E+000
  0.000000000000000E+000
  0.000000000000000E+000
  0.000000000000000E+000
  0.000000000000000E+000
  0.000000000000000E+000
  0.000000000000000E+000
  0.000000000000000E+000
  0.000000000000000E+000
  0.000000000000000E+000
  0.000000000000000E+000
  0.000000000000000E+000
  0.000000000000000E+000
  0.000000000000000E+000
  0.000000000000000E+000
  0.000000000000000E+000
  0.000000000000000E+000
  0.000000000000000E+000
  0.000000000000000E+000
  0.000000000000000E+000
  0.000000000000000E+000
  0.000000000000000E+000
  0.000000000000000E+000
  0.000000000000000E+000
  0.000000000000000E+000
  0.000000000000000E+000
  0.000000000000000E+000
  0.000000000000000E+000
  0.000000000000000E+000
  0.000000000000000E+000
  0.000000000000000E+000
  0.000000000000000E+000
  0.000000000000000E+000
  0.000000000000000E+000
  0.000000000000000E+000
  0.000000000000000E+000
  0.000000000000000E+000
  0.000000000000000E+000
  0.000000000000000E+000
  0.000000000000000E+000
  0.000000000000000E+000
  0.000000000000000E+000
  0.000000000000000E+000
  0.000000000000000E+000
  0.000000000000000E+000
  0.000000000000000E+000
  0.000000000000000E+000
  0.000000000000000E+000
  0.000000000000000E+000
  0.000000000000000E+000
  0.000000000000000E+000
  0.000000000000000E+000
  0.000000000000000E+000
  0.000000000000000E+000
  0.000000000000000E+000
  0.000000000000000E+000
  0.000000000000000E+000
  0.000000000000000E+000
  0.000000000000000E+000
  0.000000000000000E+000
  0.000000000000000E+000
  0.000000000000000E+000
  0.000000000000000E+000
  0.000000000000000E+000
  0.000000000000000E+000
  0.000000000000000E+000
  0.000000000000000E+000
  0.000000000000000E+000
  0.000000000000000E+000
  0.000000000000000E+000
  0.000000000000000E+000
  0.000000000000000E+000
  0.000000000000000E+000
  0.000000000000000E+000
  0.000000000000000E+000
  0.000000000000000E+000
  0.000000000000000E+000
  0.000000000000000E+000
  0.000000000000000E+000
  0.000000000000000E+000
  0.000000000000000E+000
  0.000000000000000E+000
  0.000000000000000E+000
  0.000000000000000E+000
  0.000000000000000E+000
  0.000000000000000E+000
  0.000000000000000E+000
  0.000000000000000E+000
  0.000000000000000E+000
  0.000000000000000E+000
  0.000000000000000E+000
  0.000000000000000E+000
  0.000000000000000E+000
  0.000000000000000E+000
  0.000000000000000E+000
  0.000000000000000E+000
  0.000000000000000E+000
  0.000000000000000E+000
  0.000000000000000E+000
  0.000000000000000E+000
  0.000000000000000E+000
  0.000000000000000E+000
  0.000000000000000E+000
  0.000000000000000E+000
  0.000000000000000E+000
  0.000000000000000E+000
  0.000000000000000E+000
  0.000000000000000E+000
  0.000000000000000E+000
  0.000000000000000E+000
  0.000000000000000E+000
  0.000000000000000E+000
  0.000000000000000E+000
  0.000000000000000E+000
  0.000000000000000E+000
  0.000000000000000E+000
  0.000000000000000E+000
  0.000000000000000E+000
  0.000000000000000E+000
  0.000000000000000E+000
  0.000000000000000E+000
  0.000000000000000E+000
  0.000000000000000E+000
  0.000000000000000E+000
  0.000000000000000E+000
  0.000000000000000E+000
  0.000000000000000E+000
  0.000000000000000E+000
  0.000000000000000E+000
  0.000000000000000E+000
  0.000000000000000E+000
  0.000000000000000E+000
  0.000000000000000E+000
  0.000000000000000E+000
  0.000000000000000E+000
  0.000000000000000E+000
  0.000000000000000E+000
  0.000000000000000E+000
  0.000000000000000E+000
  0.000000000000000E+000
  0.000000000000000E+000
  0.000000000000000E+000
  0.000000000000000E+000
  0.000000000000000E+000
  0.000000000000000E+000
  0.000000000000000E+000
  0.000000000000000E+000
  0.000000000000000E+000
  0.000000000000000E+000
  0.000000000000000E+000
  0.000000000000000E+000
  0.000000000000000E+000
  0.000000000000000E+000
  0.000000000000000E+000
  0.000000000000000E+000
  0.000000000000000E+000
  0.000000000000000E+000
  0.000000000000000E+000
  0.000000000000000E+000
  0.000000000000000E+000
  0.000000000000000E+000
  0.000000000000000E+000
  0.000000000000000E+000
  0.000000000000000E+000
  0.000000000000000E+000
  0.000000000000000E+000
  0.000000000000000E+000
  0.000000000000000E+000
  0.000000000000000E+000
  0.000000000000000E+000
  0.000000000000000E+000
  0.000000000000000E+000
  0.000000000000000E+000
  0.000000000000000E+000
  0.000000000000000E+000
  0.000000000000000E+000
  0.000000000000000E+000
  0.000000000000000E+000
  0.000000000000000E+000
  0.000000000000000E+000
  0.000000000000000E+000
  0.000000000000000E+000
  0.000000000000000E+000
  0.000000000000000E+000
  0.000000000000000E+000
  0.000000000000000E+000
  0.000000000000000E+000
  0.000000000000000E+000
  0.000000000000000E+000
  0.000000000000000E+000
  0.000000000000000E+000
  0.000000000000000E+000
  0.000000000000000E+000
  0.000000000000000E+000
  0.000000000000000E+000
  0.000000000000000E+000
  0.000000000000000E+000
  0.000000000000000E+000
  0.000000000000000E+000
  0.000000000000000E+000
  0.000000000000000E+000
  0.000000000000000E+000
  0.000000000000000E+000
  0.000000000000000E+000
  0.000000000000000E+000
  0.000000000000000E+000
  0.000000000000000E+000
  0.000000000000000E+000
  0.000000000000000E+000
  0.000000000000000E+000
  0.000000000000000E+000
  0.000000000000000E+000
  0.000000000000000E+000
  0.000000000000000E+000
  0.000000000000000E+000
  0.000000000000000E+000
  0.000000000000000E+000
  0.000000000000000E+000
  0.000000000000000E+000
  0.000000000000000E+000
  0.000000000000000E+000
  0.000000000000000E+000
  0.000000000000000E+000
  0.000000000000000E+000
  0.000000000000000E+000
  0.000000000000000E+000
  0.000000000000000E+000
  0.000000000000000E+000
  0.000000000000000E+000
  0.000000000000000E+000
  0.000000000000000E+000
  0.000000000000000E+000
  0.000000000000000E+000
  0.000000000000000E+000
  0.000000000000000E+000
  0.000000000000000E+000
  0.000000000000000E+000
  0.000000000000000E+000
  0.000000000000000E+000
  0.000000000000000E+000
  0.000000000000000E+000
  0.000000000000000E+000
  0.000000000000000E+000
  0.000000000000000E+000
  0.000000000000000E+000
  0.000000000000000E+000
  0.000000000000000E+000
  0.000000000000000E+000
  0.000000000000000E+000
  0.000000000000000E+000
  0.000000000000000E+000
  0.000000000000000E+000
  0.000000000000000E+000
  0.000000000000000E+000
  0.000000000000000E+000
  0.000000000000000E+000
  0.000000000000000E+000
  0.000000000000000E+000
  0.000000000000000E+000
  0.000000000000000E+000
  0.000000000000000E+000
  0.000000000000000E+000
  0.000000000000000E+000
  0.000000000000000E+000
  0.000000000000000E+000
  0.000000000000000E+000
  0.000000000000000E+000
  0.000000000000000E+000
  0.000000000000000E+000
  0.000000000000000E+000
  0.000000000000000E+000
  0.000000000000000E+000
  0.000000000000000E+000
  0.000000000000000E+000
  0.000000000000000E+000
  0.000000000000000E+000
  0.000000000000000E+000
  0.000000000000000E+000
  0.000000000000000E+000
  0.000000000000000E+000
  0.000000000000000E+000
  0.000000000000000E+000
  0.000000000000000E+000
  0.000000000000000E+000
  0.000000000000000E+000
  0.000000000000000E+000
  0.000000000000000E+000
  0.000000000000000E+000
  0.000000000000000E+000
  0.000000000000000E+000
  0.000000000000000E+000
  0.000000000000000E+000
  0.000000000000000E+000
  0.000000000000000E+000
  0.000000000000000E+000
  0.000000000000000E+000
  0.000000000000000E+000
  0.000000000000000E+000
  0.000000000000000E+000
  0.000000000000000E+000
  0.000000000000000E+000
  0.000000000000000E+000
  0.000000000000000E+000
  0.000000000000000E+000
  0.000000000000000E+000
  0.000000000000000E+000
  0.000000000000000E+000
  0.000000000000000E+000
  0.000000000000000E+000
  0.000000000000000E+000
  0.000000000000000E+000
  0.000000000000000E+000
  0.000000000000000E+000
  0.000000000000000E+000
  0.000000000000000E+000
  0.000000000000000E+000
  0.000000000000000E+000
  0.000000000000000E+000
  0.000000000000000E+000
  0.000000000000000E+000
  0.000000000000000E+000
  0.000000000000000E+000
  0.000000000000000E+000
  0.000000000000000E+000
  0.000000000000000E+000
  0.000000000000000E+000
  0.000000000000000E+000
  0.000000000000000E+000
  0.000000000000000E+000
  0.000000000000000E+000
  0.000000000000000E+000
  0.000000000000000E+000
  0.000000000000000E+000
  0.000000000000000E+000
  0.000000000000000E+000
  0.000000000000000E+000
  0.000000000000000E+000
  0.000000000000000E+000
  0.000000000000000E+000
  0.000000000000000E+000
  0.000000000000000E+000
  0.000000000000000E+000
  0.000000000000000E+000
  0.000000000000000E+000
  0.000000000000000E+000
  0.000000000000000E+000
  0.000000000000000E+000
  0.000000000000000E+000
  0.000000000000000E+000
  0.000000000000000E+000
  0.000000000000000E+000
  0.000000000000000E+000
  0.000000000000000E+000
  0.000000000000000E+000
  0.000000000000000E+000
  0.000000000000000E+000
  0.000000000000000E+000
  0.000000000000000E+000
  0.000000000000000E+000
  0.000000000000000E+000
  0.000000000000000E+000
  0.000000000000000E+000
  0.000000000000000E+000
  0.000000000000000E+000
  0.000000000000000E+000
  0.000000000000000E+000
  0.000000000000000E+000
  0.000000000000000E+000
  0.000000000000000E+000
  0.000000000000000E+000
  0.000000000000000E+000
  0.000000000000000E+000
  0.000000000000000E+000
  0.000000000000000E+000
  0.000000000000000E+000
  0.000000000000000E+000
  0.000000000000000E+000
  0.000000000000000E+000
  0.000000000000000E+000
  0.000000000000000E+000
  0.000000000000000E+000
  0.000000000000000E+000
  0.000000000000000E+000
  0.000000000000000E+000
  0.000000000000000E+000
  0.000000000000000E+000
  0.000000000000000E+000
  0.000000000000000E+000
  0.000000000000000E+000
  0.000000000000000E+000
  0.000000000000000E+000
  0.000000000000000E+000
  0.000000000000000E+000
  0.000000000000000E+000
  0.000000000000000E+000
  0.000000000000000E+000
  0.000000000000000E+000
  0.000000000000000E+000
  0.000000000000000E+000
  0.000000000000000E+000
  0.000000000000000E+000
  0.000000000000000E+000
  0.000000000000000E+000
  0.000000000000000E+000
  0.000000000000000E+000
  0.000000000000000E+000
  0.000000000000000E+000
  0.000000000000000E+000
  0.000000000000000E+000
  0.000000000000000E+000
  0.000000000000000E+000
  0.000000000000000E+000
  0.000000000000000E+000
  0.000000000000000E+000
  0.000000000000000E+000
  0.000000000000000E+000
  0.000000000000000E+000
  0.000000000000000E+000
  0.000000000000000E+000
  0.000000000000000E+000
  0.000000000000000E+000
  0.000000000000000E+000
  0.000000000000000E+000
  0.000000000000000E+000
  0.000000000000000E+000
  0.000000000000000E+000
  0.000000000000000E+000
  0.000000000000000E+000
  0.000000000000000E+000
  0.000000000000000E+000
  0.000000000000000E+000
  0.000000000000000E+000
  0.000000000000000E+000
  0.000000000000000E+000
  0.000000000000000E+000
  0.000000000000000E+000
  0.000000000000000E+000
  0.000000000000000E+000
  0.000000000000000E+000
  0.000000000000000E+000
  0.000000000000000E+000
  0.000000000000000E+000
  0.000000000000000E+000
  0.000000000000000E+000
  0.000000000000000E+000
  0.000000000000000E+000
  0.000000000000000E+000
  0.000000000000000E+000
  0.000000000000000E+000
  0.000000000000000E+000
  0.000000000000000E+000
  0.000000000000000E+000
  0.000000000000000E+000
  0.000000000000000E+000
  0.000000000000000E+000
  0.000000000000000E+000
  0.000000000000000E+000
  0.000000000000000E+000
  0.000000000000000E+000
  0.000000000000000E+000
  0.000000000000000E+000
  0.000000000000000E+000
  0.000000000000000E+000
  0.000000000000000E+000
  0.000000000000000E+000
  0.000000000000000E+000
  0.000000000000000E+000
  0.000000000000000E+000
  0.000000000000000E+000
  0.000000000000000E+000
  0.000000000000000E+000
  0.000000000000000E+000
  0.000000000000000E+000
  0.000000000000000E+000
  0.000000000000000E+000
  0.000000000000000E+000
  0.000000000000000E+000
  0.000000000000000E+000
  0.000000000000000E+000
  0.000000000000000E+000
  0.000000000000000E+000
  0.000000000000000E+000
  0.000000000000000E+000
  0.000000000000000E+000
  0.000000000000000E+000
  0.000000000000000E+000
  0.000000000000000E+000
  0.000000000000000E+000
  0.000000000000000E+000
  0.000000000000000E+000
  0.000000000000000E+000
  0.000000000000000E+000
  0.000000000000000E+000
  0.000000000000000E+000
  0.000000000000000E+000
  0.000000000000000E+000
  0.000000000000000E+000
  0.000000000000000E+000
  0.000000000000000E+000
  0.000000000000000E+000
  0.000000000000000E+000
  0.000000000000000E+000
  0.000000000000000E+000
  0.000000000000000E+000
  0.000000000000000E+000
  0.000000000000000E+000
  0.000000000000000E+000
  0.000000000000000E+000
  0.000000000000000E+000
  0.000000000000000E+000
  0.000000000000000E+000
  0.000000000000000E+000
  0.000000000000000E+000
  0.000000000000000E+000
  0.000000000000000E+000
  0.000000000000000E+000
  0.000000000000000E+000
  0.000000000000000E+000
  0.000000000000000E+000
  0.000000000000000E+000
  0.000000000000000E+000
  0.000000000000000E+000
  0.000000000000000E+000
  0.000000000000000E+000
  0.000000000000000E+000
  0.000000000000000E+000
  0.000000000000000E+000
  0.000000000000000E+000
  0.000000000000000E+000
  0.000000000000000E+000
  0.000000000000000E+000
  0.000000000000000E+000
  0.000000000000000E+000
  0.000000000000000E+000
  0.000000000000000E+000
  0.000000000000000E+000
  0.000000000000000E+000
  0.000000000000000E+000
  0.000000000000000E+000
  0.000000000000000E+000
  0.000000000000000E+000
  0.000000000000000E+000
  0.000000000000000E+000
  0.000000000000000E+000
  0.000000000000000E+000
  0.000000000000000E+000
  0.000000000000000E+000
  0.000000000000000E+000
  0.000000000000000E+000
  0.000000000000000E+000
  0.000000000000000E+000
  0.000000000000000E+000
  0.000000000000000E+000
  0.000000000000000E+000
  0.000000000000000E+000
  0.000000000000000E+000
  0.000000000000000E+000
  0.000000000000000E+000
  0.000000000000000E+000
  0.000000000000000E+000
  0.000000000000000E+000
  0.000000000000000E+000
  0.000000000000000E+000
  0.000000000000000E+000
  0.000000000000000E+000
  0.000000000000000E+000
  0.000000000000000E+000
  0.000000000000000E+000
  0.000000000000000E+000
  0.000000000000000E+000
  0.000000000000000E+000
  0.000000000000000E+000
  0.000000000000000E+000
  0.000000000000000E+000
  0.000000000000000E+000
  0.000000000000000E+000
  0.000000000000000E+000
  0.000000000000000E+000
  0.000000000000000E+000
  0.000000000000000E+000
  0.000000000000000E+000
  0.000000000000000E+000
  0.000000000000000E+000
  0.000000000000000E+000
  0.000000000000000E+000
  0.000000000000000E+000
  0.000000000000000E+000
  0.000000000000000E+000
  0.000000000000000E+000
  0.000000000000000E+000
  0.000000000000000E+000
  0.000000000000000E+000
  0.000000000000000E+000
  0.000000000000000E+000
  0.000000000000000E+000
  0.000000000000000E+000
  0.000000000000000E+000
  0.000000000000000E+000
  0.000000000000000E+000
  0.000000000000000E+000
  0.000000000000000E+000
  0.000000000000000E+000
  0.000000000000000E+000
  0.000000000000000E+000
  0.000000000000000E+000
  0.000000000000000E+000
  0.000000000000000E+000
  0.000000000000000E+000
  0.000000000000000E+000
  0.000000000000000E+000
  0.000000000000000E+000
  0.000000000000000E+000
  0.000000000000000E+000
  0.000000000000000E+000
  0.000000000000000E+000
  0.000000000000000E+000
  0.000000000000000E+000
  0.000000000000000E+000
  0.000000000000000E+000
  0.000000000000000E+000
  0.000000000000000E+000
  0.000000000000000E+000
  0.000000000000000E+000
  0.000000000000000E+000
  0.000000000000000E+000
  0.000000000000000E+000
  0.000000000000000E+000
  0.000000000000000E+000
  0.000000000000000E+000
  0.000000000000000E+000
  0.000000000000000E+000
  0.000000000000000E+000
  0.000000000000000E+000
  0.000000000000000E+000
  0.000000000000000E+000
  0.000000000000000E+000
  0.000000000000000E+000
  0.000000000000000E+000
  0.000000000000000E+000
  0.000000000000000E+000
  0.000000000000000E+000
  0.000000000000000E+000
  0.000000000000000E+000
  0.000000000000000E+000
  0.000000000000000E+000
  0.000000000000000E+000
  0.000000000000000E+000
  0.000000000000000E+000
  0.000000000000000E+000
  0.000000000000000E+000
  0.000000000000000E+000
  0.000000000000000E+000
  0.000000000000000E+000
  0.000000000000000E+000
  0.000000000000000E+000
  0.000000000000000E+000
  0.000000000000000E+000
  0.000000000000000E+000
  0.000000000000000E+000
  0.000000000000000E+000
  0.000000000000000E+000
  0.000000000000000E+000
  0.000000000000000E+000
  0.000000000000000E+000
  0.000000000000000E+000
  0.000000000000000E+000
  0.000000000000000E+000
  0.000000000000000E+000
  0.000000000000000E+000
  0.000000000000000E+000
  0.000000000000000E+000
  0.000000000000000E+000
  0.000000000000000E+000
  0.000000000000000E+000
  0.000000000000000E+000
  0.000000000000000E+000
  0.000000000000000E+000
  0.000000000000000E+000
  0.000000000000000E+000
  0.000000000000000E+000
  0.000000000000000E+000
  0.000000000000000E+000
  0.000000000000000E+000
  0.000000000000000E+000
  0.000000000000000E+000
  0.000000000000000E+000
  0.000000000000000E+000
  0.000000000000000E+000
  0.000000000000000E+000
  0.000000000000000E+000
  0.000000000000000E+000
  0.000000000000000E+000
  0.000000000000000E+000
  0.000000000000000E+000
  0.000000000000000E+000
  0.000000000000000E+000
  0.000000000000000E+000
  0.000000000000000E+000
  0.000000000000000E+000
  0.000000000000000E+000
  0.000000000000000E+000
  0.000000000000000E+000
  0.000000000000000E+000
  0.000000000000000E+000
  0.000000000000000E+000
  0.000000000000000E+000
  0.000000000000000E+000
  0.000000000000000E+000
  0.000000000000000E+000
  0.000000000000000E+000
  0.000000000000000E+000
  0.000000000000000E+000
  0.000000000000000E+000
  0.000000000000000E+000
  0.000000000000000E+000
  0.000000000000000E+000
  0.000000000000000E+000
  0.000000000000000E+000
  0.000000000000000E+000
  0.000000000000000E+000
  0.000000000000000E+000
  0.000000000000000E+000
  0.000000000000000E+000
  0.000000000000000E+000
  0.000000000000000E+000
  0.000000000000000E+000
  0.000000000000000E+000
  0.000000000000000E+000
  0.000000000000000E+000
  0.000000000000000E+000
  0.000000000000000E+000
  0.000000000000000E+000
  0.000000000000000E+000
  0.000000000000000E+000
  0.000000000000000E+000
  0.000000000000000E+000
  0.000000000000000E+000
  0.000000000000000E+000
  0.000000000000000E+000
  0.000000000000000E+000
  0.000000000000000E+000
  0.000000000000000E+000
  0.000000000000000E+000
  0.000000000000000E+000
  0.000000000000000E+000
  0.000000000000000E+000
  0.000000000000000E+000
  0.000000000000000E+000
  0.000000000000000E+000
  0.000000000000000E+000
  0.000000000000000E+000
  0.000000000000000E+000
  0.000000000000000E+000
  0.000000000000000E+000
  0.000000000000000E+000
  0.000000000000000E+000
  0.000000000000000E+000
  0.000000000000000E+000
  0.000000000000000E+000
  0.000000000000000E+000
  0.000000000000000E+000
  0.000000000000000E+000
  0.000000000000000E+000
  0.000000000000000E+000
  0.000000000000000E+000
  0.000000000000000E+000
  0.000000000000000E+000
  0.000000000000000E+000
  0.000000000000000E+000
  0.000000000000000E+000
  0.000000000000000E+000
  0.000000000000000E+000
  0.000000000000000E+000
  0.000000000000000E+000
  0.000000000000000E+000
  0.000000000000000E+000
  0.000000000000000E+000
  0.000000000000000E+000
  0.000000000000000E+000
  0.000000000000000E+000
  0.000000000000000E+000
  0.000000000000000E+000
  0.000000000000000E+000
  0.000000000000000E+000
  0.000000000000000E+000
  0.000000000000000E+000
  0.000000000000000E+000
  0.000000000000000E+000
  0.000000000000000E+000
  0.000000000000000E+000
  0.000000000000000E+000
  0.000000000000000E+000
  0.000000000000000E+000
  0.000000000000000E+000
  0.000000000000000E+000
  0.000000000000000E+000
  0.000000000000000E+000
  0.000000000000000E+000
  0.000000000000000E+000
  0.000000000000000E+000
  0.000000000000000E+000
  0.000000000000000E+000
  0.000000000000000E+000
  0.000000000000000E+000
  0.000000000000000E+000
  0.000000000000000E+000
  0.000000000000000E+000
  0.000000000000000E+000
  0.000000000000000E+000
  0.000000000000000E+000
  0.000000000000000E+000
  0.000000000000000E+000
  0.000000000000000E+000
  0.000000000000000E+000
  0.000000000000000E+000
  0.000000000000000E+000
  0.000000000000000E+000
  0.000000000000000E+000
  0.000000000000000E+000
  0.000000000000000E+000
  0.000000000000000E+000
  0.000000000000000E+000
  0.000000000000000E+000
  0.000000000000000E+000
  0.000000000000000E+000
  0.000000000000000E+000
  0.000000000000000E+000
  0.000000000000000E+000
  0.000000000000000E+000
  0.000000000000000E+000
  0.000000000000000E+000
  0.000000000000000E+000
  0.000000000000000E+000
  0.000000000000000E+000
  0.000000000000000E+000
  0.000000000000000E+000
  0.000000000000000E+000
  0.000000000000000E+000
  0.000000000000000E+000
  0.000000000000000E+000
  0.000000000000000E+000
  0.000000000000000E+000
  0.000000000000000E+000
  0.000000000000000E+000
  0.000000000000000E+000
  0.000000000000000E+000
  0.000000000000000E+000
  0.000000000000000E+000
  0.000000000000000E+000
  0.000000000000000E+000
  0.000000000000000E+000
  0.000000000000000E+000
  0.000000000000000E+000
  0.000000000000000E+000
  0.000000000000000E+000
  0.000000000000000E+000
  0.000000000000000E+000
  0.000000000000000E+000
  0.000000000000000E+000
  0.000000000000000E+000
  0.000000000000000E+000
  0.000000000000000E+000
  0.000000000000000E+000
  0.000000000000000E+000
  0.000000000000000E+000
  0.000000000000000E+000
  0.000000000000000E+000
  0.000000000000000E+000
  0.000000000000000E+000
  0.000000000000000E+000
  0.000000000000000E+000
  0.000000000000000E+000
  0.000000000000000E+000
  0.000000000000000E+000
  0.000000000000000E+000
  0.000000000000000E+000
  0.000000000000000E+000
  0.000000000000000E+000
  0.000000000000000E+000
  0.000000000000000E+000
  0.000000000000000E+000
  0.000000000000000E+000
  0.000000000000000E+000
  0.000000000000000E+000
  0.000000000000000E+000
  0.000000000000000E+000
  0.000000000000000E+000
  0.000000000000000E+000
  0.000000000000000E+000
  0.000000000000000E+000
  0.000000000000000E+000
  0.000000000000000E+000
  0.000000000000000E+000
  0.000000000000000E+000
  0.000000000000000E+000
  0.000000000000000E+000
  0.000000000000000E+000
  0.000000000000000E+000
  0.000000000000000E+000
  0.000000000000000E+000
  0.000000000000000E+000
  0.000000000000000E+000
  0.000000000000000E+000
  0.000000000000000E+000
  0.000000000000000E+000
  0.000000000000000E+000
  0.000000000000000E+000
  0.000000000000000E+000
  0.000000000000000E+000
  0.000000000000000E+000
  0.000000000000000E+000
  0.000000000000000E+000
  0.000000000000000E+000
  0.000000000000000E+000
  0.000000000000000E+000
  0.000000000000000E+000
  0.000000000000000E+000
  0.000000000000000E+000
  0.000000000000000E+000
  0.000000000000000E+000
  0.000000000000000E+000
  0.000000000000000E+000
  0.000000000000000E+000
  0.000000000000000E+000
  0.000000000000000E+000
  0.000000000000000E+000
  0.000000000000000E+000
  0.000000000000000E+000
  0.000000000000000E+000
  0.000000000000000E+000
  0.000000000000000E+000
  0.000000000000000E+000
  0.000000000000000E+000
  0.000000000000000E+000
  0.000000000000000E+000
  0.000000000000000E+000
  0.000000000000000E+000
  0.000000000000000E+000
  0.000000000000000E+000
  0.000000000000000E+000
  0.000000000000000E+000
  0.000000000000000E+000
  0.000000000000000E+000
  0.000000000000000E+000
  0.000000000000000E+000
  0.000000000000000E+000
  0.000000000000000E+000
  0.000000000000000E+000
  0.000000000000000E+000
  0.000000000000000E+000
  0.000000000000000E+000
  0.000000000000000E+000
  0.000000000000000E+000
  0.000000000000000E+000
  0.000000000000000E+000
  0.000000000000000E+000
  0.000000000000000E+000
  0.000000000000000E+000
  0.000000000000000E+000
  0.000000000000000E+000
  0.000000000000000E+000
  0.000000000000000E+000
  0.000000000000000E+000
  0.000000000000000E+000
  0.000000000000000E+000
  0.000000000000000E+000
  0.000000000000000E+000
  0.000000000000000E+000
  0.000000000000000E+000
  0.000000000000000E+000
  0.000000000000000E+000
  0.000000000000000E+000
  0.000000000000000E+000
  0.000000000000000E+000
  0.000000000000000E+000
  0.000000000000000E+000
  0.000000000000000E+000
  0.000000000000000E+000
  0.000000000000000E+000
  0.000000000000000E+000
  0.000000000000000E+000
  0.000000000000000E+000
  0.000000000000000E+000
  0.000000000000000E+000
  0.000000000000000E+000
  0.000000000000000E+000
  0.000000000000000E+000
  0.000000000000000E+000
  0.000000000000000E+000
  0.000000000000000E+000
  0.000000000000000E+000
  0.000000000000000E+000
  0.000000000000000E+000
  0.000000000000000E+000
  0.000000000000000E+000
  0.000000000000000E+000
  0.000000000000000E+000
  0.000000000000000E+000
  0.000000000000000E+000
  0.000000000000000E+000
  0.000000000000000E+000
  0.000000000000000E+000
  0.000000000000000E+000
  0.000000000000000E+000
  0.000000000000000E+000
  0.000000000000000E+000
  0.000000000000000E+000
  0.000000000000000E+000
  0.000000000000000E+000
  0.000000000000000E+000
  0.000000000000000E+000
  0.000000000000000E+000
  0.000000000000000E+000
  0.000000000000000E+000
  0.000000000000000E+000
  0.000000000000000E+000
  0.000000000000000E+000
  0.000000000000000E+000
  0.000000000000000E+000
  0.000000000000000E+000
  0.000000000000000E+000
  0.000000000000000E+000
  0.000000000000000E+000
  0.000000000000000E+000
  0.000000000000000E+000
  0.000000000000000E+000
  0.000000000000000E+000
  0.000000000000000E+000
  0.000000000000000E+000
  0.000000000000000E+000
  0.000000000000000E+000
  0.000000000000000E+000
  0.000000000000000E+000
  0.000000000000000E+000
  0.000000000000000E+000
  0.000000000000000E+000
  0.000000000000000E+000
  0.000000000000000E+000
  0.000000000000000E+000
  0.000000000000000E+000
  0.000000000000000E+000
  0.000000000000000E+000
  0.000000000000000E+000
  0.000000000000000E+000
  0.000000000000000E+000
  0.000000000000000E+000
  0.000000000000000E+000
  0.000000000000000E+000
  0.000000000000000E+000
  0.000000000000000E+000
  0.000000000000000E+000
  0.000000000000000E+000
  0.000000000000000E+000
  0.000000000000000E+000
  0.000000000000000E+000
  0.000000000000000E+000
  0.000000000000000E+000
  0.000000000000000E+000
  0.000000000000000E+000
  0.000000000000000E+000
  0.000000000000000E+000
  0.000000000000000E+000
  0.000000000000000E+000
  0.000000000000000E+000
  0.000000000000000E+000
  0.000000000000000E+000
  0.000000000000000E+000
  0.000000000000000E+000
  0.000000000000000E+000
  0.000000000000000E+000
  0.000000000000000E+000
  0.000000000000000E+000
  0.000000000000000E+000
  0.000000000000000E+000
  0.000000000000000E+000
  0.000000000000000E+000
  0.000000000000000E+000
  0.000000000000000E+000
  0.000000000000000E+000
  0.000000000000000E+000
  0.000000000000000E+000
  0.000000000000000E+000
  0.000000000000000E+000
  0.000000000000000E+000
  0.000000000000000E+000
  0.000000000000000E+000
  0.000000000000000E+000
  0.000000000000000E+000
  0.000000000000000E+000
  0.000000000000000E+000
  0.000000000000000E+000
  0.000000000000000E+000
  0.000000000000000E+000
  0.000000000000000E+000
  0.000000000000000E+000
  0.000000000000000E+000
  0.000000000000000E+000
  0.000000000000000E+000
  0.000000000000000E+000
  0.000000000000000E+000
  0.000000000000000E+000
  0.000000000000000E+000
  0.000000000000000E+000
  0.000000000000000E+000
  0.000000000000000E+000
  0.000000000000000E+000
  0.000000000000000E+000
  0.000000000000000E+000
  0.000000000000000E+000
  0.000000000000000E+000
  0.000000000000000E+000
  0.000000000000000E+000
  0.000000000000000E+000
  0.000000000000000E+000
  0.000000000000000E+000
  0.000000000000000E+000
  0.000000000000000E+000
  0.000000000000000E+000
  0.000000000000000E+000
  0.000000000000000E+000
  0.000000000000000E+000
  0.000000000000000E+000
  0.000000000000000E+000
  0.000000000000000E+000
  0.000000000000000E+000
  0.000000000000000E+000
  0.000000000000000E+000
  0.000000000000000E+000
  0.000000000000000E+000
  0.000000000000000E+000
  0.000000000000000E+000
  0.000000000000000E+000
  0.000000000000000E+000
  0.000000000000000E+000
  0.000000000000000E+000
  0.000000000000000E+000
  0.000000000000000E+000
  0.000000000000000E+000
  0.000000000000000E+000
  0.000000000000000E+000
  0.000000000000000E+000
  0.000000000000000E+000
  0.000000000000000E+000
  0.000000000000000E+000
  0.000000000000000E+000
  0.000000000000000E+000
  0.000000000000000E+000
  0.000000000000000E+000
  0.000000000000000E+000
  0.000000000000000E+000
  0.000000000000000E+000
  0.000000000000000E+000
  0.000000000000000E+000
  0.000000000000000E+000
  0.000000000000000E+000
  0.000000000000000E+000
  0.000000000000000E+000
  0.000000000000000E+000
  0.000000000000000E+000
  0.000000000000000E+000
  0.000000000000000E+000
  0.000000000000000E+000
  0.000000000000000E+000
  0.000000000000000E+000
  0.000000000000000E+000
  0.000000000000000E+000
  0.000000000000000E+000
  0.000000000000000E+000
  0.000000000000000E+000
  0.000000000000000E+000
  0.000000000000000E+000
  0.000000000000000E+000
  0.000000000000000E+000
  0.000000000000000E+000
  0.000000000000000E+000
  0.000000000000000E+000
  0.000000000000000E+000
  0.000000000000000E+000
  0.000000000000000E+000
  0.000000000000000E+000
  0.000000000000000E+000
  0.000000000000000E+000
  0.000000000000000E+000
  0.000000000000000E+000
  0.000000000000000E+000
  0.000000000000000E+000
  0.000000000000000E+000
  0.000000000000000E+000
  0.000000000000000E+000
  0.000000000000000E+000
  0.000000000000000E+000
  0.000000000000000E+000
  0.000000000000000E+000
  0.000000000000000E+000
  0.000000000000000E+000
  0.000000000000000E+000
  0.000000000000000E+000
  0.000000000000000E+000
  0.000000000000000E+000
  0.000000000000000E+000
  0.000000000000000E+000
  0.000000000000000E+000
  0.000000000000000E+000
  0.000000000000000E+000
  0.000000000000000E+000
  0.000000000000000E+000
  0.000000000000000E+000
  0.000000000000000E+000
  0.000000000000000E+000
  0.000000000000000E+000
  0.000000000000000E+000
  0.000000000000000E+000
  0.000000000000000E+000
  0.000000000000000E+000
  0.000000000000000E+000
  0.000000000000000E+000
  0.000000000000000E+000
  0.000000000000000E+000
  0.000000000000000E+000
  0.000000000000000E+000
  0.000000000000000E+000
  0.000000000000000E+000
  0.000000000000000E+000
  0.000000000000000E+000
  0.000000000000000E+000
  0.000000000000000E+000
  0.000000000000000E+000
  0.000000000000000E+000
  0.000000000000000E+000
  0.000000000000000E+000
  0.000000000000000E+000
  0.000000000000000E+000
  0.000000000000000E+000
  0.000000000000000E+000
  0.000000000000000E+000
  0.000000000000000E+000
  0.000000000000000E+000
  0.000000000000000E+000
  0.000000000000000E+000
  0.000000000000000E+000
  0.000000000000000E+000
  0.000000000000000E+000
  0.000000000000000E+000
  0.000000000000000E+000
  0.000000000000000E+000
  0.000000000000000E+000
  0.000000000000000E+000
  0.000000000000000E+000
  0.000000000000000E+000
  0.000000000000000E+000
  0.000000000000000E+000
  0.000000000000000E+000
  0.000000000000000E+000
  0.000000000000000E+000
  0.000000000000000E+000
  0.000000000000000E+000
  0.000000000000000E+000
  0.000000000000000E+000
  0.000000000000000E+000
  0.000000000000000E+000
  0.000000000000000E+000
  0.000000000000000E+000
  0.000000000000000E+000
  0.000000000000000E+000
  0.000000000000000E+000
  0.000000000000000E+000
  0.000000000000000E+000
  0.000000000000000E+000
  0.000000000000000E+000
  0.000000000000000E+000
  0.000000000000000E+000
  0.000000000000000E+000
  0.000000000000000E+000
  0.000000000000000E+000
  0.000000000000000E+000
  0.000000000000000E+000
  0.000000000000000E+000
  0.000000000000000E+000
  0.000000000000000E+000
  0.000000000000000E+000
  0.000000000000000E+000
  0.000000000000000E+000
  0.000000000000000E+000
  0.000000000000000E+000
  0.000000000000000E+000
  0.000000000000000E+000
  0.000000000000000E+000
  0.000000000000000E+000
  0.000000000000000E+000
  0.000000000000000E+000
  0.000000000000000E+000
  0.000000000000000E+000
  0.000000000000000E+000
  0.000000000000000E+000
  0.000000000000000E+000
  0.000000000000000E+000
  0.000000000000000E+000
  0.000000000000000E+000
  0.000000000000000E+000
  0.000000000000000E+000
  0.000000000000000E+000
  0.000000000000000E+000
  0.000000000000000E+000
  0.000000000000000E+000
  0.000000000000000E+000
  0.000000000000000E+000
  0.000000000000000E+000
  0.000000000000000E+000
  0.000000000000000E+000
  0.000000000000000E+000
  0.000000000000000E+000
  0.000000000000000E+000
  0.000000000000000E+000
  0.000000000000000E+000
  0.000000000000000E+000
  0.000000000000000E+000
  0.000000000000000E+000
  0.000000000000000E+000
  0.000000000000000E+000
  0.000000000000000E+000
  0.000000000000000E+000
  0.000000000000000E+000
  0.000000000000000E+000
  0.000000000000000E+000
  0.000000000000000E+000
  0.000000000000000E+000
  0.000000000000000E+000
  0.000000000000000E+000
  0.000000000000000E+000
  0.000000000000000E+000
  0.000000000000000E+000
  0.000000000000000E+000
  0.000000000000000E+000
  0.000000000000000E+000
  0.000000000000000E+000
  0.000000000000000E+000
  0.000000000000000E+000
  0.000000000000000E+000
  0.000000000000000E+000
  0.000000000000000E+000
  0.000000000000000E+000
  0.000000000000000E+000
  0.000000000000000E+000
  0.000000000000000E+000
  0.000000000000000E+000
  0.000000000000000E+000
  0.000000000000000E+000
  0.000000000000000E+000
  0.000000000000000E+000
  0.000000000000000E+000
  0.000000000000000E+000
  0.000000000000000E+000
  0.000000000000000E+000
  0.000000000000000E+000
  0.000000000000000E+000
  0.000000000000000E+000
  0.000000000000000E+000
  0.000000000000000E+000
  0.000000000000000E+000
  0.000000000000000E+000
  0.000000000000000E+000
  0.000000000000000E+000
  0.000000000000000E+000
  0.000000000000000E+000
  0.000000000000000E+000
  0.000000000000000E+000
  0.000000000000000E+000
  0.000000000000000E+000
  0.000000000000000E+000
  0.000000000000000E+000
  0.000000000000000E+000
  0.000000000000000E+000
  0.000000000000000E+000
  0.000000000000000E+000
  0.000000000000000E+000
  0.000000000000000E+000
  0.000000000000000E+000
  0.000000000000000E+000
  0.000000000000000E+000
  0.000000000000000E+000
  0.000000000000000E+000
  0.000000000000000E+000
  0.000000000000000E+000
  0.000000000000000E+000
  0.000000000000000E+000
  0.000000000000000E+000
  0.000000000000000E+000
  0.000000000000000E+000
  0.000000000000000E+000
  0.000000000000000E+000
  0.000000000000000E+000
  0.000000000000000E+000
  0.000000000000000E+000
  0.000000000000000E+000
  0.000000000000000E+000
  0.000000000000000E+000
  0.000000000000000E+000
  0.000000000000000E+000
  0.000000000000000E+000
  0.000000000000000E+000
  0.000000000000000E+000
  0.000000000000000E+000
  0.000000000000000E+000
  0.000000000000000E+000
  0.000000000000000E+000
  0.000000000000000E+000
  0.000000000000000E+000
  0.000000000000000E+000
  0.000000000000000E+000
  0.000000000000000E+000
  0.000000000000000E+000
  0.000000000000000E+000
  0.000000000000000E+000
  0.000000000000000E+000
  0.000000000000000E+000
  0.000000000000000E+000
  0.000000000000000E+000
  0.000000000000000E+000
  0.000000000000000E+000
  0.000000000000000E+000
  0.000000000000000E+000
  0.000000000000000E+000
  0.000000000000000E+000
  0.000000000000000E+000
  0.000000000000000E+000
  0.000000000000000E+000
  0.000000000000000E+000
  0.000000000000000E+000
  0.000000000000000E+000
  0.000000000000000E+000
  0.000000000000000E+000
  0.000000000000000E+000
  0.000000000000000E+000
  0.000000000000000E+000
  0.000000000000000E+000
  0.000000000000000E+000
  0.000000000000000E+000
  0.000000000000000E+000
  0.000000000000000E+000
  0.000000000000000E+000
  0.000000000000000E+000
  0.000000000000000E+000
  0.000000000000000E+000
  0.000000000000000E+000
  0.000000000000000E+000
  0.000000000000000E+000
  0.000000000000000E+000
  0.000000000000000E+000
  0.000000000000000E+000
  0.000000000000000E+000
  0.000000000000000E+000
  0.000000000000000E+000
  0.000000000000000E+000
  0.000000000000000E+000
  0.000000000000000E+000
  0.000000000000000E+000
  0.000000000000000E+000
  0.000000000000000E+000
  0.000000000000000E+000
  0.000000000000000E+000
  0.000000000000000E+000
  0.000000000000000E+000
  0.000000000000000E+000
  0.000000000000000E+000
  0.000000000000000E+000
  0.000000000000000E+000
  0.000000000000000E+000
  0.000000000000000E+000
  0.000000000000000E+000
  0.000000000000000E+000
  0.000000000000000E+000
  0.000000000000000E+000
  0.000000000000000E+000
  0.000000000000000E+000
  0.000000000000000E+000
  0.000000000000000E+000
  0.000000000000000E+000
  0.000000000000000E+000
  0.000000000000000E+000
  0.000000000000000E+000
  0.000000000000000E+000
  0.000000000000000E+000
  0.000000000000000E+000
  0.000000000000000E+000
  0.000000000000000E+000
  0.000000000000000E+000
  0.000000000000000E+000
  0.000000000000000E+000
  0.000000000000000E+000
  0.000000000000000E+000
  0.000000000000000E+000
  0.000000000000000E+000
  0.000000000000000E+000
  0.000000000000000E+000
  0.000000000000000E+000
  0.000000000000000E+000
  0.000000000000000E+000
  0.000000000000000E+000
  0.000000000000000E+000
  0.000000000000000E+000
  0.000000000000000E+000
  0.000000000000000E+000
  0.000000000000000E+000
  0.000000000000000E+000
  0.000000000000000E+000
  0.000000000000000E+000
  0.000000000000000E+000
  0.000000000000000E+000
  0.000000000000000E+000
  0.000000000000000E+000
  0.000000000000000E+000
  0.000000000000000E+000
  0.000000000000000E+000
  0.000000000000000E+000
  0.000000000000000E+000
  0.000000000000000E+000
  0.000000000000000E+000
  0.000000000000000E+000
  0.000000000000000E+000
  0.000000000000000E+000
  0.000000000000000E+000
  0.000000000000000E+000
  0.000000000000000E+000
  0.000000000000000E+000
  0.000000000000000E+000
  0.000000000000000E+000
  0.000000000000000E+000
  0.000000000000000E+000
  0.000000000000000E+000
  0.000000000000000E+000
  0.000000000000000E+000
  0.000000000000000E+000
  0.000000000000000E+000
  0.000000000000000E+000
  0.000000000000000E+000
  0.000000000000000E+000
  0.000000000000000E+000
  0.000000000000000E+000
  0.000000000000000E+000
  0.000000000000000E+000
  0.000000000000000E+000
  0.000000000000000E+000
  0.000000000000000E+000
  0.000000000000000E+000
  0.000000000000000E+000
  0.000000000000000E+000
  0.000000000000000E+000
  0.000000000000000E+000
  0.000000000000000E+000
  0.000000000000000E+000
  0.000000000000000E+000
  0.000000000000000E+000
  0.000000000000000E+000
   1.00000000000000     
   1.00000000000000     
  0.000000000000000E+000
  0.000000000000000E+000
  0.000000000000000E+000
  0.000000000000000E+000
  0.000000000000000E+000
  0.000000000000000E+000
  0.000000000000000E+000
  0.000000000000000E+000
  0.000000000000000E+000
  0.000000000000000E+000
  0.000000000000000E+000
  0.000000000000000E+000
  0.000000000000000E+000
  0.000000000000000E+000
  0.000000000000000E+000
  0.000000000000000E+000
  0.000000000000000E+000
  0.000000000000000E+000
  0.000000000000000E+000
  0.000000000000000E+000
  0.000000000000000E+000
  0.000000000000000E+000
  0.000000000000000E+000
  0.000000000000000E+000
  0.000000000000000E+000
  0.000000000000000E+000
  0.000000000000000E+000
  0.000000000000000E+000
  0.000000000000000E+000
  0.000000000000000E+000
  0.000000000000000E+000
  0.000000000000000E+000
  0.000000000000000E+000
  0.000000000000000E+000
  0.000000000000000E+000
  0.000000000000000E+000
  0.000000000000000E+000
  0.000000000000000E+000
  0.000000000000000E+000
  0.000000000000000E+000
  0.000000000000000E+000
  0.000000000000000E+000
  0.000000000000000E+000
   1.00000000000000     
   1.00000000000000     
   1.00000000000000     
   1.00000000000000     
   1.00000000000000     
   1.00000000000000     
   1.00000000000000     
  0.000000000000000E+000
  0.000000000000000E+000
  0.000000000000000E+000
  0.000000000000000E+000
  0.000000000000000E+000
  0.000000000000000E+000
  0.000000000000000E+000
  0.000000000000000E+000
  0.000000000000000E+000
  0.000000000000000E+000
  0.000000000000000E+000
  0.000000000000000E+000
  0.000000000000000E+000
  0.000000000000000E+000
  0.000000000000000E+000
  0.000000000000000E+000
  0.000000000000000E+000
  0.000000000000000E+000
  0.000000000000000E+000
  0.000000000000000E+000
  0.000000000000000E+000
  0.000000000000000E+000
  0.000000000000000E+000
  0.000000000000000E+000
  0.000000000000000E+000
  0.000000000000000E+000
  0.000000000000000E+000
  0.000000000000000E+000
  0.000000000000000E+000
  0.000000000000000E+000
  0.000000000000000E+000
  0.000000000000000E+000
  0.000000000000000E+000
  0.000000000000000E+000
  0.000000000000000E+000
  0.000000000000000E+000
  0.000000000000000E+000
  0.000000000000000E+000
  0.000000000000000E+000
   1.00000000000000     
   1.00000000000000     
   1.00000000000000     
   1.00000000000000     
   1.00000000000000     
   1.00000000000000     
   1.00000000000000     
   1.00000000000000     
   1.00000000000000     
   1.00000000000000     
   1.00000000000000     
  0.000000000000000E+000
  0.000000000000000E+000
  0.000000000000000E+000
  0.000000000000000E+000
  0.000000000000000E+000
  0.000000000000000E+000
  0.000000000000000E+000
  0.000000000000000E+000
  0.000000000000000E+000
  0.000000000000000E+000
  0.000000000000000E+000
  0.000000000000000E+000
  0.000000000000000E+000
  0.000000000000000E+000
  0.000000000000000E+000
  0.000000000000000E+000
  0.000000000000000E+000
  0.000000000000000E+000
  0.000000000000000E+000
  0.000000000000000E+000
  0.000000000000000E+000
  0.000000000000000E+000
  0.000000000000000E+000
  0.000000000000000E+000
  0.000000000000000E+000
  0.000000000000000E+000
  0.000000000000000E+000
  0.000000000000000E+000
  0.000000000000000E+000
  0.000000000000000E+000
  0.000000000000000E+000
  0.000000000000000E+000
  0.000000000000000E+000
  0.000000000000000E+000
  0.000000000000000E+000
  0.000000000000000E+000
   1.00000000000000     
   1.00000000000000     
   1.00000000000000     
   1.00000000000000     
   1.00000000000000     
   1.00000000000000     
   1.00000000000000     
   1.00000000000000     
   1.00000000000000     
   1.00000000000000     
   1.00000000000000     
   1.00000000000000     
   1.00000000000000     
   1.00000000000000     
  0.000000000000000E+000
  0.000000000000000E+000
  0.000000000000000E+000
  0.000000000000000E+000
  0.000000000000000E+000
  0.000000000000000E+000
  0.000000000000000E+000
  0.000000000000000E+000
  0.000000000000000E+000
  0.000000000000000E+000
  0.000000000000000E+000
  0.000000000000000E+000
  0.000000000000000E+000
  0.000000000000000E+000
  0.000000000000000E+000
  0.000000000000000E+000
  0.000000000000000E+000
  0.000000000000000E+000
  0.000000000000000E+000
  0.000000000000000E+000
  0.000000000000000E+000
  0.000000000000000E+000
  0.000000000000000E+000
  0.000000000000000E+000
  0.000000000000000E+000
  0.000000000000000E+000
  0.000000000000000E+000
  0.000000000000000E+000
  0.000000000000000E+000
  0.000000000000000E+000
  0.000000000000000E+000
  0.000000000000000E+000
   1.00000000000000     
   1.00000000000000     
   1.00000000000000     
   1.00000000000000     
   1.00000000000000     
   1.00000000000000     
   1.00000000000000     
   1.00000000000000     
   1.00000000000000     
   1.00000000000000     
   1.00000000000000     
   1.00000000000000     
   1.00000000000000     
   1.00000000000000     
   1.00000000000000     
   1.00000000000000     
   1.00000000000000     
   1.00000000000000     
  0.000000000000000E+000
  0.000000000000000E+000
  0.000000000000000E+000
  0.000000000000000E+000
  0.000000000000000E+000
  0.000000000000000E+000
  0.000000000000000E+000
  0.000000000000000E+000
  0.000000000000000E+000
  0.000000000000000E+000
  0.000000000000000E+000
  0.000000000000000E+000
  0.000000000000000E+000
  0.000000000000000E+000
  0.000000000000000E+000
  0.000000000000000E+000
  0.000000000000000E+000
  0.000000000000000E+000
  0.000000000000000E+000
  0.000000000000000E+000
  0.000000000000000E+000
  0.000000000000000E+000
  0.000000000000000E+000
  0.000000000000000E+000
  0.000000000000000E+000
  0.000000000000000E+000
  0.000000000000000E+000
  0.000000000000000E+000
   1.00000000000000     
   1.00000000000000     
   1.00000000000000     
   1.00000000000000     
   1.00000000000000     
   1.00000000000000     
   1.00000000000000     
   1.00000000000000     
   1.00000000000000     
   1.00000000000000     
   1.00000000000000     
   1.00000000000000     
   1.00000000000000     
   1.00000000000000     
   1.00000000000000     
   1.00000000000000     
   1.00000000000000     
   1.00000000000000     
   1.00000000000000     
   1.00000000000000     
   1.00000000000000     
   1.00000000000000     
  0.000000000000000E+000
  0.000000000000000E+000
  0.000000000000000E+000
  0.000000000000000E+000
  0.000000000000000E+000
  0.000000000000000E+000
  0.000000000000000E+000
  0.000000000000000E+000
  0.000000000000000E+000
  0.000000000000000E+000
  0.000000000000000E+000
  0.000000000000000E+000
  0.000000000000000E+000
  0.000000000000000E+000
  0.000000000000000E+000
  0.000000000000000E+000
  0.000000000000000E+000
  0.000000000000000E+000
  0.000000000000000E+000
  0.000000000000000E+000
  0.000000000000000E+000
  0.000000000000000E+000
  0.000000000000000E+000
  0.000000000000000E+000
   1.00000000000000     
   1.00000000000000     
   1.00000000000000     
   1.00000000000000     
   1.00000000000000     
   1.00000000000000     
   1.00000000000000     
   1.00000000000000     
   1.00000000000000     
   1.00000000000000     
   1.00000000000000     
   1.00000000000000     
   1.00000000000000     
   1.00000000000000     
   1.00000000000000     
   1.00000000000000     
   1.00000000000000     
   1.00000000000000     
   1.00000000000000     
   1.00000000000000     
   1.00000000000000     
   1.00000000000000     
   1.00000000000000     
   1.00000000000000     
   1.00000000000000     
   1.00000000000000     
  0.000000000000000E+000
  0.000000000000000E+000
  0.000000000000000E+000
  0.000000000000000E+000
  0.000000000000000E+000
  0.000000000000000E+000
  0.000000000000000E+000
  0.000000000000000E+000
  0.000000000000000E+000
   1.00000000000000     
   1.00000000000000     
   1.00000000000000     
   1.00000000000000     
   1.00000000000000     
   1.00000000000000     
   1.00000000000000     
   1.00000000000000     
   1.00000000000000     
   1.00000000000000     
   1.00000000000000     
   1.00000000000000     
   1.00000000000000     
   1.00000000000000     
   1.00000000000000     
   1.00000000000000     
   1.00000000000000     
   1.00000000000000     
   1.00000000000000     
   1.00000000000000     
   1.00000000000000     
   1.00000000000000     
   1.00000000000000     
   1.00000000000000     
   1.00000000000000     
   1.00000000000000     
   1.00000000000000     
   1.00000000000000     
   1.00000000000000     
   1.00000000000000     
   1.00000000000000     
   1.00000000000000     
   1.00000000000000     
   1.00000000000000     
   1.00000000000000     
   1.00000000000000     
   1.00000000000000     
   1.00000000000000     
   1.00000000000000     
   1.00000000000000     
   1.00000000000000     
   1.00000000000000     
   1.00000000000000     
   1.00000000000000     
   1.00000000000000     
   1.00000000000000     
   1.00000000000000     
   1.00000000000000     
   1.00000000000000     
   1.00000000000000     
   1.00000000000000     
   1.00000000000000     
   1.00000000000000     
   1.00000000000000     
   1.00000000000000     
   1.00000000000000     
   1.00000000000000     
   1.00000000000000     
   1.00000000000000     
   1.00000000000000     
   1.00000000000000     
   1.00000000000000     
   1.00000000000000     
   1.00000000000000     
   1.00000000000000     
   1.00000000000000     
   1.00000000000000     
   1.00000000000000     
   1.00000000000000     
   1.00000000000000     
   1.00000000000000     
   1.00000000000000     
   1.00000000000000     
   1.00000000000000     
   1.00000000000000     
   1.00000000000000     
   1.00000000000000     
   1.00000000000000     
   1.00000000000000     
   1.00000000000000     
   1.00000000000000     
   1.00000000000000     
   1.00000000000000     
   1.00000000000000     
   1.00000000000000     
   1.00000000000000     
   1.00000000000000     
   1.00000000000000     
   1.00000000000000     
   1.00000000000000     
   1.00000000000000     
  0.000000000000000E+000
  0.000000000000000E+000
  0.000000000000000E+000
  0.000000000000000E+000
  0.000000000000000E+000
   1.00000000000000     
   1.00000000000000     
   1.00000000000000     
   1.00000000000000     
   1.00000000000000     
   1.00000000000000     
   1.00000000000000     
   1.00000000000000     
   1.00000000000000     
   1.00000000000000     
   1.00000000000000     
   1.00000000000000     
   1.00000000000000     
   1.00000000000000     
   1.00000000000000     
   1.00000000000000     
   1.00000000000000     
   1.00000000000000     
   1.00000000000000     
   1.00000000000000     
   1.00000000000000     
   1.00000000000000     
   1.00000000000000     
   1.00000000000000     
   1.00000000000000     
   1.00000000000000     
   1.00000000000000     
   1.00000000000000     
   1.00000000000000     
   1.00000000000000     
   1.00000000000000     
   1.00000000000000     
   1.00000000000000     
   1.00000000000000     
   1.00000000000000     
   1.00000000000000     
   1.00000000000000     
   1.00000000000000     
   1.00000000000000     
   1.00000000000000     
   1.00000000000000     
   1.00000000000000     
   1.00000000000000     
   1.00000000000000     
   1.00000000000000     
